ITEM: TIMESTEP
0
ITEM: NUMBER OF ATOMS
770
ITEM: BOX BOUNDS pp pp pp
-5.4207339810305477e-01 2.0542073398103128e+01
-5.4207339810305477e-01 2.0542073398103128e+01
-5.4207339810305477e-01 2.0542073398103128e+01
ITEM: ATOMS id type x y z c_charge
74 20 1.48191 1.72209 1.65916 -0.5
73 9 0.584868 1.88214 2.52631 0.52
75 19 0.263695 3.17519 2.86447 -0.35
77 1 0.338488 4.16809 1.87209 0.22
81 11 1.36622 4.33113 1.57405 0.06
684 19 2.27247 4.09559 4.58596 -0.35
76 19 0.354848 0.847264 3.49667 -0.35
309 11 4.67449 2.11946 0.942468 0.06
249 11 3.15792 -0.102573 -0.320068 0.06
308 11 3.75928 3.64703 0.604497 0.06
305 1 4.67653 3.1968 1.01932 0.22
79 11 -0.226093 3.8337 1.02287 0.06
489 11 2.88402 -0.222611 4.19876 0.06
488 11 3.41431 -0.439532 2.42809 0.06
19 11 -0.184785 -0.271344 0.309869 0.06
303 19 5.86895 3.73181 0.465145 -0.35
692 20 7.14423 1.15026 0.906263 -0.5
691 9 7.40434 1.02258 2.09815 0.52
694 19 7.75753 -0.224412 2.66284 -0.35
693 19 6.59081 1.83151 2.84298 -0.35
54 1 9.49006 3.77794 0.377338 0.22
60 11 9.60262 4.04715 1.4776 0.06
696 2 6.42366 1.15648 4.03273 0.22
453 11 8.45933 3.44216 3.88898 0.06
698 11 5.38737 1.25881 4.3607 0.06
695 2 6.91586 -0.215668 3.83842 0.22
58 11 9.07388 4.63363 -0.341998 0.06
59 11 8.62054 3.09571 0.460986 0.06
449 1 8.36895 4.4755 4.1444 0.22
451 11 7.33307 4.53267 4.48291 0.06
699 11 7.82293 -0.176109 4.39181 0.06
697 11 7.02506 1.95826 4.50788 0.06
307 11 4.75633 3.32338 2.11026 0.06
52 19 10.8208 3.28262 0.00656081 -0.35
348 11 13.6434 2.12688 -0.182006 0.06
50 20 10.499 1.04021 0.148267 -0.5
342 1 14.2055 1.70651 0.7236 0.22
347 11 13.5543 0.872861 1.02008 0.06
338 20 13.2593 4.49703 1.71034 -0.5
337 9 14.1737 3.84682 1.35069 0.52
346 11 15.2008 1.33914 0.34883 0.06
340 19 14.3107 2.56211 1.74959 -0.35
339 19 15.0841 4.41244 0.459684 -0.35
493 9 11.544 1.28843 4.5645 0.52
497 1 13.0286 -0.51105 4.24692 0.22
494 20 12.0167 2.31092 4.05321 -0.5
499 11 13.0873 -0.141925 3.25366 0.06
343 11 16.9898 4.05133 0.456933 0.06
345 11 16.5165 4.1341 2.12166 0.06
341 1 16.2994 4.5535 1.11549 0.22
17 1 19.8353 -0.467078 0.0564099 0.22
20 11 19.2353 -0.151029 0.935843 0.06
80 11 -0.117062 5.0695 2.31242 0.06
690 11 0.763858 5.82755 4.50598 0.06
306 1 4.43538 6.12526 2.14964 0.22
311 11 3.69348 6.88792 2.26673 0.06
312 11 3.82857 5.27541 2.50066 0.06
592 20 -0.397638 7.10878 1.37049 -0.5
8 11 2.89551 8.05906 4.46083 0.06
9 11 3.91173 9.30584 3.83278 0.06
301 9 6.10496 5.0047 0.92454 0.52
304 19 5.10267 5.94882 0.878998 -0.35
310 11 5.05081 6.22218 3.12266 0.06
452 11 8.34955 4.91665 3.27142 0.06
302 20 7.2941 5.30727 1.22625 -0.5
714 19 8.69306 7.62972 3.36799 -0.35
716 2 7.73806 9.01662 1.5671 0.22
713 19 6.88275 9.0356 2.66951 -0.35
711 9 7.3442 8.05325 3.5989 0.52
719 11 8.89925 7.17335 1.45222 0.06
720 11 9.84372 8.59737 1.89037 0.06
715 2 8.9028 8.12368 2.05302 0.22
717 11 7.17488 8.59817 0.697963 0.06
712 20 6.55205 7.43186 4.33334 -0.5
446 20 10.8265 5.18171 3.42993 -0.5
363 19 14.2265 7.97915 0.896451 -0.35
368 11 14.635 8.56106 2.82501 0.06
735 31 12.1031 5.48421 2.31838 1
361 9 12.9578 8.12703 1.34849 0.52
362 20 12.2681 7.06038 1.59572 -0.5
364 19 12.6125 9.23654 2.11401 -0.35
365 1 15.0667 7.91488 2.00848 0.22
369 11 15.2493 6.87417 2.41243 0.06
445 9 10.5472 5.1806 4.56753 0.52
558 11 11.7897 5.79091 -0.541318 0.06
591 9 19.865 7.03296 0.446746 0.52
344 11 16.5187 5.60181 1.12072 0.06
597 11 17.5081 7.74714 -0.159593 0.06
593 19 18.6947 7.72371 0.579155 -0.35
367 11 16.0312 8.40333 1.75437 0.06
480 11 17.7045 9.4494 4.44152 0.06
670 11 0.146229 10.6915 1.13748 0.06
669 11 0.00176382 10.9412 2.83908 0.06
665 2 0.671978 11.1556 1.9892 0.22
664 19 1.95065 10.8606 2.42433 -0.35
661 9 2.7324 12.0073 2.31514 0.52
663 19 2.08586 13.0156 1.54747 -0.35
666 2 0.731833 12.6992 1.79543 0.22
668 11 0.671792 12.994 0.698064 0.06
667 11 0.0315245 13.2768 2.34647 0.06
662 20 3.83587 12.1095 2.90593 -0.5
357 11 1.41206 10.1477 -0.486127 0.06
380 11 4.51532 14.1953 -0.317588 0.06
381 11 5.51354 13.2828 0.654634 0.06
377 1 5.40458 13.5875 -0.385522 0.22
718 11 8.08194 10.0448 1.3348 0.06
36 11 7.47881 12.3522 2.44202 0.06
26 20 9.87374 11.1791 3.04667 -0.5
25 9 9.32724 11.2471 4.15564 0.52
227 11 8.8488 14.4001 2.19954 0.06
222 1 9.89309 14.7995 2.13169 0.22
30 1 7.35693 12.2485 3.52918 0.22
34 11 6.26054 12.2251 3.56727 0.06
28 19 7.914 11.1023 4.16184 -0.35
35 11 7.73943 13.1906 3.98023 0.06
130 11 7.55199 11.8492 -0.377804 0.06
372 11 12.4252 11.2722 2.10429 0.06
370 11 12.7458 10.6833 0.531147 0.06
366 1 12.1542 10.3969 1.42909 0.22
371 11 11.1061 10.4948 1.15521 0.06
226 11 10.1654 14.8545 3.19984 0.06
737 26 14.6252 13.9404 4.59849 -0.39
228 11 10.5114 13.9717 1.74089 0.06
33 11 11.852 10.1356 4.38414 0.06
460 19 15.1263 12.5853 0.244819 -0.35
467 11 15.0198 14.5636 0.375239 0.06
31 11 11.5979 11.9013 4.64985 0.06
462 1 14.33 13.7135 0.211215 0.22
466 11 13.4222 13.8572 0.784199 0.06
266 20 20.4418 12.3967 4.66428 -0.5
272 11 18.253 13.0442 1.27313 0.06
273 11 16.983 12.5676 2.25561 0.06
271 11 17.7568 14.1042 2.56149 0.06
269 1 17.9504 13.0734 2.30256 0.22
267 19 18.9494 12.3662 3.01404 -0.35
265 9 19.3236 12.7491 4.28715 0.52
490 11 1.57108 15.4905 1.7733 0.06
419 11 -0.0677128 16.801 0.0441058 0.06
486 1 2.36675 16.1859 1.59287 0.22
491 11 2.28621 16.478 0.54608 0.06
492 11 3.22868 15.519 1.60357 0.06
484 19 2.2878 17.2705 2.53005 -0.35
481 9 1.99286 18.5907 1.99779 0.52
482 20 1.31936 18.6566 0.93167 -0.5
483 19 1.75754 19.6055 2.93709 -0.35
487 11 3.67375 19.3527 3.57969 0.06
485 1 2.99376 20.1613 3.33849 0.22
431 11 3.89712 18.913 -0.406346 0.06
295 11 -0.152265 19.3772 4.40705 0.06
296 11 -0.120728 17.8433 3.66535 0.06
768 26 5.86132 15.7811 1.37958 -0.39
770 26 4.98273 17.5763 2.05132 -0.39
766 26 4.92909 15.9374 3.38828 -0.39
764 27 6.05905 16.6297 2.64246 1.34
765 26 7.17086 17.4131 1.88441 -0.39
769 26 7.04589 15.6168 3.18086 -0.39
429 11 7.80408 19.3334 -0.346065 0.06
767 26 6.25542 17.5392 3.8484 -0.39
700 11 6.28548 20.073 4.19376 0.06
225 11 9.78287 18.8057 1.27395 0.06
220 19 9.90431 15.9869 1.39662 -0.35
523 11 9.2491 17.2844 3.94626 0.06
223 11 10.5884 19.7649 2.55838 0.06
500 11 14.0464 20.2309 4.46492 0.06
501 11 12.3783 19.668 4.13312 0.06
736 27 14.6464 15.5101 4.42011 1.34
741 26 13.1056 15.5413 4.39656 -0.39
740 26 14.8114 15.4022 2.88334 -0.39
738 26 14.7138 17.0097 4.34206 -0.39
728 11 13.3957 18.44 0.284231 0.06
217 9 11.1812 16.602 1.47923 0.52
218 20 12.1749 16.1084 0.905954 -0.5
224 11 11.3879 19.4161 1.04868 0.06
221 1 10.7379 18.9522 1.80115 0.22
219 19 11.2665 17.7682 2.31612 -0.35
727 11 14.5681 17.4218 1.11483 0.06
723 19 14.8435 19.5138 0.396201 -0.35
726 2 14.4508 18.1453 0.312223 0.22
742 26 16.1752 15.4667 4.5293 -0.39
417 11 16.9705 16.2691 1.9584 0.06
409 9 19.3455 16.3908 1.59916 0.52
410 20 20.1123 15.6761 2.26165 -0.5
413 1 17.2812 17.2796 2.20624 0.22
415 11 16.8973 17.4472 3.17745 0.06
416 11 16.9363 18.0563 1.52115 0.06
411 19 18.6703 17.4872 2.2306 -0.35
293 1 20.4551 18.4295 4.43837 0.22
297 11 19.3739 18.5611 4.18679 0.06
412 19 19.1113 16.0216 0.259708 -0.35
21 11 19.7676 19.531 -0.0419439 0.06
689 11 0.68056 4.41846 5.45959 0.06
78 1 0.429974 1.33293 4.90349 0.22
84 11 -0.133532 0.659452 5.55938 0.06
83 11 0.023201 2.31886 5.06673 0.06
82 11 1.42213 1.32331 5.36 0.06
510 1 -0.162389 3.76242 9.50248 0.22
506 20 2.59452 2.60023 7.84602 -0.5
508 19 0.911045 3.95726 8.60557 -0.35
505 9 2.04325 3.16712 8.85553 0.52
188 11 4.60643 0.16911 7.46204 0.06
681 9 3.47397 4.29657 5.33183 0.52
682 20 4.57593 3.76462 5.12684 -0.5
187 11 4.67184 1.46636 8.76758 0.06
513 11 4.27268 4.06584 9.13917 0.06
515 11 -0.24782 2.75239 9.86221 0.06
677 11 1.79947 -0.272565 9.95485 0.06
503 11 8.74055 1.13752 6.35849 0.06
498 1 9.7793 0.777856 6.1138 0.22
185 1 5.1468 0.621265 8.25913 0.22
189 11 5.2302 -0.227462 8.93763 0.06
183 19 6.56286 0.946715 7.93298 -0.35
181 9 7.39657 1.36608 8.97502 0.52
184 19 8.74657 1.39902 8.65364 -0.35
504 11 9.82545 -0.292097 5.94727 0.06
259 11 9.48696 3.55439 7.63699 0.06
257 1 9.48644 4.40718 8.35764 0.22
260 11 8.50704 4.33052 8.87323 0.06
186 1 9.34036 0.30461 9.42047 0.22
502 11 10.4644 1.00746 6.94989 0.06
496 19 10.1672 1.39404 4.87321 -0.35
495 19 12.4083 0.272141 5.20867 -0.35
255 19 10.555 4.21125 9.28576 -0.35
547 11 14.0112 3.57857 6.16841 0.06
546 2 15.0627 3.35291 6.39088 0.22
548 11 14.9048 2.32752 6.64844 0.06
190 11 10.3219 0.0583753 9.20449 0.06
253 9 11.8169 4.09857 8.64217 0.52
256 19 12.6457 2.97953 8.88734 -0.35
334 11 16.888 1.23169 4.97923 0.06
330 1 17.8206 1.40107 5.50168 0.22
336 11 18.6594 1.20105 4.8531 0.06
335 11 17.8858 2.46299 5.7014 0.06
328 19 17.8641 0.727654 6.78317 -0.35
325 9 18.5721 1.43605 7.82623 0.52
326 20 19.8117 1.3997 7.97802 -0.5
327 19 17.7836 2.11825 8.80984 -0.35
514 11 19.9641 3.97154 8.98497 0.06
543 19 15.8021 3.93722 5.28329 -0.35
329 1 17.3813 1.25715 9.87244 0.22
545 2 15.453 4.2683 7.59669 0.22
550 11 15.5522 3.68961 8.53796 0.06
333 11 16.5672 0.617087 9.5621 0.06
685 2 1.39345 5.12872 5.10661 0.22
688 11 2.08818 6.91564 6.09479 0.06
686 2 2.1916 5.85954 6.15339 0.22
687 11 1.88451 5.68871 7.20895 0.06
683 19 3.41305 5.24774 6.38557 -0.35
157 9 -0.370046 8.47192 9.32637 0.52
158 20 0.277915 7.42523 9.2398 -0.5
3 19 2.96919 9.77269 5.73129 -0.35
165 11 0.52669 9.45891 6.82851 0.06
7 11 4.51585 8.36306 5.12286 0.06
5 1 3.579 8.83635 4.75393 0.22
2 20 3.41911 9.24749 7.89944 -0.5
441 11 6.3494 6.19215 6.57543 0.06
437 1 6.02068 6.95457 7.28852 0.22
440 11 6.55301 7.84599 7.00571 0.06
439 11 4.96954 7.19069 7.27225 0.06
447 19 9.27613 5.00489 5.08511 -0.35
70 11 9.25745 8.14838 7.66548 0.06
66 1 9.33611 8.93732 8.4008 0.22
435 19 6.4006 6.50954 8.61429 -0.35
433 9 6.0278 7.41856 9.62816 0.52
71 11 9.04248 8.40379 9.31573 0.06
261 11 9.59485 5.33087 7.89676 0.06
72 11 8.5747 9.68145 8.16992 0.06
434 20 6.7295 8.38208 9.92117 -0.5
254 20 12.3351 5.13659 8.27175 -0.5
456 11 12.6342 7.05094 5.06318 0.06
454 11 10.9318 7.44595 5.3797 0.06
549 11 14.855 5.13833 7.76703 0.06
448 19 11.5107 5.45615 5.58084 -0.35
455 11 12.1474 7.06222 6.74183 0.06
450 1 11.7556 6.83179 5.73845 0.22
61 9 11.0725 9.94732 9.61282 0.52
64 19 10.6116 9.50547 8.36599 -0.35
63 19 12.3878 9.53599 9.90658 -0.35
470 20 14.7198 9.62632 4.91715 -0.5
68 11 14.3594 9.95675 9.26714 0.06
159 19 20.1852 9.21038 8.22225 -0.35
542 20 17.2353 5.7835 5.18416 -0.5
541 9 16.7133 4.88987 5.81301 0.52
544 19 16.3856 5.30179 7.07522 -0.35
474 1 17.8622 8.92265 5.32625 0.22
479 11 18.3866 8.03084 4.98373 0.06
472 19 16.6063 8.56901 5.87797 -0.35
287 11 17.5729 7.24761 8.98635 0.06
478 11 18.5169 9.48328 6.01143 0.06
469 9 15.6517 9.62769 5.78828 0.52
286 11 16.4674 8.50116 9.35891 0.06
288 11 15.8366 7.1328 8.55228 0.06
282 1 16.5696 7.45363 9.29374 0.22
163 11 -0.229986 10.9776 7.25472 0.06
161 1 0.107655 10.0296 7.62328 0.22
1 9 3.64913 10.0036 6.97873 0.52
630 11 1.6413 14.7655 5.90766 0.06
11 11 4.56796 13.0774 6.22628 0.06
4 19 4.42211 11.193 7.18213 -0.35
6 1 4.19968 12.0977 6.08067 0.22
10 11 3.18785 12.1556 5.60747 0.06
164 11 0.937709 10.291 8.28236 0.06
93 11 3.63323 11.2987 9.70894 0.06
12 11 4.83478 11.7524 5.29652 0.06
387 19 7.36597 14.0892 8.6056 -0.35
388 19 9.71462 14.5193 8.11319 -0.35
385 9 8.38933 14.139 7.67925 0.52
389 1 6.54848 15.2132 8.71098 0.22
392 11 5.72202 15.1714 8.00779 0.06
386 20 8.12593 14.1658 6.46332 -0.5
390 1 10.7447 13.5215 7.92693 0.22
395 11 11.6269 13.7567 8.56724 0.06
32 11 12.058 10.8731 5.88809 0.06
27 19 10.0853 10.8946 5.26298 -0.35
29 1 11.4285 10.9208 5.0677 0.22
475 11 14.9379 12.4673 6.65762 0.06
394 11 11.1548 13.4261 6.89234 0.06
69 11 13.0727 10.761 8.28421 0.06
396 11 10.5114 12.4663 8.18486 0.06
65 1 13.3212 10.4197 9.33174 0.22
67 11 13.4448 11.3059 9.88993 0.06
42 1 14.3181 15.2038 9.56321 0.22
274 11 18.8594 15.2361 4.82668 0.06
276 11 19.625 14.4282 6.2056 0.06
471 19 15.5352 10.4129 6.90667 -0.35
268 19 18.3423 13.2329 5.12089 -0.35
473 1 15.7916 11.8255 6.60541 0.22
477 11 16.1816 11.9486 5.55143 0.06
476 11 16.625 12.2751 7.14043 0.06
135 19 18.933 11.8732 8.72848 -0.35
133 9 19.4073 12.9069 9.58306 0.52
136 19 19.7848 14.1457 8.8897 -0.35
137 1 17.9562 11.0505 9.34057 0.22
141 11 17.8945 10.0988 8.81068 0.06
270 1 18.727 14.5109 5.63191 0.22
275 11 17.9381 14.852 6.30846 0.06
40 19 15.3203 14.252 9.11195 -0.35
140 11 16.9909 11.5465 9.35637 0.06
627 11 3.56023 17.0135 5.91043 0.06
629 11 1.49307 16.2929 5.14324 0.06
628 11 3.91288 15.3932 5.89407 0.06
291 19 -0.4801 17.8018 5.7262 -0.35
626 2 3.25855 16.1033 6.39155 0.22
625 2 1.79384 15.8422 6.11984 0.22
624 19 1.216 15.6525 7.40158 -0.35
622 20 1.94828 16.3508 9.45618 -0.5
621 9 2.27154 15.9328 8.34918 0.52
623 19 3.50239 16.3586 7.72573 -0.35
289 9 -0.401065 18.7405 6.77643 0.52
290 20 0.724986 19.2369 7.0318 -0.5
393 11 6.05675 15.339 9.68023 0.06
391 11 7.05076 16.1669 8.46025 0.06
528 11 4.88045 19.0219 6.03306 0.06
526 11 5.97314 17.614 6.50749 0.06
520 19 6.85624 19.4249 6.56122 -0.35
527 11 5.21755 18.9283 7.62402 0.06
522 1 5.68334 18.6837 6.67521 0.22
519 19 8.63353 18.6116 5.13707 -0.35
521 1 9.38955 17.4349 5.01474 0.22
517 9 8.07848 18.7713 6.39278 0.52
518 20 8.87428 18.85 7.3284 -0.5
525 11 8.88812 16.5704 5.48648 0.06
192 11 8.76444 20.4575 9.37761 0.06
739 26 14.5221 15.6744 5.93509 -0.39
524 11 10.4458 17.6081 5.14622 0.06
537 11 11.7117 19.2198 6.5783 0.06
535 11 12.7982 17.8562 6.49708 0.06
536 11 11.8454 18.0679 7.97113 0.06
533 1 12.3645 18.6148 7.16591 0.22
531 19 13.3125 19.5445 7.58542 -0.35
46 11 13.9011 15.8337 8.81659 0.06
529 9 14.5094 19.0321 8.18033 0.52
530 20 14.4597 18.2612 9.10895 -0.5
144 11 20.104 16.2033 9.35567 0.06
300 11 20.3571 19.9592 9.25533 0.06
299 11 19.8959 18.2579 9.27502 0.06
538 11 16.0426 17.4859 6.78844 0.06
539 11 17.3663 18.4919 6.66676 0.06
532 19 15.6264 19.4427 7.42152 -0.35
534 1 16.4977 18.31 7.28002 0.22
540 11 16.7908 18.0205 8.29596 0.06
292 19 19.5234 19.2058 7.42556 -0.35
138 1 19.4378 15.4244 9.5083 0.22
298 11 18.7967 19.4177 9.28032 0.06
294 1 19.7037 19.1887 8.82225 0.22
142 11 18.4603 15.7524 9.06514 0.06
507 19 2.69963 3.20546 10.1218 -0.35
516 11 -0.152634 4.36371 10.4169 0.06
509 1 3.69365 4.20086 10.069 0.22
512 11 4.34589 4.21667 11.0115 0.06
678 11 2.92629 -0.293141 11.2567 0.06
676 2 1.83567 -0.396202 11.0336 0.22
673 19 1.66314 0.141395 12.3481 -0.35
321 11 1.21257 3.74669 13.1256 0.06
317 1 2.04474 3.71639 13.8201 0.22
316 19 4.64533 2.44697 13.9365 -0.35
319 11 2.27817 2.76308 14.3489 0.06
146 20 0.0117166 1.66762 14.913 -0.5
313 9 4.3428 3.88463 13.8935 0.52
315 19 3.204 4.28047 13.2302 -0.35
320 11 1.80218 4.43086 14.6306 0.06
323 11 4.80507 1.63152 12.0263 0.06
318 1 5.39636 1.83043 12.9343 0.22
322 11 5.90435 0.869919 13.2012 0.06
182 20 7.0395 1.88604 10.0167 -0.5
324 11 6.26187 2.44487 12.6259 0.06
191 11 9.49646 0.538034 10.4869 0.06
744 26 7.66844 2.16778 15.11 -0.39
264 11 12.7241 1.61302 10.3743 0.06
263 11 12.0411 3.0405 10.9647 0.06
258 1 12.8085 2.66433 10.2966 0.22
262 11 13.741 3.03372 10.5823 0.06
608 11 14.0728 3.67767 14.784 0.06
603 19 15.1352 3.26166 14.3806 -0.35
604 19 15.1685 0.965116 15.0913 -0.35
170 20 12.8052 0.27774 12.7342 -0.5
331 11 18.2335 0.609571 10.1108 0.06
332 11 17.0537 1.85002 10.73 0.06
601 9 15.5178 1.93652 14.0931 0.52
602 20 16.4929 1.70954 13.3488 -0.5
283 11 18.9617 4.12727 12.6471 0.06
153 11 19.0683 0.00122988 13.7821 0.06
149 1 18.8519 -0.418095 14.726 0.22
152 11 17.7734 -0.314084 14.8473 0.06
511 11 3.22348 5.13382 10.0992 0.06
641 9 0.426574 7.24871 15.1505 0.52
649 11 3.39896 6.7109 14.8235 0.06
643 19 0.853256 8.54368 14.8498 -0.35
647 11 2.56293 8.65115 13.8527 0.06
646 2 2.28518 8.50057 14.8478 0.22
438 1 4.35598 7.67873 11.365 0.22
443 11 3.46767 7.24165 11.8236 0.06
442 11 4.10036 8.55939 10.8244 0.06
167 11 -0.420387 7.8272 12.0717 0.06
402 1 8.65669 5.72079 12.2833 0.22
408 11 9.05109 5.52999 11.2827 0.06
314 20 5.06267 4.80146 14.3872 -0.5
400 19 9.33928 5.14615 13.3918 -0.35
444 11 4.95409 7.88811 12.2578 0.06
436 19 5.09756 6.86104 10.526 -0.35
407 11 8.67622 6.78076 12.3653 0.06
406 11 7.59483 5.41563 12.2537 0.06
205 9 8.08764 9.26136 14.9545 0.52
208 19 7.93583 9.09863 13.5917 -0.35
398 20 10.7782 6.74479 14.1511 -0.5
397 9 10.6272 5.5864 13.795 0.52
399 19 11.7648 4.88457 13.3507 -0.35
404 11 11.9336 6.53278 11.9149 0.06
401 1 12.4791 5.6524 12.3851 0.22
405 11 13.3245 6.05638 12.854 0.06
403 11 12.923 5.00429 11.5696 0.06
102 1 12.7322 9.79839 13.6728 0.22
108 11 12.7371 8.83583 13.1521 0.06
106 11 12.9044 9.61922 14.7317 0.06
160 19 20.3165 9.1051 10.4841 -0.35
162 1 19.8481 8.18595 11.406 0.22
166 11 19.3315 7.30654 11.0619 0.06
285 11 17.4224 4.74004 13.1378 0.06
281 1 18.3359 5.00586 12.5756 0.22
284 11 18.8653 5.78421 13.1638 0.06
279 19 18.0735 5.3061 11.2455 -0.35
98 20 15.289 9.08154 13.7295 -0.5
580 11 17.8404 6.3551 15.04 0.06
642 20 20.48 6.83947 14.6298 -0.5
168 11 19.1654 8.67718 12.0982 0.06
280 19 16.3327 6.97887 10.5658 -0.35
277 9 16.747 5.64287 10.8591 0.52
278 20 15.8728 4.84215 11.1982 -0.5
579 11 16.1033 6.6326 14.2858 0.06
575 2 16.73 6.47188 15.1861 0.22
89 1 4.395 11.2551 10.467 0.22
115 11 1.71558 10.754 12.7772 0.06
116 11 -0.0160525 11.2368 12.3744 0.06
113 1 1.02539 11.586 12.4942 0.22
117 11 1.36586 11.9455 11.4542 0.06
111 19 1.15201 12.5555 13.522 -0.35
109 9 0.339671 13.6587 13.2354 0.52
95 11 4.40718 14.0114 12.4898 0.06
96 11 3.91432 13.42 14.1242 0.06
112 19 1.1247 14.7046 12.7156 -0.35
87 19 3.86536 11.2288 11.7973 -0.35
92 11 4.97697 10.3675 10.1181 0.06
216 11 7.73579 10.1745 11.8342 0.06
86 20 5.01045 10.4063 13.6449 -0.5
91 11 5.0066 12.1454 10.2274 0.06
210 1 8.09867 10.2923 12.881 0.22
215 11 9.16444 10.6004 12.9007 0.06
85 9 4.82948 11.3346 12.8427 0.52
88 19 5.52865 12.4596 13.1521 -0.35
637 11 9.45024 14.2711 12.3697 0.06
214 11 7.45371 11.1179 13.1849 0.06
90 1 4.76258 13.6324 13.4616 0.22
763 26 7.99964 15.0234 14.836 -0.39
94 11 5.38345 14.384 13.9018 0.06
760 26 8.48995 12.8859 15.018 -0.39
47 11 13.5114 14.7026 10.0917 0.06
638 11 10.1674 14.0069 10.8075 0.06
636 2 10.353 14.4237 11.772 0.22
62 20 10.2903 10.4278 10.3841 -0.5
639 11 11.0381 12.8647 13.2817 0.06
635 2 11.3723 13.4874 12.4793 0.22
640 11 11.7783 12.7998 11.7251 0.06
107 11 11.7441 10.1972 13.6498 0.06
634 19 12.4432 14.3092 12.8143 -0.35
100 19 13.6554 10.6421 13.1061 -0.35
97 9 15.0301 10.2046 13.3604 0.52
134 20 20.0087 12.4713 10.5348 -0.5
103 11 17.2788 12.2839 14.4481 0.06
104 11 15.5587 12.7224 14.357 0.06
38 20 15.4178 12.6574 10.7089 -0.5
139 11 18.2502 10.8319 10.3558 0.06
37 9 15.8767 13.6839 10.2917 0.52
101 1 16.2662 11.907 14.5066 0.22
39 19 17.0962 14.2148 10.7184 -0.35
43 11 18.0764 14.8669 12.6389 0.06
41 1 17.4748 14.1216 12.1047 0.22
44 11 16.5961 13.9925 12.7956 0.06
99 19 16.1007 11.105 13.3881 -0.35
45 11 18.0397 13.2012 12.157 0.06
110 20 20.2969 13.7974 13.7307 -0.5
710 11 17.4085 14.7083 15.1875 0.06
680 11 2.50827 18.4175 11.4658 0.06
118 11 1.38507 16.7205 12.8636 0.06
671 9 1.03921 20.3179 13.1552 0.52
672 20 1.42242 20.1413 14.3109 -0.5
675 2 1.5858 19.128 11.2931 0.22
679 11 0.889231 18.6234 10.5961 0.06
674 19 0.759868 19.1029 12.4613 -0.35
120 11 -0.233347 16.2157 13.519 0.06
119 11 -0.0119678 16.1866 11.8421 0.06
114 1 0.544013 15.9831 12.7528 0.22
613 19 4.17535 18.8669 14.5432 -0.35
616 2 4.40146 17.4882 14.5739 0.22
618 11 3.86796 17.1174 13.6762 0.06
652 20 5.54804 18.7082 10.2254 -0.5
651 9 6.66023 18.8382 10.7058 0.52
654 19 7.60813 17.7705 10.6261 -0.35
653 19 6.78427 19.7139 11.8155 -0.35
657 11 8.83998 19.8987 12.8533 0.06
658 11 7.09319 19.4601 13.0974 0.06
655 2 8.39502 18.0198 11.8288 0.22
656 2 7.96795 19.3691 12.4424 0.22
660 11 8.32327 17.1037 12.4381 0.06
659 11 9.37427 17.9773 11.4047 0.06
611 9 5.3064 19.4335 15.0902 0.52
614 19 6.42905 18.675 15.2122 -0.35
615 2 5.87885 17.3514 14.8367 0.22
620 11 6.41508 16.833 14.0193 0.06
179 11 12.3582 19.9995 10.4511 0.06
180 11 12.6865 18.5209 11.4062 0.06
48 11 14.779 15.8881 10.2507 0.06
631 9 11.9786 15.6156 12.5623 0.52
632 20 12.85 16.4813 12.4787 -0.5
633 19 10.6368 15.7743 12.114 -0.35
178 11 11.1957 18.7437 10.6651 0.06
174 1 11.9361 19.3006 11.1899 0.22
172 19 11.244 19.9912 12.2246 -0.35
169 9 12.1568 20.4004 13.1262 0.52
173 1 13.2117 19.499 15.0598 0.22
171 19 11.9854 20.0719 14.4731 -0.35
176 11 14.0483 19.5958 14.4135 0.06
568 11 14.9598 17.8788 13.178 0.06
570 11 16.1227 20.1158 12.9526 0.06
569 11 15.522 19.9437 11.2923 0.06
143 11 19.3459 15.3217 10.5968 0.06
567 11 15.2872 17.6328 11.5074 0.06
565 2 16.0424 19.4536 12.0784 0.22
562 20 18.8106 17.6016 11.2826 -0.5
564 19 17.4849 19.3375 11.7737 -0.35
561 9 17.7599 18.006 11.7059 0.52
563 19 16.8294 17.2151 12.2899 -0.35
566 2 15.6906 18.0276 12.4043 0.22
704 19 17.5805 16.7303 15.1911 -0.35
151 11 19.1598 19.6604 14.6541 0.06
155 11 -0.486138 4.08952 15.3609 0.06
244 19 2.82494 2.4174 17.3682 -0.35
242 20 2.17614 0.314283 16.9605 -0.5
241 9 2.54704 1.11912 17.7972 0.52
245 1 2.38114 0.264107 20.0258 0.22
243 19 3.1441 0.696754 18.9604 -0.35
246 1 2.42337 3.37486 18.305 0.22
251 11 2.66091 4.37706 17.9561 0.06
252 11 1.3706 3.26257 18.452 0.06
250 11 2.96797 3.31615 19.2654 0.06
247 11 1.79687 1.07352 20.4403 0.06
14 20 -0.46411 2.03707 19.9353 -0.5
154 11 0.0289557 3.73841 17.0219 0.06
428 11 7.23435 -0.344653 19.916 0.06
733 31 5.66638 0.0766538 17.067 1
749 26 6.34497 3.17554 16.5602 -0.39
743 27 7.77638 2.52529 16.5563 1.34
747 26 7.21949 1.08116 16.9532 -0.39
745 26 7.79201 2.88744 18.0971 -0.39
746 26 8.27324 3.97314 16.1273 -0.39
748 26 9.20185 2.02526 16.7302 -0.39
49 9 10.7749 1.99675 20.5283 0.52
51 19 11.4723 1.95883 19.3478 -0.35
56 11 12.0096 0.0031919 19.655 0.06
607 11 14.3012 3.65546 16.5865 0.06
606 2 14.4692 3.09828 15.6398 0.22
605 2 14.055 1.60202 15.7361 0.22
610 11 12.9342 1.50468 15.691 0.06
57 11 10.7395 0.426028 18.4042 0.06
53 1 11.6853 0.721347 18.8972 0.22
560 11 11.1484 4.5048 18.9816 0.06
559 11 12.8588 4.33757 18.7043 0.06
609 11 14.5037 1.13318 16.6335 0.06
55 11 12.5123 0.781799 18.1623 0.06
722 20 14.8101 -0.317545 19.7087 -0.5
15 19 19.3675 0.105659 19.9256 -0.35
147 19 19.5575 0.269241 15.7446 -0.35
145 9 19.9333 1.59438 15.3101 0.52
22 11 16.7845 2.19345 18.0685 0.06
16 19 18.4041 2.28127 19.4505 -0.35
13 9 19.5209 1.47766 19.8961 0.52
18 1 17.328 1.5441 18.8128 0.22
23 11 17.6672 0.623694 18.2552 0.06
148 19 19.45 2.59185 16.21 -0.35
156 11 19.6745 4.4888 16.7763 0.06
150 1 20.2986 3.73571 16.3421 0.22
24 11 16.4793 1.2341 19.4272 0.06
644 19 1.49027 6.47218 15.5941 -0.35
645 2 2.65016 7.18547 15.4545 0.22
648 11 2.8061 9.29435 15.3652 0.06
650 11 3.27798 7.38343 16.3246 0.06
356 11 0.934866 8.94902 19.2475 0.06
353 1 0.905126 9.98794 19.614 0.22
201 11 3.78944 7.93461 19.2288 0.06
207 19 6.871 9.34133 15.795 -0.35
734 31 6.32331 4.84911 15.7516 1
197 1 4.87151 7.91652 19.0568 0.22
200 11 4.98864 8.74523 18.3403 0.06
195 19 5.28565 6.79028 18.3423 -0.35
206 20 9.14936 8.969 15.4673 -0.5
193 9 6.53243 6.62361 17.7483 0.52
194 20 6.52558 6.23743 16.5406 -0.5
196 19 7.68273 6.64535 18.5419 -0.35
202 11 9.22426 7.76515 19.487 0.06
203 11 8.64972 8.40663 18.0052 0.06
198 1 8.29547 7.87206 18.8813 0.22
204 11 7.62662 8.62329 19.3393 0.06
199 11 5.53565 8.02866 19.8387 0.06
557 11 13.382 6.23513 19.8724 0.06
555 2 12.0399 5.02585 18.6303 0.22
732 31 10.4998 7.86464 15.3705 1
556 2 12.3127 6.16338 19.5986 0.22
554 19 11.942 5.57383 17.2968 -0.35
551 9 12.1475 7.01932 17.4588 0.52
553 19 12.2551 7.36955 18.8227 -0.35
552 20 11.5945 7.81308 16.7284 -0.5
464 11 14.8458 9.08937 18.9998 0.06
599 11 18.4982 6.19502 19.4586 0.06
595 2 19.0379 7.12955 19.5038 0.22
594 19 20.186 6.75955 20.2592 -0.35
596 2 18.2633 8.10584 20.3557 0.22
574 19 16.4546 5.28158 15.9797 -0.35
600 11 19.1407 7.49195 18.4877 0.06
577 11 15.547 8.10889 16.0983 0.06
571 9 16.0396 5.76813 17.2291 0.52
572 20 15.7119 4.97695 18.1361 -0.5
573 19 15.9884 7.15305 17.2941 -0.35
576 2 16.5274 7.66771 16.1165 0.22
578 11 17.0545 8.57651 15.6561 0.06
598 11 17.6102 8.69879 19.7034 0.06
350 20 19.955 9.65806 17.5063 -0.5
351 19 -0.335089 10.6361 19.4833 -0.35
355 11 1.50642 10.5009 18.8401 0.06
382 11 3.40028 14.4913 18.4877 0.06
383 11 4.46053 14.1492 17.2871 0.06
378 1 3.54049 13.7555 17.6956 0.22
384 11 2.68462 13.803 17.0734 0.06
376 19 3.72077 12.3832 18.159 -0.35
373 9 3.97744 12.1976 19.522 0.52
374 20 3.18279 11.8079 20.3155 -0.5
358 11 -0.13644 12.137 16.5214 0.06
379 11 6.21552 14.3059 20.4119 0.06
213 11 7.50635 11.1411 16.6037 0.06
211 11 5.8741 11.0209 15.7035 0.06
375 19 5.28909 12.4415 19.8619 -0.35
131 11 8.70018 12.9465 20.3408 0.06
209 1 6.63839 10.5811 16.3185 0.22
212 11 6.20823 10.4387 17.2742 0.06
757 27 8.31042 14.0891 15.9413 1.34
124 19 9.13215 10.8668 19.9256 -0.35
126 1 8.32036 12.0092 19.9303 0.22
132 11 7.78923 12.1664 19.0019 0.06
758 26 6.7693 13.6926 16.0788 -0.39
762 26 8.5965 13.152 17.1592 -0.39
759 26 9.83313 14.5098 15.867 -0.39
129 11 9.70327 10.786 16.9615 0.06
236 11 9.61145 15.1275 18.572 0.06
584 19 13.4128 14.1026 15.4303 -0.35
123 19 11.0539 10.4462 18.5755 -0.35
463 11 14.8591 10.5175 17.9553 0.06
121 9 10.4675 11.1286 19.6146 0.52
461 1 14.7498 10.1582 18.964 0.22
465 11 13.6808 10.4118 19.137 0.06
587 11 12.3209 14.5816 18.0299 0.06
122 20 11.0375 12.0319 20.282 -0.5
128 11 11.4949 10.6096 16.8425 0.06
125 1 10.6775 11.0593 17.4013 0.22
237 11 10.0889 15.2626 20.1433 0.06
127 11 10.8808 12.1429 17.3457 0.06
586 2 13.3126 14.7545 17.6416 0.22
583 19 13.1943 13.3576 17.5783 -0.35
581 9 13.3994 13.005 16.2766 0.52
582 20 13.6617 11.8502 15.9063 -0.5
468 11 13.8364 13.953 20.3795 0.06
105 11 16.2152 11.4461 15.5173 0.06
349 9 19.9982 10.5493 18.3387 0.52
352 19 19.494 11.7458 18.0178 -0.35
459 19 15.6023 10.7125 19.9446 -0.35
457 9 15.4558 12.1139 20.0695 0.52
359 11 19.3021 11.8891 15.8692 0.06
708 11 17.089 14.5372 17.5053 0.06
458 20 16.117 12.864 19.33 -0.5
360 11 19.8278 13.2953 16.5442 0.06
354 1 19.881 12.2647 16.7249 0.22
420 11 -0.486691 15.6126 19.8448 0.06
617 11 3.97954 16.8831 15.427 0.06
248 11 1.68002 20.5219 19.8096 0.06
426 1 4.26681 18.3421 19.8259 0.22
432 11 3.41539 18.2969 19.1691 0.06
430 11 4.60552 17.4022 20.2576 0.06
731 31 1.54575 20.1537 15.9717 1
753 26 -0.116737 16.4499 17.4255 -0.39
756 26 1.04645 16.9725 15.6011 -0.39
750 27 1.0965 17.4588 17.11 1.34
752 26 2.08573 16.3387 17.4882 -0.39
751 26 0.170252 18.6127 16.664 -0.39
755 26 1.13902 17.9327 18.5827 -0.39
754 26 2.26765 18.3648 16.8351 -0.39
427 11 8.93257 20.3353 19.686 0.06
425 1 7.95617 19.926 19.7724 0.22
612 20 5.2434 20.5297 15.5885 -0.5
619 11 5.97405 16.6893 15.7288 0.06
424 19 5.2133 19.1593 19.24 -0.35
421 9 6.34424 18.505 18.6906 0.52
423 19 7.5439 19.2274 18.593 -0.35
761 26 8.17085 15.3002 16.8487 -0.39
238 11 9.26183 17.302 16.9238 0.06
422 20 6.16556 17.5821 17.877 -0.5
234 1 9.81087 18.2066 16.7088 0.22
239 11 9.30237 19.1535 16.8631 0.06
240 11 9.82629 18.1978 15.6044 0.06
235 11 9.13237 16.5622 19.5135 0.06
233 1 9.98992 15.9005 19.2842 0.22
589 11 12.8762 16.285 16.2731 0.06
585 2 13.3777 15.284 16.2133 0.22
590 11 14.443 15.4969 15.9878 0.06
175 11 13.2245 18.5156 15.5248 0.06
588 11 13.8505 15.3798 18.3166 0.06
721 9 15.1816 19.7065 20.1252 0.52
177 11 13.4334 20.1137 15.9698 0.06
231 19 11.2269 16.5184 18.9821 -0.35
232 19 11.081 18.2074 17.2879 -0.35
229 9 11.0724 17.8593 18.6317 0.52
230 20 11.2495 18.7861 19.4598 -0.5
730 11 13.9578 17.467 19.4574 0.06
725 2 14.8619 17.5987 20.1042 0.22
724 19 15.036 18.6502 19.2885 -0.35
414 1 20.2034 16.3975 20.5212 0.22
702 20 15.9272 18.1338 15.8456 -0.5
709 11 18.9772 15.4777 15.6168 0.06
705 2 17.9156 15.5212 15.7904 0.22
418 11 19.9165 17.0956 19.7209 0.06
707 11 18.4814 15.6366 17.8391 0.06
706 2 17.5309 15.5108 17.2666 0.22
703 19 16.5463 16.5491 17.371 -0.35
729 11 15.4478 16.6447 20.1264 0.06
701 9 16.6317 17.1877 16.1214 0.52
ITEM: TIMESTEP
50
ITEM: NUMBER OF ATOMS
770
ITEM: BOX BOUNDS pp pp pp
-5.4082530668555506e-01 2.0540825306685633e+01
-5.4082530668555506e-01 2.0540825306685633e+01
-5.4082530668555506e-01 2.0540825306685633e+01
ITEM: ATOMS id type x y z c_charge
74 20 1.48289 1.76296 2.03597 -0.5
73 9 0.789148 2.06316 3.00814 0.52
75 19 -0.172577 3.11769 2.88771 -0.35
77 1 0.195008 4.13776 1.90547 0.22
81 11 0.950603 4.80256 2.32459 0.06
684 19 2.32767 4.21712 4.46157 -0.35
76 19 0.219209 0.956652 3.74997 -0.35
309 11 4.58906 1.99832 0.807278 0.06
249 11 3.13161 0.194268 -0.284548 0.06
308 11 3.59672 3.37861 0.82177 0.06
305 1 4.58181 3.05324 1.1477 0.22
79 11 0.57773 3.78213 0.934694 0.06
489 11 2.90891 0.0202997 3.71887 0.06
488 11 3.14175 -0.439092 2.07526 0.06
19 11 -0.287636 0.13454 0.576874 0.06
303 19 5.52832 3.81431 0.404953 -0.35
692 20 7.16037 1.5111 0.916661 -0.5
691 9 7.13558 1.25197 2.10673 0.52
694 19 7.78837 0.109923 2.52698 -0.35
693 19 6.54738 2.0254 3.14043 -0.35
54 1 9.6821 3.72103 0.532879 0.22
60 11 9.38063 3.58046 1.53463 0.06
696 2 6.35278 1.10228 4.20284 0.22
453 11 8.60679 3.31908 3.97506 0.06
698 11 5.28235 1.14459 4.34284 0.06
695 2 7.04359 -0.167212 3.77303 0.22
58 11 9.79334 4.62163 0.162657 0.06
59 11 8.92226 3.36733 -0.175863 0.06
449 1 8.39984 4.31811 4.34705 0.22
451 11 7.53076 4.14896 4.95665 0.06
699 11 8.13481 -0.242171 3.97605 0.06
697 11 6.70297 1.39977 5.16175 0.06
307 11 4.51272 3.01539 2.22131 0.06
52 19 10.9218 3.22266 0.303767 -0.35
348 11 14.0307 1.64635 -0.017729 0.06
50 20 10.6513 0.972099 0.0236241 -0.5
342 1 14.1777 1.49085 1.03362 0.22
347 11 13.4373 0.768579 1.3773 0.06
338 20 13.1798 4.45961 1.62152 -0.5
337 9 14.2122 3.8634 1.39602 0.52
346 11 15.1353 0.98702 1.17893 0.06
340 19 14.2778 2.63213 1.92802 -0.35
339 19 15.1002 4.45913 0.440389 -0.35
493 9 11.36 1.29388 4.18688 0.52
497 1 12.6161 20.4184 4.0204 0.22
494 20 11.8843 2.35177 3.78299 -0.5
499 11 12.7607 -0.300655 2.98182 0.06
343 11 17.1487 3.87465 0.599542 0.06
345 11 16.5154 4.52967 1.96424 0.06
341 1 16.4326 4.62583 0.92719 0.22
17 1 19.793 -0.202793 0.352578 0.22
20 11 19.16 0.433328 0.965208 0.06
80 11 -0.657421 4.76539 1.71592 0.06
690 11 0.826788 5.52398 4.4916 0.06
306 1 4.41559 6.34945 2.24989 0.22
311 11 4.7817 7.14014 2.85594 0.06
312 11 3.42841 6.77944 2.00862 0.06
592 20 -0.515656 7.3268 1.30304 -0.5
8 11 2.16068 8.71794 4.16954 0.06
9 11 3.77001 9.56869 3.98928 0.06
301 9 6.03164 5.0756 0.997538 0.52
304 19 5.16039 6.21856 1.10672 -0.35
310 11 4.27523 5.42668 2.7272 0.06
452 11 7.99588 4.84055 3.36307 0.06
302 20 7.22509 5.21646 1.10097 -0.5
714 19 8.72305 7.66616 3.40161 -0.35
716 2 7.9779 8.92309 1.55421 0.22
713 19 6.95945 8.89982 2.52016 -0.35
711 9 7.37209 8.08834 3.54904 0.52
719 11 9.35526 7.36669 1.15842 0.06
720 11 9.8515 8.43417 2.38127 0.06
715 2 8.96943 7.86805 2.00051 0.22
717 11 7.57518 8.8046 0.568672 0.06
712 20 6.50937 7.4782 4.18398 -0.5
446 20 10.8171 5.23615 3.38606 -0.5
363 19 14.3005 8.33549 0.948267 -0.35
368 11 15.8884 8.75496 2.33793 0.06
735 31 12.2545 5.53853 2.24313 1
361 9 13.1664 8.2482 1.81549 0.52
362 20 12.5511 7.24292 2.04629 -0.5
364 19 12.7339 9.46646 2.37258 -0.35
365 1 15.4332 7.98884 1.73191 0.22
369 11 15.2868 7.12743 2.37926 0.06
445 9 10.6833 5.07314 4.6027 0.52
558 11 11.7659 5.62417 20.4611 0.06
591 9 19.8208 7.28713 0.366337 0.52
344 11 16.9363 5.59928 0.714369 0.06
597 11 17.025 7.78708 19.6689 0.06
593 19 18.4153 7.3533 0.472941 -0.35
367 11 16.1683 7.63112 1.05775 0.06
480 11 17.9173 9.75955 4.81334 0.06
670 11 -0.456033 10.8377 1.48159 0.06
669 11 0.407173 11.0524 2.96491 0.06
665 2 0.490484 11.1691 1.88867 0.22
664 19 1.81241 10.7838 2.28761 -0.35
661 9 2.67472 11.8715 2.11135 0.52
663 19 2.00094 13.0697 1.67767 -0.35
666 2 0.697577 12.6382 1.31411 0.22
668 11 0.359967 12.7401 0.324073 0.06
667 11 0.14687 13.3659 1.93976 0.06
662 20 3.65793 11.8492 2.82278 -0.5
357 11 1.27224 10.0059 20.4768 0.06
380 11 4.85841 13.9452 -0.00196962 0.06
381 11 6.52906 13.4121 0.309779 0.06
377 1 5.8079 13.6527 -0.497301 0.22
718 11 8.33783 9.92258 1.64669 0.06
36 11 7.58703 12.2787 2.46157 0.06
26 20 9.84596 11.2226 2.98068 -0.5
25 9 9.30885 11.2171 4.05578 0.52
227 11 9.0171 13.9786 1.91949 0.06
222 1 9.89792 14.515 2.1544 0.22
30 1 7.18942 12.1712 3.47116 0.22
34 11 6.21052 11.8858 3.16497 0.06
28 19 7.87763 11.23 4.2318 -0.35
35 11 7.25138 13.1533 3.89567 0.06
130 11 8.1208 12.0534 0.0730081 0.06
372 11 12.8125 11.4306 1.88621 0.06
370 11 13.0896 10.4644 0.462418 0.06
366 1 12.6486 10.5045 1.43184 0.22
371 11 11.5878 10.4844 1.23828 0.06
226 11 9.95575 14.5847 3.21666 0.06
737 26 14.6066 13.9735 4.57546 -0.39
228 11 10.7178 13.9176 1.82741 0.06
33 11 11.421 9.74215 4.65241 0.06
460 19 15.1976 12.5195 0.340601 -0.35
467 11 14.9447 14.4455 1.04508 0.06
31 11 12.2201 11.1851 5.17975 0.06
462 1 14.4693 13.77 0.344549 0.22
466 11 13.4989 13.4558 0.729142 0.06
266 20 20.4701 12.4299 4.60338 -0.5
272 11 18.226 13.0412 1.1399 0.06
273 11 17.0725 12.6422 2.39301 0.06
271 11 17.9863 14.1242 2.5636 0.06
269 1 18.071 13.0733 2.24874 0.22
267 19 18.9966 12.3386 2.96351 -0.35
265 9 19.3922 12.8478 4.18436 0.52
490 11 1.50414 16.2255 0.957753 0.06
419 11 0.0358233 16.842 -0.387274 0.06
486 1 2.39274 16.3302 1.59068 0.22
491 11 3.29257 16.4516 0.968313 0.06
492 11 2.41137 15.3426 2.05887 0.06
484 19 2.31413 17.2953 2.62712 -0.35
481 9 1.75072 18.5346 2.2075 0.52
482 20 1.12863 18.6297 1.18638 -0.5
483 19 1.79518 19.5175 3.26322 -0.35
487 11 3.93141 19.7581 3.31689 0.06
485 1 2.99387 20.2648 3.06096 0.22
431 11 3.63573 18.4253 -0.33692 0.06
295 11 -0.343768 19.3746 4.39406 0.06
296 11 -0.372935 17.7728 3.83155 0.06
768 26 5.56703 15.8157 1.46691 -0.39
770 26 5.00063 17.7138 2.28223 -0.39
766 26 4.93351 15.8598 3.46048 -0.39
764 27 6.02247 16.6147 2.67674 1.34
765 26 7.09878 17.3725 1.84059 -0.39
769 26 7.075 15.581 3.13492 -0.39
429 11 8.49941 19.8756 -0.6827 0.06
767 26 6.39624 17.3922 3.9122 -0.39
700 11 6.45894 20.0019 3.95633 0.06
225 11 9.58244 18.2768 1.00956 0.06
220 19 9.85367 15.7806 1.54314 -0.35
523 11 9.19856 16.9881 3.83338 0.06
223 11 10.0384 19.3074 2.31481 0.06
500 11 13.628 20.0864 4.26429 0.06
501 11 11.9923 19.5382 3.9434 0.06
736 27 14.651 15.5409 4.57799 1.34
741 26 13.1051 15.6666 4.44312 -0.39
740 26 14.7977 15.6065 3.02958 -0.39
738 26 14.6838 17.0479 4.54765 -0.39
728 11 13.3248 18.3189 0.653742 0.06
217 9 11.1099 16.3545 1.55157 0.52
218 20 12.0865 15.7032 1.10704 -0.5
224 11 10.9497 19.3498 0.9191 0.06
221 1 10.4194 18.6724 1.56417 0.22
219 19 11.2323 17.6206 2.20405 -0.35
727 11 14.407 17.2234 1.24544 0.06
723 19 14.8216 19.4456 0.49066 -0.35
726 2 14.3915 18.0684 0.574377 0.22
742 26 16.1703 15.5873 4.71389 -0.39
417 11 17.0661 16.2245 1.64195 0.06
409 9 19.4085 16.3166 1.42813 0.52
410 20 20.1675 15.6438 2.08515 -0.5
413 1 17.3014 17.2117 2.05294 0.22
415 11 16.9714 17.1704 3.09859 0.06
416 11 16.8554 18.0643 1.58287 0.06
411 19 18.7542 17.4545 1.9995 -0.35
293 1 20.3938 18.3517 4.67026 0.22
297 11 19.3615 18.3724 4.73943 0.06
412 19 19.2497 15.9647 0.0737687 -0.35
21 11 19.7814 19.8662 0.759819 0.06
689 11 0.584734 4.27759 5.64803 0.06
78 1 0.425746 1.14451 5.09908 0.22
84 11 0.385543 0.259988 5.69212 0.06
83 11 -0.234587 1.90521 5.50678 0.06
82 11 1.39785 1.56874 5.31306 0.06
510 1 -0.020662 3.77629 9.57833 0.22
506 20 2.46015 2.06151 8.11276 -0.5
508 19 1.15003 3.84653 8.76561 -0.35
505 9 2.09581 2.74992 9.01523 0.52
188 11 4.50727 0.418958 7.48397 0.06
681 9 3.37263 4.19768 5.38 0.52
682 20 4.36843 3.66144 4.99635 -0.5
187 11 4.99045 1.91954 8.25283 0.06
513 11 4.52872 3.91884 9.31752 0.06
515 11 -0.116314 2.86995 10.2201 0.06
677 11 1.3141 0.10644 10.4973 0.06
503 11 8.78987 0.738109 6.11376 0.06
498 1 9.7987 0.830611 5.90411 0.22
185 1 5.12377 0.855842 8.31701 0.22
189 11 4.8338 0.381682 9.27475 0.06
183 19 6.41368 0.656182 7.84024 -0.35
181 9 7.27751 1.17394 8.85132 0.52
184 19 8.67711 1.22746 8.64636 -0.35
504 11 10.3533 -0.075569 6.16189 0.06
259 11 9.68324 3.70996 7.17735 0.06
257 1 9.4541 4.26371 8.08045 0.22
260 11 8.49096 3.89539 8.40178 0.06
186 1 9.27141 0.410808 9.52273 0.22
502 11 10.0422 1.61282 6.5859 0.06
496 19 9.98203 1.19791 4.5546 -0.35
495 19 12.1928 0.403039 4.92807 -0.35
255 19 10.4758 4.10063 9.09619 -0.35
547 11 13.8812 3.19742 6.70684 0.06
546 2 14.9009 3.41444 6.48007 0.22
548 11 15.2331 2.34512 6.52291 0.06
190 11 10.3135 0.855537 9.64492 0.06
253 9 11.8371 4.22199 8.63647 0.52
256 19 12.6456 3.07341 8.71854 -0.35
334 11 17.2592 1.68818 5.2132 0.06
330 1 18.2419 1.42751 5.65515 0.22
336 11 18.8885 0.916051 4.94113 0.06
335 11 18.7247 2.36926 5.89446 0.06
328 19 18.0566 0.511517 6.75735 -0.35
325 9 18.6332 1.11829 7.96028 0.52
326 20 19.8528 1.21407 8.11067 -0.5
327 19 17.8339 2.06525 8.74827 -0.35
514 11 20.1472 3.87148 9.00473 0.06
543 19 15.7141 3.78062 5.39483 -0.35
329 1 17.2176 1.32985 9.84075 0.22
545 2 15.5431 4.17035 7.64244 0.22
550 11 15.706 3.6568 8.56854 0.06
333 11 16.5444 0.535594 9.4803 0.06
685 2 1.34915 4.96777 5.23474 0.22
688 11 2.06274 6.86446 6.18931 0.06
686 2 2.08009 5.77497 6.3345 0.22
687 11 1.64518 5.69476 7.29804 0.06
683 19 3.45853 5.37147 6.26011 -0.35
157 9 -0.432306 8.51256 9.31224 0.52
158 20 -0.0941238 7.33942 9.18205 -0.5
3 19 2.67683 9.83551 5.72086 -0.35
165 11 -0.194733 10.2972 6.45171 0.06
7 11 3.62818 8.14134 4.979 0.06
5 1 3.09677 9.03087 4.6818 0.22
2 20 3.65934 9.20525 7.65493 -0.5
441 11 6.23051 6.23946 6.71325 0.06
437 1 5.91104 6.93229 7.48906 0.22
440 11 6.33855 7.89281 7.15527 0.06
439 11 4.79195 7.0291 7.53847 0.06
447 19 9.38368 4.98682 5.09956 -0.35
70 11 8.67006 9.04282 7.19208 0.06
66 1 9.05713 9.04912 8.23506 0.22
435 19 6.50346 6.43963 8.62484 -0.35
433 9 5.9795 7.23224 9.62161 0.52
71 11 9.10583 7.98351 8.48552 0.06
261 11 9.41825 5.3911 7.87583 0.06
72 11 8.32864 9.63016 8.86881 0.06
434 20 6.50755 8.31619 9.88821 -0.5
254 20 12.2758 5.27594 8.2646 -0.5
456 11 12.2983 7.56024 5.57338 0.06
454 11 10.5467 7.3513 5.15235 0.06
549 11 14.949 5.09708 7.86717 0.06
448 19 11.7514 5.6641 5.30396 -0.35
455 11 11.286 6.93223 6.76274 0.06
450 1 11.4265 6.988 5.72128 0.22
61 9 10.9192 9.94716 9.49903 0.52
64 19 10.3532 9.67483 8.24465 -0.35
63 19 12.1727 9.45516 9.91921 -0.35
470 20 14.6853 9.49879 5.05014 -0.5
68 11 14.1096 10.0735 10.1097 0.06
159 19 20.2557 9.20373 8.11226 -0.35
542 20 17.3011 5.38643 5.09592 -0.5
541 9 16.2992 5.0498 5.68801 0.52
544 19 16.4816 5.08887 7.08353 -0.35
474 1 17.8432 9.0623 5.69962 0.22
479 11 18.606 8.32497 5.5217 0.06
472 19 16.567 8.47477 5.98 -0.35
287 11 17.1979 6.9969 8.73836 0.06
478 11 18.1617 9.58741 6.57902 0.06
469 9 15.4933 9.51232 5.95573 0.52
286 11 16.3071 8.49377 9.22332 0.06
288 11 15.3721 7.0239 8.91325 0.06
282 1 16.3205 7.36233 9.36075 0.22
163 11 0.385847 10.8064 8.141 0.06
161 1 0.169991 9.95217 7.44444 0.22
1 9 3.65702 10.0599 6.72399 0.52
630 11 1.91368 14.4795 6.2253 0.06
11 11 4.65823 13.1683 6.57472 0.06
4 19 4.11006 11.3549 7.06904 -0.35
6 1 4.30815 12.2545 6.02052 0.22
10 11 3.36175 12.4588 5.57276 0.06
164 11 1.11419 9.41539 7.36442 0.06
93 11 3.84377 10.5506 9.74294 0.06
12 11 5.07159 12.0761 5.26172 0.06
387 19 7.18237 14.0348 8.56517 -0.35
388 19 9.61512 14.5351 8.27272 -0.35
385 9 8.31379 14.1289 7.74346 0.52
389 1 6.46854 15.2617 8.41594 0.22
392 11 5.94572 15.3279 7.44692 0.06
386 20 8.17653 13.9514 6.54302 -0.5
390 1 10.598 13.8408 7.54885 0.22
395 11 11.5751 14.3189 7.61489 0.06
32 11 11.5313 10.098 6.33235 0.06
27 19 10.0088 11.2541 5.27654 -0.35
29 1 11.3187 10.5599 5.31889 0.22
475 11 14.4951 12.1185 6.84789 0.06
394 11 10.3703 13.7161 6.48471 0.06
69 11 13.4121 10.4899 8.64272 0.06
396 11 10.6871 12.8162 7.92767 0.06
65 1 13.22 10.3777 9.6689 0.22
67 11 13.0375 11.4258 10.038 0.06
42 1 14.3642 15.2614 9.25659 0.22
274 11 19.1358 15.3674 4.92863 0.06
276 11 19.9945 14.3338 6.11614 0.06
471 19 15.424 10.4099 7.06712 -0.35
268 19 18.4229 13.4435 4.96816 -0.35
473 1 15.5376 11.7589 6.63225 0.22
477 11 15.7631 11.909 5.60697 0.06
476 11 16.2654 12.2851 7.24073 0.06
135 19 19.0329 11.7927 8.56167 -0.35
133 9 19.6828 12.8397 9.27416 0.52
136 19 19.6454 14.1144 8.74197 -0.35
137 1 18.1543 10.9865 9.37029 0.22
141 11 18.1328 9.99702 8.93414 0.06
270 1 19.003 14.5407 5.63099 0.22
275 11 18.3499 14.8907 6.42773 0.06
40 19 14.851 13.9355 9.07554 -0.35
140 11 17.1496 11.3466 9.32561 0.06
627 11 3.40289 17.1305 5.77063 0.06
629 11 1.27686 15.8381 5.37278 0.06
628 11 3.96137 15.5348 5.66581 0.06
291 19 -0.142936 17.808 5.85723 -0.35
626 2 3.27748 16.1629 6.23868 0.22
625 2 1.87142 15.5643 6.23162 0.22
624 19 1.59414 15.1468 7.61004 -0.35
622 20 2.10775 16.4817 9.40115 -0.5
621 9 2.43747 16.0549 8.29094 0.52
623 19 3.67066 16.3414 7.6338 -0.35
289 9 -0.119857 18.79 6.92408 0.52
290 20 0.926904 19.3149 7.17422 -0.5
393 11 5.6904 15.3295 9.16098 0.06
391 11 7.07959 16.1459 8.49393 0.06
528 11 4.96357 18.442 6.05373 0.06
526 11 6.17866 17.3182 6.52099 0.06
520 19 6.84902 19.3599 6.42123 -0.35
527 11 5.38266 18.5214 7.63224 0.06
522 1 5.85879 18.3594 6.63417 0.22
519 19 8.57772 18.6367 5.05987 -0.35
521 1 9.33564 17.432 4.83884 0.22
517 9 8.11726 18.8006 6.33729 0.52
518 20 8.89206 18.7773 7.25181 -0.5
525 11 9.06359 16.6464 5.53296 0.06
192 11 9.28791 20.4873 9.06019 0.06
739 26 14.5614 15.5384 6.0913 -0.39
524 11 10.3903 17.7908 4.90598 0.06
537 11 12.0625 18.5933 6.23574 0.06
535 11 13.0897 17.3278 6.96099 0.06
536 11 11.861 17.9469 7.86736 0.06
533 1 12.5964 18.282 7.15552 0.22
531 19 13.3508 19.3459 7.70554 -0.35
46 11 13.8635 15.5456 8.31471 0.06
529 9 14.6419 19.0299 8.21512 0.52
530 20 14.5083 18.5128 9.33943 -0.5
144 11 20.6729 15.8219 9.50253 0.06
300 11 20.363 20.1418 9.18658 0.06
299 11 20.2663 18.3483 9.29866 0.06
538 11 16.0178 17.8722 6.69257 0.06
539 11 17.3197 18.9772 6.35151 0.06
532 19 15.8462 19.6157 7.81972 -0.35
534 1 16.6767 18.6263 7.20901 0.22
540 11 17.4307 18.142 7.87068 0.06
292 19 19.6873 19.1921 7.51283 -0.35
138 1 19.8211 15.1033 9.71798 0.22
298 11 18.8158 19.2513 9.52682 0.06
294 1 19.776 19.2514 8.91719 0.22
142 11 18.9822 15.755 9.70421 0.06
507 19 2.98915 2.90633 10.1794 -0.35
516 11 -0.0226783 4.60281 10.2832 0.06
509 1 3.70014 4.15169 9.92174 0.22
512 11 3.9948 4.57028 10.7889 0.06
678 11 3.03086 -0.169309 10.9327 0.06
676 2 2.02995 -0.205091 11.2737 0.22
673 19 1.76649 0.246764 12.5888 -0.35
321 11 1.36078 3.19297 13.0058 0.06
317 1 1.99482 3.45739 13.8454 0.22
316 19 4.50735 2.40169 13.8629 -0.35
319 11 2.11243 2.44161 14.2516 0.06
146 20 0.1552 1.73234 15.0082 -0.5
313 9 4.31313 3.76109 13.616 0.52
315 19 3.01401 4.21176 13.2259 -0.35
320 11 1.39704 3.86424 14.633 0.06
323 11 4.42391 1.71156 11.8448 0.06
318 1 5.09478 1.75492 12.6959 0.22
322 11 5.32029 0.734554 12.9222 0.06
182 20 6.77524 1.60244 9.90682 -0.5
324 11 6.05989 2.19156 12.4146 0.06
191 11 8.8774 0.459722 10.537 0.06
744 26 7.70401 2.30882 15.0014 -0.39
264 11 12.3592 1.55265 10.0915 0.06
263 11 11.9188 3.03397 10.762 0.06
258 1 12.6598 2.61749 10.064 0.22
262 11 13.6655 2.87529 10.5335 0.06
608 11 13.3794 3.65553 15.0294 0.06
603 19 15.1748 3.38575 14.1411 -0.35
604 19 15.008 1.09701 14.743 -0.35
170 20 12.7861 0.323879 12.9426 -0.5
331 11 17.9644 0.838202 10.4641 0.06
332 11 16.57 1.99647 10.4171 0.06
601 9 15.6808 2.07404 13.9433 0.52
602 20 16.7095 1.83475 13.3045 -0.5
283 11 18.4251 3.70878 12.3926 0.06
153 11 18.9673 0.526523 13.5777 0.06
149 1 18.837 -0.0872658 14.5202 0.22
152 11 17.8368 0.102819 14.9083 0.06
511 11 3.08923 4.95048 9.43284 0.06
641 9 0.549697 7.24935 15.1904 0.52
649 11 3.66614 6.87577 15.4899 0.06
643 19 0.954388 8.5278 14.8115 -0.35
647 11 3.26961 8.98125 14.47 0.06
646 2 2.32273 8.5339 14.8869 0.22
438 1 4.31738 7.79106 11.1556 0.22
443 11 3.85236 7.46212 12.0793 0.06
442 11 3.5622 8.24796 10.4896 0.06
167 11 19.8349 7.22245 11.5426 0.06
402 1 8.96687 5.99173 12.2675 0.22
408 11 9.69331 5.8141 11.4849 0.06
314 20 5.14454 4.55371 14.141 -0.5
400 19 9.33746 5.46774 13.5159 -0.35
444 11 4.92866 8.536 11.6611 0.06
436 19 5.0185 6.69191 10.4783 -0.35
407 11 8.77031 7.08003 12.1533 0.06
406 11 8.13114 5.4193 11.8973 0.06
205 9 8.1435 9.27242 15.0626 0.52
208 19 7.87349 9.24801 13.7462 -0.35
398 20 10.6593 6.70996 14.6122 -0.5
397 9 10.612 5.87369 13.7394 0.52
399 19 11.7546 5.1418 13.3247 -0.35
404 11 12.057 6.25617 11.615 0.06
401 1 12.5929 5.74211 12.3533 0.22
405 11 13.2859 6.50277 12.8355 0.06
403 11 13.2419 5.02182 11.9142 0.06
102 1 12.4725 10.1987 13.8055 0.22
108 11 11.9973 9.3783 13.2795 0.06
106 11 12.6133 9.94037 14.846 0.06
160 19 20.3759 9.0049 10.5731 -0.35
162 1 19.487 8.21543 11.3482 0.22
166 11 18.5422 8.16784 10.7478 0.06
285 11 17.2045 4.80444 13.0602 0.06
281 1 18.0458 4.74799 12.3859 0.22
284 11 18.8623 5.25739 12.8328 0.06
279 19 17.871 5.23669 11.0354 -0.35
98 20 15.0193 8.91721 13.9921 -0.5
580 11 18.1818 7.13033 15.6768 0.06
642 20 -0.422511 6.73335 14.6563 -0.5
168 11 19.2894 8.7064 12.3233 0.06
280 19 16.3758 7.06738 10.7625 -0.35
277 9 16.5895 5.68774 10.7866 0.52
278 20 15.661 4.90396 10.7602 -0.5
579 11 16.7591 6.96896 14.5579 0.06
575 2 17.1496 6.91345 15.5496 0.22
89 1 4.29914 11.3131 10.4104 0.22
115 11 1.24982 10.7014 12.6408 0.06
116 11 -0.371301 11.3981 12.4918 0.06
113 1 0.687843 11.6012 12.586 0.22
117 11 0.960827 12.0879 11.7184 0.06
111 19 0.916583 12.4377 13.7255 -0.35
109 9 0.405895 13.7561 13.4948 0.52
95 11 3.73293 13.5498 13.446 0.06
96 11 4.88219 12.9671 14.6828 0.06
112 19 1.15706 14.6881 12.7637 -0.35
87 19 3.72212 11.2818 11.6728 -0.35
92 11 5.32239 11.0395 10.3406 0.06
216 11 7.69533 10.377 12.0078 0.06
86 20 5.07724 10.3303 13.326 -0.5
91 11 4.13818 12.2692 9.93004 0.06
210 1 8.20847 10.4318 12.9623 0.22
215 11 9.27849 10.581 12.7998 0.06
85 9 4.70992 11.2985 12.6825 0.52
88 19 5.40393 12.4738 12.7613 -0.35
637 11 9.72939 14.3552 12.6197 0.06
214 11 7.73486 11.3389 13.3291 0.06
90 1 4.78237 13.3219 13.6605 0.22
763 26 8.01638 14.81 14.6103 -0.39
94 11 5.33261 14.2828 13.5909 0.06
760 26 8.57267 12.7969 15.0303 -0.39
47 11 13.5882 15.2634 10.0262 0.06
638 11 9.76477 13.7859 10.9765 0.06
636 2 10.3709 14.3162 11.7462 0.22
62 20 10.1658 10.4726 10.3193 -0.5
639 11 11.3457 13.0479 13.1616 0.06
635 2 11.6211 13.4175 12.1288 0.22
640 11 11.7222 12.4562 11.6258 0.06
107 11 11.7965 11.0789 13.7903 0.06
634 19 12.5188 14.2937 12.6377 -0.35
100 19 13.6839 10.567 13.0685 -0.35
97 9 14.9105 10.024 13.475 0.52
134 20 20.0754 12.6669 10.4801 -0.5
103 11 17.0356 12.2674 14.7592 0.06
104 11 15.3296 12.7298 14.3439 0.06
38 20 15.4389 12.4409 10.7778 -0.5
139 11 18.3806 10.8133 10.4224 0.06
37 9 15.5808 13.5829 10.283 0.52
101 1 16.0221 11.8905 14.5439 0.22
39 19 16.7686 14.2871 10.5953 -0.35
43 11 17.8881 14.697 12.1747 0.06
41 1 17.1737 13.9724 11.8961 0.22
44 11 16.4711 14.2134 12.6315 0.06
99 19 15.9961 10.8848 13.5079 -0.35
45 11 17.6633 13.0081 12.0812 0.06
110 20 20.3769 14.0876 13.9335 -0.5
710 11 17.4301 14.8294 14.9771 0.06
680 11 2.38582 18.7923 11.4059 0.06
118 11 1.48508 16.6758 12.7698 0.06
671 9 1.34472 20.2507 13.3061 0.52
672 20 1.70044 19.9535 14.5006 -0.5
675 2 1.56413 19.3936 11.3355 0.22
679 11 0.860845 19.0987 10.5734 0.06
674 19 0.821952 19.2318 12.5318 -0.35
120 11 0.0426592 16.2618 13.5724 0.06
119 11 0.000714217 16.2757 11.9149 0.06
114 1 0.643358 16.0206 12.7243 0.22
613 19 4.29439 18.9409 14.2623 -0.35
616 2 4.30805 17.5739 14.5068 0.22
618 11 4.24475 17.5388 13.4418 0.06
652 20 5.47099 18.594 10.345 -0.5
651 9 6.531 18.7799 10.9702 0.52
654 19 7.60188 17.9294 10.7383 -0.35
653 19 6.75922 19.6731 12.0476 -0.35
657 11 8.9284 19.9997 12.7978 0.06
658 11 7.29144 19.2984 13.0921 0.06
655 2 8.48971 18.0764 11.7954 0.22
656 2 8.08379 19.4548 12.3876 0.22
660 11 8.07826 17.2154 12.3255 0.06
659 11 9.56379 17.8676 11.7315 0.06
611 9 5.4077 19.4436 14.9153 0.52
614 19 6.40775 18.5981 15.1756 -0.35
615 2 5.7684 17.4108 14.7453 0.22
620 11 6.20025 16.8399 13.9453 0.06
179 11 12.3369 20.128 10.2066 0.06
180 11 13.0793 19.1053 11.4535 0.06
48 11 15.1176 16.0557 9.4262 0.06
631 9 12.0225 15.5951 12.4058 0.52
632 20 12.8242 16.5294 12.4632 -0.5
633 19 10.8513 15.6714 11.6399 -0.35
178 11 11.711 18.4944 10.7026 0.06
174 1 12.1455 19.4511 11.0311 0.22
172 19 11.3432 20.049 12.0355 -0.35
169 9 11.9765 -0.507365 13.1875 0.52
173 1 13.2754 19.7276 14.9982 0.22
171 19 12.0826 19.7426 14.3412 -0.35
176 11 14.2166 19.9661 14.4137 0.06
568 11 15.1956 18.0402 13.5034 0.06
570 11 15.8369 20.1631 12.8965 0.06
569 11 15.648 19.6678 11.194 0.06
143 11 19.9257 14.9294 10.7586 0.06
567 11 15.0109 17.4083 11.823 0.06
565 2 16.0931 19.392 12.1825 0.22
562 20 18.8254 17.6403 11.4755 -0.5
564 19 17.3412 19.2433 11.6318 -0.35
561 9 17.8049 18.0173 11.9733 0.52
563 19 16.8011 17.1655 12.3565 -0.35
566 2 15.6767 17.9636 12.5391 0.22
704 19 17.4368 16.6512 14.9851 -0.35
151 11 18.97 19.8972 14.2649 0.06
155 11 20.1398 4.63778 15.7829 0.06
244 19 2.56694 2.46238 17.3338 -0.35
242 20 2.2553 0.195167 17.1524 -0.5
241 9 2.79525 1.1161 17.728 0.52
245 1 2.69039 0.0671203 19.8491 0.22
243 19 3.47969 0.832716 18.8792 -0.35
246 1 2.6531 3.48322 18.3189 0.22
251 11 2.08537 4.34775 17.9495 0.06
252 11 2.30506 3.25554 19.354 0.06
250 11 3.66571 3.88865 18.2481 0.06
247 11 1.62141 0.369047 19.8199 0.06
14 20 20.4081 2.05716 19.9987 -0.5
154 11 0.0334907 3.50979 16.6891 0.06
428 11 7.0204 -0.467091 20.4617 0.06
733 31 5.80595 0.174454 16.9549 1
749 26 6.17425 3.22322 16.2572 -0.39
743 27 7.59862 2.71444 16.472 1.34
747 26 6.96653 1.36272 16.9647 -0.39
745 26 7.50474 3.13646 17.979 -0.39
746 26 8.23819 4.12218 16.1021 -0.39
748 26 8.96784 2.11216 16.686 -0.39
49 9 11.0837 2.02847 -0.41644 0.52
51 19 11.6827 2.1228 19.352 -0.35
56 11 12.4347 0.0912294 19.2726 0.06
607 11 14.7072 3.90196 16.1663 0.06
606 2 14.3691 3.35 15.3155 0.22
605 2 14.3405 1.8559 15.7003 0.22
610 11 13.3304 1.56805 15.8703 0.06
57 11 10.8426 0.241468 18.7244 0.06
53 1 11.7852 0.764939 18.7295 0.22
560 11 10.9406 4.59628 18.5649 0.06
559 11 12.6239 4.05509 18.522 0.06
609 11 14.9597 1.70409 16.5572 0.06
55 11 12.1748 0.748546 17.7588 0.06
722 20 14.8877 -0.446583 19.6727 -0.5
15 19 19.5487 -0.0612311 20.0408 -0.35
147 19 19.6949 0.216658 15.6302 -0.35
145 9 20.148 1.52945 15.4779 0.52
22 11 17.727 1.8923 17.465 0.06
16 19 18.243 1.85185 19.4314 -0.35
13 9 19.5435 1.2737 19.6108 0.52
18 1 17.5147 1.38913 18.3672 0.22
23 11 17.5333 0.326336 18.2624 0.06
148 19 19.4134 2.63102 15.8746 -0.35
156 11 19.8064 3.98997 17.4902 0.06
150 1 20.081 3.76477 16.4472 0.22
24 11 16.471 1.64338 18.5543 0.06
644 19 1.52627 6.53709 15.8258 -0.35
645 2 2.70355 7.32316 15.745 0.22
648 11 2.02454 9.40805 15.4987 0.06
650 11 2.84542 7.63635 16.7817 0.06
356 11 1.03507 9.10123 19.0701 0.06
353 1 0.897582 10.0815 19.4679 0.22
201 11 4.35975 8.1615 19.4897 0.06
207 19 7.09528 9.21246 16.0651 -0.35
734 31 6.29588 4.81118 15.4595 1
197 1 5.37799 7.91544 19.2846 0.22
200 11 5.80494 8.85665 19.0151 0.06
195 19 5.38295 6.65167 18.4831 -0.35
206 20 9.27626 8.93096 15.4316 -0.5
193 9 6.58906 6.44151 17.76 0.52
194 20 6.48629 6.07012 16.5785 -0.5
196 19 7.76919 6.31841 18.5595 -0.35
202 11 9.50097 6.97759 18.8429 0.06
203 11 8.81426 8.01679 17.6426 0.06
198 1 8.5899 7.4472 18.5639 0.22
204 11 8.30031 8.1116 19.3478 0.06
199 11 5.99043 7.6287 20.2035 0.06
557 11 13.3269 5.89948 19.8001 0.06
555 2 11.9683 4.94843 18.4319 0.22
732 31 10.436 7.767 15.703 1
556 2 12.2469 5.89018 19.5681 0.22
554 19 11.7302 5.65531 17.2303 -0.35
551 9 12.0119 6.9923 17.6285 0.52
553 19 12.4581 7.18428 18.9281 -0.35
552 20 11.5664 7.96332 16.9531 -0.5
464 11 14.6373 9.52615 18.5108 0.06
599 11 19.3652 6.36595 19.3505 0.06
595 2 19.1539 7.46708 19.3056 0.22
594 19 20.2016 6.99788 20.1631 -0.35
596 2 18.0441 7.82188 20.2357 0.22
574 19 16.6202 5.64433 15.9867 -0.35
600 11 18.795 7.73322 18.3056 0.06
577 11 15.2866 7.99077 16.2243 0.06
571 9 16.1267 5.8455 17.3103 0.52
572 20 15.8482 4.99994 18.1257 -0.5
573 19 15.9392 7.12872 17.6018 -0.35
576 2 16.3645 7.86156 16.4313 0.22
578 11 16.6744 8.84308 16.4687 0.06
598 11 18.0883 8.8189 20.6744 0.06
350 20 20.1095 9.68787 17.6504 -0.5
351 19 -0.482404 10.3541 19.7527 -0.35
355 11 1.53766 10.6929 18.9164 0.06
382 11 3.26987 14.3377 18.3961 0.06
383 11 4.48682 14.1984 17.2457 0.06
378 1 3.6074 13.669 17.6037 0.22
384 11 2.74615 13.5481 16.8958 0.06
376 19 3.95171 12.3517 17.9458 -0.35
373 9 4.26306 12.2875 19.3333 0.52
374 20 3.45748 11.7602 20.0913 -0.5
358 11 0.348058 11.9701 16.5653 0.06
379 11 6.16924 14.4728 19.999 0.06
213 11 7.031 10.8539 17.3946 0.06
211 11 6.6688 11.3248 15.5896 0.06
375 19 5.62354 12.599 19.6909 -0.35
131 11 8.68799 12.9075 19.7966 0.06
209 1 6.67245 10.5603 16.4086 0.22
212 11 5.55305 10.6009 16.6104 0.06
757 27 8.2463 14.0438 15.9088 1.34
124 19 9.3445 10.8626 20.113 -0.35
126 1 8.45081 11.9051 20.1468 0.22
132 11 7.66293 11.4881 19.5387 0.06
758 26 6.67943 13.8435 15.9991 -0.39
762 26 8.46667 13.3317 17.2789 -0.39
759 26 9.78077 14.3329 15.8949 -0.39
129 11 9.64019 10.9568 17.202 0.06
236 11 9.93249 14.9566 18.5154 0.06
584 19 12.9512 14.1928 15.4592 -0.35
123 19 11.0927 10.7244 18.5794 -0.35
463 11 15.4346 10.9485 17.8923 0.06
121 9 10.5458 11.3227 19.6845 0.52
461 1 14.8675 10.5786 18.7449 0.22
465 11 14.0071 11.2151 18.6989 0.06
587 11 12.0937 14.4456 17.9699 0.06
122 20 11.239 11.8684 20.4465 -0.5
128 11 11.1798 10.9192 16.3941 0.06
125 1 10.6816 11.2498 17.2838 0.22
237 11 10.198 14.9863 20.1648 0.06
127 11 10.7658 12.3233 17.3171 0.06
586 2 13.0875 14.8119 17.6576 0.22
583 19 13.2184 13.3973 17.5644 -0.35
581 9 13.1185 13.0969 16.2484 0.52
582 20 13.2248 11.991 15.7989 -0.5
468 11 14.1597 14.2356 20.4419 0.06
105 11 15.7521 11.4741 15.506 0.06
349 9 19.9326 10.5702 18.4641 0.52
352 19 19.7546 11.8548 17.8549 -0.35
459 19 15.6473 10.6671 19.8968 -0.35
457 9 15.7674 12.0559 20.2502 0.52
359 11 19.7424 12.0867 15.772 0.06
708 11 17.2931 14.4547 17.5407 0.06
458 20 16.2355 12.8085 19.4259 -0.5
360 11 20.2932 13.3872 16.6468 0.06
354 1 20.3791 12.2566 16.6261 0.22
420 11 20.0645 16.4588 19.3483 0.06
617 11 3.62242 16.8682 14.8442 0.06
248 11 2.6437 20.0679 19.5947 0.06
426 1 4.45084 18.1 20.1014 0.22
432 11 3.98155 17.382 19.4114 0.06
430 11 5.11725 17.6355 -0.245161 0.06
731 31 1.21561 20.2931 16.0465 1
753 26 0.117552 16.4962 17.3134 -0.39
756 26 1.298 17.069 15.6523 -0.39
750 27 1.20012 17.5515 17.1084 1.34
752 26 2.3439 16.5459 17.4103 -0.39
751 26 0.188211 18.6485 16.785 -0.39
755 26 1.16564 18.0555 18.6013 -0.39
754 26 2.23616 18.6128 16.7099 -0.39
427 11 8.32558 0.171065 19.3124 0.06
425 1 7.80009 20.352 19.7637 0.22
612 20 5.28891 20.4014 15.6869 -0.5
619 11 5.97808 16.845 15.6315 0.06
424 19 5.23874 19.1125 19.4073 -0.35
421 9 6.38903 18.5658 18.8638 0.52
423 19 7.45204 19.4615 18.6882 -0.35
761 26 7.99462 15.2745 16.737 -0.39
238 11 9.03682 17.9959 17.0434 0.06
422 20 6.2871 17.4884 18.326 -0.5
234 1 9.99406 18.3535 16.6311 0.22
239 11 9.99503 19.3852 16.2654 0.06
240 11 10.01 17.8085 15.7013 0.06
235 11 9.19034 16.298 19.3514 0.06
233 1 10.0775 15.6611 19.3022 0.22
589 11 12.1436 15.4995 15.9246 0.06
585 2 13.1651 15.367 16.2292 0.22
590 11 13.5648 16.3546 16.3333 0.06
175 11 13.5049 18.6874 15.326 0.06
588 11 13.4754 15.3267 18.568 0.06
721 9 14.9436 19.5809 20.188 0.52
177 11 13.1984 20.1941 15.9416 0.06
231 19 11.2417 16.3619 18.9666 -0.35
232 19 11.1639 18.1527 17.4034 -0.35
229 9 10.9636 17.7173 18.7138 0.52
230 20 11.2131 18.6092 19.5334 -0.5
730 11 13.8023 17.1063 19.7584 0.06
725 2 14.676 17.4714 20.2465 0.22
724 19 15.2284 18.5403 19.4402 -0.35
414 1 20.102 16.7401 20.3519 0.22
702 20 15.8812 18.1227 15.7158 -0.5
709 11 18.9433 15.1975 15.5591 0.06
705 2 17.8717 15.4863 15.6576 0.22
418 11 19.7252 17.7182 20.2089 0.06
707 11 18.0211 15.9784 17.7896 0.06
706 2 17.3322 15.4727 17.1429 0.22
703 19 16.4788 16.559 17.1869 -0.35
729 11 15.4215 16.7135 20.2721 0.06
701 9 16.7499 17.3313 16.0395 0.52
ITEM: TIMESTEP
100
ITEM: NUMBER OF ATOMS
770
ITEM: BOX BOUNDS pp pp pp
-5.4394737504176405e-01 2.0543947375041832e+01
-5.4394737504176405e-01 2.0543947375041832e+01
-5.4394737504176405e-01 2.0543947375041832e+01
ITEM: ATOMS id type x y z c_charge
74 20 1.55237 1.82861 2.51969 -0.5
73 9 0.506711 1.93319 3.11064 0.52
75 19 -0.419411 2.91919 2.71383 -0.35
77 1 -0.00773706 3.96714 1.87526 0.22
81 11 0.540662 4.80525 2.33029 0.06
684 19 2.15525 4.29775 4.57226 -0.35
76 19 0.202765 0.959634 4.1269 -0.35
309 11 4.31237 2.28064 0.85799 0.06
249 11 3.75207 -0.0459771 -0.605604 0.06
308 11 3.07301 3.53166 1.07236 0.06
305 1 4.14923 3.33083 1.06151 0.22
79 11 0.578599 3.58063 1.03148 0.06
489 11 3.23251 0.20275 3.52035 0.06
488 11 3.13376 -0.546776 1.9084 0.06
19 11 -0.38154 0.327799 1.02717 0.06
303 19 4.94359 4.16078 0.272903 -0.35
692 20 7.18186 1.85777 0.947152 -0.5
691 9 7.28683 1.54626 2.13324 0.52
694 19 7.55843 0.177687 2.30942 -0.35
693 19 6.57825 2.10598 3.26807 -0.35
54 1 9.69242 3.40606 0.59213 0.22
60 11 9.39528 2.5927 1.27043 0.06
696 2 6.3425 1.03828 4.18326 0.22
453 11 9.04751 3.5256 3.70719 0.06
698 11 5.27586 1.12697 3.96397 0.06
695 2 6.89244 -0.247367 3.43469 0.22
58 11 9.65048 4.45443 1.19736 0.06
59 11 9.01271 3.51374 -0.232887 0.06
449 1 8.56888 4.29453 4.36317 0.22
451 11 7.96252 3.7448 5.13205 0.06
699 11 7.89826 -0.516378 3.65958 0.06
697 11 6.21523 0.986343 5.27758 0.06
307 11 4.4552 3.41149 2.11931 0.06
52 19 11.116 3.02225 0.348304 -0.35
348 11 14.7412 1.67343 0.248577 0.06
50 20 10.7695 0.834995 0.254926 -0.5
342 1 14.2727 1.55866 1.21648 0.22
347 11 13.2057 1.41901 1.17938 0.06
338 20 13.3837 4.60355 1.81747 -0.5
337 9 14.2247 3.87843 1.30513 0.52
346 11 14.7449 0.741283 1.68427 0.06
340 19 14.5329 2.7256 1.95359 -0.35
339 19 15.1853 4.29417 0.326123 -0.35
493 9 11.3909 1.32304 4.08853 0.52
497 1 12.308 20.2364 3.76539 0.22
494 20 11.6424 2.30307 3.37133 -0.5
499 11 12.4225 20.3695 2.70354 0.06
343 11 16.821 3.20516 1.29618 0.06
345 11 16.6663 4.96064 1.77834 0.06
341 1 16.4266 4.18582 0.950308 0.22
17 1 19.8285 -0.124985 0.58188 0.22
20 11 18.9814 0.32598 1.07521 0.06
80 11 20.1711 4.36569 1.37346 0.06
690 11 0.700396 5.67379 4.76886 0.06
306 1 4.01599 6.41419 1.98295 0.22
311 11 4.31036 7.14649 2.79906 0.06
312 11 3.18136 6.95389 1.52996 0.06
592 20 20.5002 7.51706 1.15526 -0.5
8 11 2.22878 9.18582 3.87696 0.06
9 11 3.85769 9.85568 4.08237 0.06
301 9 5.73336 5.10975 0.987119 0.52
304 19 5.18442 6.3192 1.06912 -0.35
310 11 3.64517 5.42745 2.36493 0.06
452 11 7.94523 4.90645 3.83779 0.06
302 20 6.95781 5.04272 1.05055 -0.5
714 19 8.76612 7.62199 3.41841 -0.35
716 2 8.03515 8.69057 1.52752 0.22
713 19 6.96085 8.61237 2.43123 -0.35
711 9 7.44009 7.93196 3.50411 0.52
719 11 9.56078 7.2652 1.19698 0.06
720 11 10.0467 8.50277 2.28712 0.06
715 2 9.19053 7.89007 2.07685 0.22
717 11 7.51134 8.16182 0.726358 0.06
712 20 6.80601 7.7632 4.52156 -0.5
446 20 10.7984 5.29684 3.10162 -0.5
363 19 14.3496 8.29232 1.1151 -0.35
368 11 16.2191 9.08233 1.16804 0.06
735 31 12.3524 5.80379 2.35396 1
361 9 13.401 8.34028 2.18922 0.52
362 20 12.5109 7.45454 2.32064 -0.5
364 19 13.0762 9.54753 2.84202 -0.35
365 1 15.6542 8.24228 1.61865 0.22
369 11 15.8646 8.41832 2.67802 0.06
445 9 10.6924 5.3455 4.32799 0.52
558 11 11.8107 5.81396 20.2697 0.06
591 9 19.7524 7.27054 0.22603 0.52
344 11 17.0861 4.42314 0.136947 0.06
597 11 17.1528 7.09387 20.1204 0.06
593 19 18.3416 7.39072 0.411013 -0.35
367 11 16.2257 7.34028 1.33194 0.06
480 11 17.853 9.3957 5.02562 0.06
670 11 -0.215033 10.6248 0.973774 0.06
669 11 -0.123962 11.1237 2.55299 0.06
665 2 0.483587 11.1508 1.65389 0.22
664 19 1.77098 10.5874 1.96426 -0.35
661 9 2.48327 11.7954 2.18596 0.52
663 19 2.00212 12.9502 1.54098 -0.35
666 2 0.69249 12.5643 1.22862 0.22
668 11 0.0778447 12.7959 0.316131 0.06
667 11 0.632217 13.3228 1.99374 0.06
662 20 3.59206 11.8345 2.75754 -0.5
357 11 1.46429 9.97645 -0.417955 0.06
380 11 4.64811 13.9863 -0.111658 0.06
381 11 6.32863 14.0863 -0.0288619 0.06
377 1 5.53994 13.963 20.3685 0.22
718 11 8.33311 9.66408 1.10317 0.06
36 11 7.46027 12.4728 2.7015 0.06
26 20 9.68373 11.2015 3.0815 -0.5
25 9 9.24272 11.5066 4.24149 0.52
227 11 9.18502 13.5389 1.7963 0.06
222 1 9.96721 14.1541 2.28589 0.22
30 1 7.06444 12.1004 3.60756 0.22
34 11 6.26945 11.4479 3.22157 0.06
28 19 7.84079 11.2661 4.47814 -0.35
35 11 6.6967 12.9242 4.25965 0.06
130 11 8.2365 11.653 0.402655 0.06
372 11 13.0665 11.5895 2.58157 0.06
370 11 13.4079 10.5376 1.11409 0.06
366 1 12.7659 10.6729 2.00495 0.22
371 11 11.7092 10.7309 1.71741 0.06
226 11 9.72419 14.2342 3.38575 0.06
737 26 14.6295 14.0872 4.40641 -0.39
228 11 10.9628 13.6357 2.159 0.06
33 11 10.7938 9.6816 4.80791 0.06
460 19 15.4637 12.3998 0.340552 -0.35
467 11 14.8712 14.2695 -0.228929 0.06
31 11 11.8537 11.1025 4.32589 0.06
462 1 14.4245 13.3996 0.243884 0.22
466 11 14.0307 13.6886 1.24283 0.06
266 20 20.5354 12.3805 4.64399 -0.5
272 11 17.9495 12.8152 1.28648 0.06
273 11 16.9171 12.7837 2.62518 0.06
271 11 18.0549 14.1022 2.48087 0.06
269 1 17.9227 13.0406 2.31698 0.22
267 19 18.9251 12.2683 2.98208 -0.35
265 9 19.4472 12.7981 4.23477 0.52
490 11 1.32691 15.6864 1.46767 0.06
419 11 -0.305151 16.6118 19.8777 0.06
486 1 2.18491 16.2297 1.82205 0.22
491 11 2.70983 16.7653 1.05274 0.06
492 11 2.81052 15.4701 2.24924 0.06
484 19 1.84752 17.1654 2.86832 -0.35
481 9 1.57827 18.4596 2.50246 0.52
482 20 0.923276 18.6693 1.431 -0.5
483 19 1.96325 19.5544 3.34314 -0.35
487 11 3.98379 19.7742 3.14426 0.06
485 1 3.07787 20.3317 3.00365 0.22
431 11 4.06026 18.4228 0.0673977 0.06
295 11 20.0573 19.2031 4.80877 0.06
296 11 20.1264 17.6453 4.12952 0.06
768 26 5.61972 15.854 1.37203 -0.39
770 26 5.18256 17.8464 2.41108 -0.39
766 26 5.00748 15.8532 3.52955 -0.39
764 27 6.07707 16.5914 2.62899 1.34
765 26 7.21475 17.2975 1.83916 -0.39
769 26 6.98849 15.3176 2.86978 -0.39
429 11 8.78133 20.1992 19.9723 0.06
767 26 6.48394 17.2919 3.9353 -0.39
700 11 6.33643 19.9278 3.6775 0.06
225 11 9.90734 17.782 0.363105 0.06
220 19 9.97917 15.4775 1.6624 -0.35
523 11 9.16514 17.0237 3.75445 0.06
223 11 9.29498 18.5401 1.95002 0.06
500 11 13.0571 19.5716 4.19028 0.06
501 11 11.3267 19.8277 4.02001 0.06
736 27 14.6291 15.5917 4.63445 1.34
741 26 13.0833 15.6086 4.43801 -0.39
740 26 14.7574 15.7762 3.10456 -0.39
738 26 14.6384 17.1411 4.79087 -0.39
728 11 12.9151 18.3699 0.355174 0.06
217 9 11.2414 16.2087 1.70005 0.52
218 20 12.1218 15.8912 0.914062 -0.5
224 11 10.6464 19.2432 1.07239 0.06
221 1 10.1717 18.2783 1.30648 0.22
219 19 11.126 17.6043 2.08262 -0.35
727 11 14.0269 17.4359 1.34304 0.06
723 19 14.5452 19.3634 0.482642 -0.35
726 2 13.9614 18.149 0.504743 0.22
742 26 16.1715 15.6088 4.72155 -0.39
417 11 17.0719 16.315 1.81211 0.06
409 9 19.4196 16.297 1.32924 0.52
410 20 20.1344 15.6046 2.05539 -0.5
413 1 17.4818 17.3047 2.00513 0.22
415 11 17.2423 17.4153 3.05222 0.06
416 11 17.0017 18.1164 1.43689 0.06
411 19 18.84 17.5091 1.82108 -0.35
293 1 20.0461 18.1703 5.11057 0.22
297 11 19.0195 17.9658 5.64475 0.06
412 19 19.2416 16.0301 -0.066343 -0.35
21 11 19.8286 19.9423 0.934076 0.06
689 11 0.4323 4.37561 5.84781 0.06
78 1 0.99334 1.24394 5.29775 0.22
84 11 0.694981 0.622858 6.17794 0.06
83 11 0.892979 2.27887 5.62469 0.06
82 11 2.07051 1.05317 5.22039 0.06
510 1 0.021369 3.60091 9.68545 0.22
506 20 2.01434 1.5448 8.25331 -0.5
508 19 1.05036 3.60875 8.64893 -0.35
505 9 2.01941 2.58332 8.95862 0.52
188 11 4.59892 0.434602 6.8368 0.06
681 9 3.36783 4.54431 5.1393 0.52
682 20 4.18779 3.61254 5.07104 -0.5
187 11 4.63205 1.79488 7.82163 0.06
513 11 4.72192 3.58232 9.07666 0.06
515 11 0.0983433 2.66931 10.2453 0.06
677 11 1.51725 0.706183 11.3989 0.06
503 11 8.48558 0.862907 5.87514 0.06
498 1 9.60206 0.86346 5.68569 0.22
185 1 4.99438 0.729573 7.80888 0.22
189 11 4.35764 0.186503 8.54129 0.06
183 19 6.37474 0.446808 8.03856 -0.35
181 9 7.14259 0.986612 9.12606 0.52
184 19 8.46016 1.04024 8.74379 -0.35
504 11 10.1169 0.0632522 6.20121 0.06
259 11 9.82958 3.76714 7.19565 0.06
257 1 9.53433 4.42767 8.01068 0.22
260 11 8.53315 4.02294 8.26652 0.06
186 1 9.49886 0.383905 9.64231 0.22
502 11 9.80562 1.72449 6.28127 0.06
496 19 10.0164 0.943245 4.31353 -0.35
495 19 12.3985 0.367802 4.45375 -0.35
255 19 10.3123 4.30477 9.15799 -0.35
547 11 14.0986 4.06491 6.0073 0.06
546 2 14.8653 3.42397 6.50259 0.22
548 11 14.2564 2.61784 6.8602 0.06
190 11 10.481 0.613235 9.31199 0.06
253 9 11.7255 4.32312 8.95466 0.52
256 19 12.3907 3.0892 8.74919 -0.35
334 11 17.4394 1.76705 5.18298 0.06
330 1 18.365 1.4485 5.63575 0.22
336 11 19.0178 0.968382 4.91206 0.06
335 11 18.8679 2.41732 5.88031 0.06
328 19 18.0696 0.566728 6.76599 -0.35
325 9 18.6045 1.14214 7.97672 0.52
326 20 19.8362 1.09218 8.23116 -0.5
327 19 17.7182 1.99259 8.77259 -0.35
514 11 20.0745 3.70345 9.30656 0.06
543 19 15.4981 3.88555 5.36725 -0.35
329 1 17.1873 1.31632 9.89779 0.22
545 2 15.4482 4.16591 7.6195 0.22
550 11 15.8241 3.42806 8.35177 0.06
333 11 16.8248 0.336339 9.6129 0.06
685 2 1.23557 4.94691 5.4196 0.22
688 11 2.30957 6.71655 6.23203 0.06
686 2 1.96703 5.72529 6.50019 0.22
687 11 1.32664 5.85031 7.41264 0.06
683 19 3.34909 5.37694 6.31011 -0.35
157 9 -0.491806 8.36025 9.26274 0.52
158 20 -0.163377 7.2042 9.09926 -0.5
3 19 2.54626 10.0589 5.68397 -0.35
165 11 -0.0771821 10.5701 7.14375 0.06
7 11 3.4526 8.35271 4.76519 0.06
5 1 3.04619 9.34624 4.55583 0.22
2 20 4.09596 9.24106 7.04561 -0.5
441 11 6.21569 6.23388 6.49846 0.06
437 1 5.97117 6.83629 7.39414 0.22
440 11 6.28894 7.8442 7.1019 0.06
439 11 4.89491 6.8796 7.45689 0.06
447 19 9.5645 5.02696 5.07246 -0.35
70 11 8.61153 9.61441 7.09318 0.06
66 1 8.849 9.40955 8.12063 0.22
435 19 6.49113 6.38015 8.66405 -0.35
433 9 6.09813 7.23517 9.75613 0.52
71 11 8.68767 8.34759 8.23395 0.06
261 11 9.45157 5.41943 7.58823 0.06
72 11 8.28915 10.0205 8.7528 0.06
434 20 6.6968 8.27795 9.88686 -0.5
254 20 12.1595 5.35648 8.38622 -0.5
456 11 12.1422 7.74598 6.19338 0.06
454 11 10.7021 7.68931 5.24167 0.06
549 11 14.675 4.70206 8.12212 0.06
448 19 11.8171 5.95858 4.98919 -0.35
455 11 10.8348 6.78191 6.74418 0.06
450 1 11.3561 7.06454 5.76297 0.22
61 9 10.6914 9.85068 9.61475 0.52
64 19 10.2317 9.70073 8.28299 -0.35
63 19 11.9097 9.29019 9.95936 -0.35
470 20 14.5873 9.31619 5.25547 -0.5
68 11 13.7904 10.0069 10.5134 0.06
159 19 20.2735 9.05762 8.09091 -0.35
542 20 17.1364 5.1146 4.77261 -0.5
541 9 16.5809 4.52741 5.72999 0.52
544 19 16.4028 4.96799 7.02767 -0.35
474 1 17.7329 9.14347 6.05813 0.22
479 11 18.6223 8.51804 6.31689 0.06
472 19 16.4921 8.48063 6.16915 -0.35
287 11 16.62 7.26275 8.74619 0.06
478 11 17.8029 10.0784 6.64474 0.06
469 9 15.4153 9.40721 6.1715 0.52
286 11 15.8521 8.63337 9.45707 0.06
288 11 14.9409 7.21344 9.19579 0.06
282 1 15.92 7.59072 9.46645 0.22
163 11 1.22146 9.72123 8.16631 0.06
161 1 0.354848 9.65914 7.54556 0.22
1 9 3.54761 10.1826 6.57089 0.52
630 11 2.46422 14.0231 6.48218 0.06
11 11 4.93733 12.971 6.28459 0.06
4 19 3.6689 11.4583 6.98835 -0.35
6 1 4.33791 12.1785 5.95508 0.22
10 11 3.6839 12.4832 5.10986 0.06
164 11 0.585638 9.06191 6.65359 0.06
93 11 3.94424 10.2963 9.57437 0.06
12 11 5.13583 11.5565 5.51152 0.06
387 19 7.25302 14.173 8.66713 -0.35
388 19 9.43413 14.4889 8.14351 -0.35
385 9 8.21521 13.8515 7.70714 0.52
389 1 6.28158 15.1521 8.30034 0.22
392 11 6.1718 15.2225 7.22322 0.06
386 20 7.92442 13.6496 6.51828 -0.5
390 1 10.6352 14.1666 7.40759 0.22
395 11 11.4399 14.4499 8.06473 0.06
32 11 11.7848 10.5527 5.98468 0.06
27 19 10.1632 11.513 5.31081 -0.35
29 1 11.2251 10.6645 5.09259 0.22
475 11 14.2527 12.04 6.36174 0.06
394 11 10.6639 14.6987 6.47043 0.06
69 11 13.2819 10.4459 8.87006 0.06
396 11 10.6819 13.108 7.25846 0.06
65 1 12.8904 10.3184 9.90721 0.22
67 11 12.598 11.2783 10.2217 0.06
42 1 14.3223 15.2246 9.19335 0.22
274 11 19.5348 15.5137 5.05631 0.06
276 11 20.061 14.4093 6.29403 0.06
471 19 15.3453 10.402 7.16019 -0.35
268 19 18.5716 13.5939 5.04486 -0.35
473 1 15.2369 11.7435 6.57062 0.22
477 11 15.8396 11.8262 5.61955 0.06
476 11 15.7733 12.4932 7.16689 0.06
135 19 18.9655 11.8976 8.48482 -0.35
133 9 19.6102 12.8794 9.32535 0.52
136 19 19.6496 14.0896 8.66565 -0.35
137 1 18.0009 11.1256 9.15882 0.22
141 11 17.8996 10.1105 8.76129 0.06
270 1 19.1988 14.6932 5.72187 0.22
275 11 18.4697 15.1507 6.41304 0.06
40 19 14.413 13.8103 9.25661 -0.35
140 11 17.0407 11.6754 9.09039 0.06
627 11 2.92497 16.6481 5.19385 0.06
629 11 1.31269 15.0624 5.65897 0.06
628 11 4.07781 16.0119 6.22755 0.06
291 19 0.0565856 17.8165 5.99396 -0.35
626 2 3.01435 16.1654 6.17873 0.22
625 2 2.06503 15.0364 6.45637 0.22
624 19 1.80046 14.9728 7.84909 -0.35
622 20 2.30633 16.6796 9.29769 -0.5
621 9 2.66147 15.9496 8.3861 0.52
623 19 3.54023 16.4909 7.47579 -0.35
289 9 0.1551 18.7342 7.0823 0.52
290 20 1.2309 19.4271 7.18914 -0.5
393 11 5.29707 14.9981 8.80275 0.06
391 11 6.75426 16.1046 8.62034 0.06
528 11 4.99652 18.8562 7.1845 0.06
526 11 5.71455 17.5726 6.37786 0.06
520 19 6.83507 19.2425 6.38762 -0.35
527 11 6.1504 18.0257 7.99802 0.06
522 1 5.9818 18.3847 7.02571 0.22
519 19 8.90321 18.5908 5.08756 -0.35
521 1 9.36479 17.2693 4.77023 0.22
517 9 8.2061 18.6896 6.37057 0.52
518 20 8.97175 18.7666 7.36926 -0.5
525 11 8.82029 16.4311 5.23502 0.06
192 11 9.41636 20.3938 9.60496 0.06
739 26 14.4761 15.4789 6.15052 -0.39
524 11 10.4033 17.1378 4.85307 0.06
537 11 12.5067 18.2214 6.28152 0.06
535 11 13.431 17.2099 7.29056 0.06
536 11 12.0176 17.7806 7.9331 0.06
533 1 12.8629 18.0923 7.29649 0.22
531 19 13.5034 19.296 7.67084 -0.35
46 11 13.3042 15.583 9.06555 0.06
529 9 14.6749 19.089 8.45494 0.52
530 20 14.5159 18.529 9.51051 -0.5
144 11 -0.0539101 15.3492 9.23406 0.06
300 11 -0.528287 19.9857 9.37117 0.06
299 11 20.4552 18.2002 9.51275 0.06
538 11 15.8151 17.8924 6.74386 0.06
539 11 16.4416 19.3337 6.15642 0.06
532 19 15.8865 19.5766 8.04367 -0.35
534 1 16.3572 18.7569 7.03889 0.22
540 11 17.384 18.5218 7.21444 0.06
292 19 19.9824 19.0779 7.6137 -0.35
138 1 19.9929 15.2351 9.45298 0.22
298 11 19.0417 19.149 9.46081 0.06
294 1 20.0147 19.0951 9.05369 0.22
142 11 19.5361 16.189 9.13175 0.06
507 19 3.01359 2.72862 10.0381 -0.35
516 11 0.180296 4.43472 10.3966 0.06
509 1 3.90733 3.83622 9.83346 0.22
512 11 4.49954 4.05305 10.8258 0.06
678 11 2.97858 0.0136122 10.6105 0.06
676 2 2.26634 -0.0640151 11.4905 0.22
673 19 2.08108 0.319913 12.8213 -0.35
321 11 1.4099 3.18432 12.7735 0.06
317 1 1.96175 3.57638 13.6478 0.22
316 19 4.70407 2.30192 13.7068 -0.35
319 11 2.35325 2.81529 14.4288 0.06
146 20 0.267224 1.69067 15.1897 -0.5
313 9 4.45628 3.70596 13.6077 0.52
315 19 3.15051 4.29216 13.206 -0.35
320 11 1.24537 4.25731 14.1675 0.06
323 11 4.37228 2.03143 11.755 0.06
318 1 5.07037 1.70662 12.5168 0.22
322 11 4.9224 0.602812 12.6443 0.06
182 20 6.63103 1.76147 9.95736 -0.5
324 11 6.12917 1.95115 12.3797 0.06
191 11 9.49671 0.747423 10.6735 0.06
744 26 7.53866 2.20602 15.0179 -0.39
264 11 12.9633 1.48595 9.96578 0.06
263 11 12.0165 2.60103 10.8005 0.06
258 1 12.7909 2.55699 10.0199 0.22
262 11 13.6157 3.11732 10.3419 0.06
608 11 13.0954 3.38583 14.5357 0.06
603 19 15.3258 3.47812 13.9161 -0.35
604 19 15.2139 1.29367 14.6435 -0.35
170 20 12.6536 0.507831 13.1035 -0.5
331 11 17.9916 1.07458 10.5961 0.06
332 11 16.3435 1.81561 10.371 0.06
601 9 15.7184 2.18184 13.7045 0.52
602 20 16.7635 1.97338 13.0997 -0.5
283 11 18.2696 3.41184 11.9799 0.06
153 11 19.0903 0.67319 13.6131 0.06
149 1 18.7855 0.0618494 14.444 0.22
152 11 17.729 0.282941 14.674 0.06
511 11 3.36511 4.75979 9.63446 0.06
641 9 0.640717 7.20781 15.1647 0.52
649 11 3.57435 6.93181 15.728 0.06
643 19 1.01311 8.47112 14.6209 -0.35
647 11 3.16941 8.808 14.5426 0.06
646 2 2.29225 8.69086 15.1083 0.22
438 1 4.06326 7.65912 10.9988 0.22
443 11 3.34254 6.95623 11.4408 0.06
442 11 3.64296 8.02224 10.0697 0.06
167 11 19.2186 7.37622 11.0861 0.06
402 1 8.93164 6.09223 12.0364 0.22
408 11 9.48604 5.68296 11.1798 0.06
314 20 5.32174 4.42607 14.0051 -0.5
400 19 9.36008 5.79701 13.3187 -0.35
444 11 4.23279 8.36379 11.8156 0.06
436 19 5.15915 6.81352 10.7253 -0.35
407 11 8.92248 7.15547 11.9132 0.06
406 11 7.90883 5.71833 12.0016 0.06
205 9 8.26596 9.34438 15.1346 0.52
208 19 7.8146 9.16401 13.8596 -0.35
398 20 10.8565 6.78752 14.6313 -0.5
397 9 10.6496 6.01516 13.7247 0.52
399 19 11.6987 5.21158 13.2736 -0.35
404 11 12.3444 6.0812 11.4858 0.06
401 1 12.604 6.06791 12.5861 0.22
405 11 12.7276 7.07518 12.8518 0.06
403 11 13.6047 5.61648 12.6436 0.06
102 1 12.2964 10.1382 13.4449 0.22
108 11 11.7142 9.72343 12.6012 0.06
106 11 12.2807 9.41395 14.2965 0.06
160 19 20.6062 8.91761 10.5399 -0.35
162 1 19.4083 8.46923 11.2735 0.22
166 11 18.5443 9.02018 11.0437 0.06
285 11 17.29 4.5531 13.0234 0.06
281 1 17.9748 4.41607 12.1708 0.22
284 11 18.9708 4.87047 12.4105 0.06
279 19 17.5851 5.03164 10.9855 -0.35
98 20 14.5284 8.80936 14.1796 -0.5
580 11 18.2167 7.36424 16.0388 0.06
642 20 -0.235697 6.51666 14.672 -0.5
168 11 19.6158 8.53068 12.3363 0.06
280 19 16.312 7.08606 10.718 -0.35
277 9 16.337 5.63541 10.7964 0.52
278 20 15.3996 4.9167 10.4781 -0.5
579 11 16.7546 7.5878 14.8461 0.06
575 2 17.1196 7.29405 15.8529 0.22
89 1 4.10386 11.2061 10.0842 0.22
115 11 0.787262 10.489 13.1131 0.06
116 11 20.5251 11.5252 12.6129 0.06
113 1 0.4849 11.5226 12.8747 0.22
117 11 1.02282 11.829 11.9226 0.06
111 19 0.811123 12.3703 13.9816 -0.35
109 9 0.31204 13.7021 13.6256 0.52
95 11 3.69307 13.8637 13.6296 0.06
96 11 4.56855 12.7021 14.6024 0.06
112 19 1.20061 14.5149 12.8198 -0.35
87 19 3.63708 11.0568 11.4373 -0.35
92 11 5.20381 11.4229 10.0149 0.06
216 11 8.45629 9.7759 12.0229 0.06
86 20 4.92178 10.4002 13.0884 -0.5
91 11 3.46677 11.9878 9.65824 0.06
210 1 8.27835 10.194 13.0167 0.22
215 11 9.2345 10.626 13.3375 0.06
85 9 4.59886 11.3229 12.3631 0.52
88 19 5.04838 12.6604 12.5383 -0.35
637 11 9.62372 14.0989 12.2733 0.06
214 11 7.56232 11.0145 12.8911 0.06
90 1 4.63789 13.3353 13.7087 0.22
763 26 8.26309 14.8139 14.4356 -0.39
94 11 5.31612 14.138 13.9104 0.06
760 26 8.5133 12.6561 15.2789 -0.39
47 11 14.6653 15.7254 10.1023 0.06
638 11 10.1011 13.8878 10.5954 0.06
636 2 10.4505 14.228 11.5531 0.22
62 20 10.2645 10.7344 10.3451 -0.5
639 11 11.5956 13.0839 13.0394 0.06
635 2 11.593 13.3632 12.0339 0.22
640 11 11.2266 12.4288 11.6026 0.06
107 11 11.8825 11.0288 13.8848 0.06
634 19 12.7056 14.2036 12.2854 -0.35
100 19 13.5674 10.4516 12.9362 -0.35
97 9 14.639 9.93941 13.6751 0.52
134 20 20.3486 12.6305 10.2213 -0.5
103 11 16.7897 12.2251 14.4068 0.06
104 11 15.0663 12.479 14.1581 0.06
38 20 15.2203 12.2295 10.6993 -0.5
139 11 18.2168 11.019 10.2249 0.06
37 9 15.3004 13.3698 10.2822 0.52
101 1 15.8139 11.7486 14.4393 0.22
39 19 16.4 14.1779 10.5724 -0.35
43 11 17.9842 14.6774 12.0539 0.06
41 1 17.0493 14.1036 11.8693 0.22
44 11 16.4317 14.4624 12.719 0.06
99 19 15.8553 10.6504 13.582 -0.35
45 11 17.3414 13.0886 12.0307 0.06
110 20 20.3513 14.1262 14.0874 -0.5
710 11 17.9063 14.6378 15.0895 0.06
680 11 2.20867 18.7739 11.9906 0.06
118 11 1.92395 16.4565 13.2196 0.06
671 9 1.38877 20.4186 13.4576 0.52
672 20 1.29658 20.3812 14.6159 -0.5
675 2 1.69111 19.5839 11.3402 0.22
679 11 2.04044 19.3935 10.3148 0.06
674 19 1.25439 19.2541 12.6266 -0.35
120 11 0.146526 16.3993 13.0304 0.06
119 11 1.16415 16.2043 11.6855 0.06
114 1 1.10992 15.9503 12.7632 0.22
613 19 4.38535 19.0903 14.1318 -0.35
616 2 4.46035 17.6554 14.0359 0.22
618 11 4.65352 17.6284 12.9309 0.06
652 20 5.46872 18.4646 10.5654 -0.5
651 9 6.55232 18.7225 11.0517 0.52
654 19 7.62912 17.8898 10.8831 -0.35
653 19 6.84107 19.7493 11.9407 -0.35
657 11 8.05371 20.1855 11.8759 0.06
658 11 8.75965 19.586 13.4657 0.06
655 2 8.61763 18.0811 11.8323 0.22
656 2 8.08473 19.3702 12.6021 0.22
660 11 8.91372 17.2503 12.4708 0.06
659 11 9.52152 18.2863 11.26 0.06
611 9 5.40675 19.4384 15.0492 0.52
614 19 6.30692 18.3702 15.2131 -0.35
615 2 5.61796 17.2087 14.9369 0.22
620 11 6.15825 16.4184 14.381 0.06
179 11 11.7747 19.9024 9.91596 0.06
180 11 13.2489 20.1454 10.8249 0.06
48 11 14.9355 15.65 8.40885 0.06
631 9 12.1834 15.5252 12.0704 0.52
632 20 12.7462 16.5595 12.4199 -0.5
633 19 10.9292 15.5477 11.4512 -0.35
178 11 12.5466 18.5606 10.8511 0.06
174 1 12.2977 19.6114 10.8343 0.22
172 19 11.4759 19.9999 11.9128 -0.35
169 9 12.0777 20.484 13.0651 0.52
173 1 13.0405 19.4635 15.0133 0.22
171 19 11.9081 19.6801 14.1832 -0.35
176 11 13.9381 19.5118 14.4985 0.06
568 11 14.8899 17.6147 13.189 0.06
570 11 16.1902 19.7462 13.324 0.06
569 11 15.5878 19.8856 11.6883 0.06
143 11 19.935 15.0485 10.5755 0.06
567 11 15.4398 17.4961 11.5618 0.06
565 2 16.1776 19.2776 12.3264 0.22
562 20 18.9812 17.6401 11.724 -0.5
564 19 17.4466 19.322 11.8304 -0.35
561 9 17.7731 17.9838 11.6979 0.52
563 19 16.8682 17.0876 12.281 -0.35
566 2 15.7243 17.8253 12.5242 0.22
704 19 17.4431 16.6347 15.0055 -0.35
151 11 18.9516 20.1462 14.1358 0.06
155 11 19.0732 4.49014 16.2008 0.06
244 19 2.48146 2.59418 17.3896 -0.35
242 20 2.09099 0.33579 17.0514 -0.5
241 9 2.67391 1.19692 17.6996 0.52
245 1 2.94835 0.10679 19.7119 0.22
243 19 3.61761 0.721831 18.5992 -0.35
246 1 2.93735 3.51554 18.3693 0.22
251 11 2.26788 4.35098 18.491 0.06
252 11 2.85424 3.05422 19.3286 0.06
250 11 3.91754 3.94337 18.1896 0.06
247 11 2.16116 0.714622 20.1054 0.06
14 20 20.3456 2.05485 19.7692 -0.5
154 11 -0.45669 3.92955 16.9099 0.06
428 11 7.30497 20.4823 -0.327306 0.06
733 31 5.42122 0.404429 17.008 1
749 26 6.1276 3.34844 16.1619 -0.39
743 27 7.47878 2.81303 16.488 1.34
747 26 6.7888 1.4636 16.8835 -0.39
745 26 7.46607 3.32515 17.9174 -0.39
746 26 8.08398 4.18256 15.9934 -0.39
748 26 8.87636 2.25685 16.7689 -0.39
49 9 11.1526 1.85117 -0.370645 0.52
51 19 11.8937 1.8677 19.5028 -0.35
56 11 12.0892 -0.0865353 19.1705 0.06
607 11 14.2948 4.38975 15.312 0.06
606 2 14.191 3.45203 14.7389 0.22
605 2 14.6028 2.15384 15.5531 0.22
610 11 13.8959 1.33878 15.3252 0.06
57 11 10.5622 0.597052 18.5503 0.06
53 1 11.6518 0.800846 18.6839 0.22
560 11 11.1908 4.18045 18.4053 0.06
559 11 12.7306 4.33187 17.7698 0.06
609 11 14.5168 2.38391 16.6497 0.06
55 11 12.2188 0.923835 17.6904 0.06
722 20 14.9146 -0.605044 19.6985 -0.5
15 19 19.7227 -0.109346 20.2509 -0.35
147 19 19.629 0.245272 15.5736 -0.35
145 9 20.2347 1.53603 15.5986 0.52
22 11 18.4279 0.401324 17.6545 0.06
16 19 18.1632 1.61146 19.4699 -0.35
13 9 19.4746 1.19336 19.8182 0.52
18 1 17.676 0.948608 18.2774 0.22
23 11 16.93 0.196005 18.5798 0.06
148 19 19.4541 2.66892 15.6213 -0.35
156 11 19.1667 3.30517 17.5256 0.06
150 1 19.62 3.65385 16.6033 0.22
24 11 17.123 1.60102 17.6126 0.06
644 19 1.51822 6.63528 16.0183 -0.35
645 2 2.66447 7.48454 15.9768 0.22
648 11 2.27471 9.62539 15.6439 0.06
650 11 2.57985 7.61212 17.0566 0.06
356 11 1.29436 9.24356 19.0492 0.06
353 1 0.944563 10.0425 19.7438 0.22
201 11 4.77594 8.00131 20.0572 0.06
207 19 7.28219 9.30946 16.2268 -0.35
734 31 6.42377 4.83997 15.1883 1
197 1 5.72159 7.63208 19.5913 0.22
200 11 5.92088 8.58695 19.0454 0.06
195 19 5.4368 6.70466 18.6288 -0.35
206 20 9.43025 9.00562 15.4334 -0.5
193 9 6.52573 6.35806 17.7755 0.52
194 20 6.35653 6.08939 16.5811 -0.5
196 19 7.6671 5.86765 18.4184 -0.35
202 11 9.69494 6.59152 19.0475 0.06
203 11 9.0558 6.83925 17.3681 0.06
198 1 8.7845 6.8089 18.4079 0.22
204 11 8.40987 7.84209 18.5939 0.06
199 11 6.56669 7.42288 20.1203 0.06
557 11 13.3186 5.01397 19.8887 0.06
555 2 11.9461 4.92491 18.1655 0.22
732 31 10.7552 8.05284 15.7474 1
556 2 12.5509 5.61268 19.4112 0.22
554 19 11.6872 5.90439 17.2392 -0.35
551 9 12.0849 7.1204 17.8442 0.52
553 19 12.5431 7.0329 19.1953 -0.35
552 20 11.5875 8.10624 17.3034 -0.5
464 11 14.4908 9.69855 18.4916 0.06
599 11 19.2273 6.1043 19.1097 0.06
595 2 19.1372 7.16083 19.1588 0.22
594 19 20.2352 7.42908 19.9998 -0.35
596 2 18.0009 7.70709 20.1207 0.22
574 19 17.1293 5.9991 16.3017 -0.35
600 11 18.9976 7.61207 18.1849 0.06
577 11 15.356 8.25708 16.6113 0.06
571 9 16.2783 5.98796 17.4078 0.52
572 20 15.9314 4.96714 17.9954 -0.5
573 19 15.747 7.18606 17.7599 -0.35
576 2 16.3916 8.1226 16.8534 0.22
578 11 16.6645 9.22622 16.9183 0.06
598 11 17.9146 8.8046 20.0133 0.06
350 20 19.9241 9.78458 17.5058 -0.5
351 19 -0.428984 10.3368 19.5626 -0.35
355 11 1.4994 10.9497 19.285 0.06
382 11 2.59161 13.9703 17.8532 0.06
383 11 4.17021 14.6145 17.6747 0.06
378 1 3.53434 13.7781 17.3361 0.22
384 11 3.30532 13.7596 16.2975 0.06
376 19 4.15653 12.4988 17.7088 -0.35
373 9 4.47031 12.428 19.0688 0.52
374 20 3.78706 11.6174 19.7685 -0.5
358 11 0.799306 12.1393 16.9418 0.06
379 11 5.51016 14.8748 19.7181 0.06
213 11 6.54108 11.0077 17.0744 0.06
211 11 6.45481 10.9366 15.3364 0.06
375 19 5.73974 12.7242 19.5965 -0.35
131 11 8.74977 12.6283 20.1452 0.06
209 1 6.37401 10.338 16.21 0.22
212 11 5.33435 10.1167 16.2832 0.06
757 27 8.22229 14.092 15.8599 1.34
124 19 9.77211 10.7379 20.4175 -0.35
126 1 8.58158 11.5862 20.4572 0.22
132 11 7.80638 11.075 19.8953 0.06
758 26 6.72099 13.7616 15.7803 -0.39
762 26 8.23498 13.4914 17.2637 -0.39
759 26 9.71857 14.4322 15.9231 -0.39
129 11 9.45494 11.1115 17.7742 0.06
236 11 9.6741 15.2578 18.3414 0.06
584 19 12.759 14.3114 15.4887 -0.35
123 19 11.4238 10.8697 18.5412 -0.35
463 11 15.1307 11.127 17.6674 0.06
121 9 10.9599 11.3209 19.8115 0.52
461 1 14.7653 10.7356 18.6281 0.22
465 11 13.8858 11.3573 18.8218 0.06
587 11 12.7612 14.4988 18.4399 0.06
122 20 11.5385 12.3179 20.276 -0.5
128 11 10.779 10.7337 16.6301 0.06
125 1 10.5176 11.3119 17.5465 0.22
237 11 10.0095 14.8271 19.9106 0.06
127 11 10.6987 12.3651 17.2511 0.06
586 2 13.4215 14.8365 17.659 0.22
583 19 13.4171 13.4152 17.5343 -0.35
581 9 13.1647 13.1897 16.1984 0.52
582 20 12.9747 12.0588 15.7595 -0.5
468 11 13.5923 12.9716 -0.291461 0.06
105 11 15.6889 11.5406 15.5124 0.06
349 9 20.392 10.6074 18.2161 0.52
352 19 20.0602 11.8432 17.8659 -0.35
459 19 15.6329 10.7254 19.7693 -0.35
457 9 15.9318 12.0418 20.2308 0.52
359 11 20.4374 11.862 15.7494 0.06
708 11 16.6335 14.4914 17.002 0.06
458 20 16.6348 12.8555 19.6472 -0.5
360 11 20.6233 13.3579 16.5504 0.06
354 1 -0.289075 12.3161 16.7058 0.22
420 11 19.2019 17.1063 19.18 0.06
617 11 3.59555 16.9552 14.1264 0.06
248 11 2.47612 20.2747 19.4348 0.06
426 1 4.69957 17.9894 20.3858 0.22
432 11 4.04316 17.4123 19.7556 0.06
430 11 5.5316 17.5388 -0.205006 0.06
731 31 1.39399 20.3291 16.2524 1
753 26 0.354772 16.6018 17.2981 -0.39
756 26 1.5449 17.3559 15.5964 -0.39
750 27 1.36805 17.6396 17.0714 1.34
752 26 2.5014 16.637 17.436 -0.39
751 26 0.260323 18.5795 16.6133 -0.39
755 26 1.23336 18.1195 18.5604 -0.39
754 26 2.42879 18.7866 16.8493 -0.39
427 11 7.86376 0.515229 19.548 0.06
425 1 7.77207 20.5913 19.7698 0.22
612 20 5.26121 20.3119 15.8667 -0.5
619 11 5.27256 16.5621 15.7575 0.06
424 19 5.18436 19.0373 19.602 -0.35
421 9 6.48205 18.8372 19.1034 0.52
423 19 7.08052 20.0402 18.656 -0.35
761 26 7.91941 15.4628 16.4734 -0.39
238 11 9.24804 18.4963 17.4351 0.06
422 20 6.84322 17.7283 18.6527 -0.5
234 1 10.0799 18.398 16.7679 0.22
239 11 10.2657 19.2448 16.1098 0.06
240 11 9.71001 17.5904 16.127 0.06
235 11 9.14845 16.4013 19.6183 0.06
233 1 9.9423 15.7073 19.2986 0.22
589 11 11.726 15.5424 16.7811 0.06
585 2 12.7501 15.3117 16.4419 0.22
590 11 13.3685 16.1815 16.1211 0.06
175 11 13.0235 18.4331 15.2018 0.06
588 11 13.947 15.6467 18.1104 0.06
721 9 15.2257 19.4796 20.3389 0.52
177 11 13.0569 19.8446 16.051 0.06
231 19 11.2372 16.3829 19.2172 -0.35
232 19 11.2608 18.0797 17.4501 -0.35
229 9 11.0819 17.7428 18.8168 0.52
230 20 11.0178 18.6345 19.5742 -0.5
730 11 13.6626 16.6579 20.1035 0.06
725 2 14.4526 17.3738 20.4144 0.22
724 19 15.2675 18.2545 19.7027 -0.35
414 1 19.7841 17.0118 20.1201 0.22
702 20 16.0009 18.3734 15.6394 -0.5
709 11 19.0472 15.5073 15.8591 0.06
705 2 18.0017 15.5694 15.7348 0.22
418 11 19.9416 18.0885 -0.676698 0.06
707 11 17.6543 15.5375 18.0008 0.06
706 2 17.1398 15.4591 17.0029 0.22
703 19 16.4325 16.6502 17.1457 -0.35
729 11 15.3587 16.7925 -0.380469 0.06
701 9 16.4123 17.2122 15.8583 0.52
ITEM: TIMESTEP
150
ITEM: NUMBER OF ATOMS
770
ITEM: BOX BOUNDS pp pp pp
-5.4986145156123634e-01 2.0549861451561323e+01
-5.4986145156123634e-01 2.0549861451561323e+01
-5.4986145156123634e-01 2.0549861451561323e+01
ITEM: ATOMS id type x y z c_charge
74 20 1.64135 1.93902 2.70336 -0.5
73 9 0.562542 1.94506 3.32797 0.52
75 19 20.5576 2.45116 2.67827 -0.35
77 1 -0.382856 3.55207 1.75666 0.22
81 11 0.327929 4.26976 2.13256 0.06
684 19 1.96007 4.66473 4.64371 -0.35
76 19 0.321796 1.22961 4.50942 -0.35
309 11 4.38734 2.41006 0.60789 0.06
249 11 4.30692 0.24528 20.2861 0.06
308 11 2.98693 3.27359 1.11517 0.06
305 1 4.06866 3.32786 1.11513 0.22
79 11 -0.0828442 3.3563 0.736947 0.06
489 11 3.02037 -0.131525 3.30576 0.06
488 11 3.14406 20.0041 1.82123 0.06
19 11 -0.290102 0.192544 1.13615 0.06
303 19 4.36433 4.38979 0.154467 -0.35
692 20 6.89563 2.07562 0.903825 -0.5
691 9 7.03781 1.44352 2.01 0.52
694 19 7.18872 0.014958 2.06906 -0.35
693 19 6.70444 2.00619 3.21928 -0.35
54 1 9.91828 3.28527 0.746888 0.22
60 11 9.79965 2.7275 1.68641 0.06
696 2 6.22369 0.912496 3.95057 0.22
453 11 9.22803 3.50717 3.61156 0.06
698 11 5.177 1.20316 3.90606 0.06
695 2 6.67782 -0.356202 3.27172 0.22
58 11 9.688 4.25521 0.797403 0.06
59 11 9.11352 2.78532 0.0895373 0.06
449 1 8.7246 4.31491 4.11006 0.22
451 11 7.83771 4.07797 4.66238 0.06
699 11 7.5801 20.3037 3.76896 0.06
697 11 6.44532 0.888334 5.01703 0.06
307 11 4.40269 3.39279 2.17111 0.06
52 19 11.1091 2.98023 0.0891254 -0.35
348 11 14.589 1.33101 0.456581 0.06
50 20 10.8782 0.691064 0.288277 -0.5
342 1 14.2252 1.43738 1.5121 0.22
347 11 13.1552 1.25426 1.6162 0.06
338 20 13.6597 4.8377 1.85386 -0.5
337 9 14.4808 3.94668 1.57743 0.52
346 11 14.7882 0.627058 2.10847 0.06
340 19 14.5027 2.68874 2.20362 -0.35
339 19 15.3298 4.18836 0.466805 -0.35
493 9 11.3083 1.11539 3.805 0.52
497 1 12.1652 20.046 3.39048 0.22
494 20 11.4458 2.23866 3.32632 -0.5
499 11 12.2248 20.2102 2.30276 0.06
343 11 17.008 3.31987 1.2123 0.06
345 11 17.0043 5.04676 1.21726 0.06
341 1 16.7433 4.19653 0.659102 0.22
17 1 19.8545 -0.16877 0.729598 0.22
20 11 19.0455 0.336176 1.3078 0.06
80 11 19.809 4.10677 1.72569 0.06
690 11 0.571752 5.91725 4.92361 0.06
306 1 3.83572 6.76496 1.80516 0.22
311 11 3.94377 7.50324 2.51335 0.06
312 11 3.13047 7.10582 1.05955 0.06
592 20 -0.432061 7.55684 1.04202 -0.5
8 11 2.32732 9.10386 3.58849 0.06
9 11 4.10679 9.43311 3.9842 0.06
301 9 5.36025 5.15349 0.860813 0.52
304 19 5.02098 6.47279 1.2088 -0.35
310 11 3.39137 5.84549 2.20499 0.06
452 11 8.41367 5.07171 3.2809 0.06
302 20 6.54883 4.75663 1.02717 -0.5
714 19 8.84158 7.68197 3.59858 -0.35
716 2 7.97627 8.54398 1.68115 0.22
713 19 6.90077 8.24577 2.50817 -0.35
711 9 7.53652 7.9639 3.72697 0.52
719 11 9.5172 7.15853 1.83563 0.06
720 11 9.98995 8.75419 2.15637 0.06
715 2 9.20012 8.01041 2.32623 0.22
717 11 7.61338 7.85149 0.95214 0.06
712 20 7.09556 7.97453 4.86391 -0.5
446 20 10.8524 5.42904 2.83483 -0.5
363 19 14.2584 8.27807 1.22934 -0.35
368 11 16.3423 8.09035 1.2647 0.06
735 31 12.4423 5.9364 2.57637 1
361 9 13.3689 8.43052 2.27156 0.52
362 20 12.5414 7.55723 2.44586 -0.5
364 19 13.3751 9.61271 3.05606 -0.35
365 1 15.5274 8.56126 1.7568 0.22
369 11 15.7776 9.6371 1.7397 0.06
445 9 10.7909 5.40131 4.10256 0.52
558 11 12.2918 5.44543 20.178 0.06
591 9 19.8982 7.61656 0.050279 0.52
344 11 17.3039 4.17309 -0.303845 0.06
597 11 17.5755 6.74371 -0.248114 0.06
593 19 18.4775 7.52085 0.317633 -0.35
367 11 15.6455 8.22862 2.79062 0.06
480 11 17.7254 8.54192 4.98928 0.06
670 11 -0.546046 10.7765 1.26611 0.06
669 11 0.336219 10.8644 2.72258 0.06
665 2 0.385599 11.1249 1.66125 0.22
664 19 1.77545 10.6521 1.75064 -0.35
661 9 2.59534 11.8107 1.73423 0.52
663 19 1.91504 12.9564 1.36225 -0.35
666 2 0.529461 12.6529 1.44316 0.22
668 11 0.456801 13.0437 0.451298 0.06
667 11 -0.175164 13.161 2.10337 0.06
662 20 3.45471 11.9965 2.55712 -0.5
357 11 1.17775 8.86552 19.8215 0.06
380 11 5.03643 13.9029 -0.136511 0.06
381 11 6.60664 14.476 20.3746 0.06
377 1 5.58901 14.1399 20.035 0.22
718 11 8.18184 9.411 1.10682 0.06
36 11 7.19008 12.069 2.79637 0.06
26 20 9.42361 11.1808 3.0433 -0.5
25 9 9.10591 11.3704 4.20514 0.52
227 11 10.247 13.1998 1.98288 0.06
222 1 10.5273 14.1375 2.44012 0.22
30 1 6.79114 12.0218 3.87664 0.22
34 11 5.87299 11.4459 3.74021 0.06
28 19 7.78123 11.2798 4.68636 -0.35
35 11 6.65007 12.9986 4.31033 0.06
130 11 8.59704 12.0257 0.483274 0.06
372 11 13.1495 11.6069 3.02261 0.06
370 11 13.6018 10.9019 1.40771 0.06
366 1 13.0413 10.7952 2.32628 0.22
371 11 11.9754 10.7714 2.09479 0.06
226 11 10.043 14.2363 3.37779 0.06
737 26 14.7023 14.1519 4.14912 -0.39
228 11 11.5683 14.0434 2.65194 0.06
33 11 11.4987 10.4194 4.43872 0.06
460 19 15.6243 12.3297 0.281666 -0.35
467 11 14.5884 13.9695 -0.515728 0.06
31 11 12.0206 11.9948 5.06855 0.06
462 1 14.5626 13.2826 0.305682 0.22
466 11 14.719 13.9277 1.13146 0.06
266 20 20.4875 12.321 4.83302 -0.5
272 11 17.6926 12.889 1.48167 0.06
273 11 16.8179 12.7761 3.06073 0.06
271 11 17.9563 14.0957 2.81477 0.06
269 1 17.7813 13.0438 2.5985 0.22
267 19 18.8507 12.2069 3.12162 -0.35
265 9 19.4189 12.7301 4.37043 0.52
490 11 1.17311 15.5134 1.8164 0.06
419 11 20.2803 16.536 19.2759 0.06
486 1 1.97604 16.1248 2.22517 0.22
491 11 2.59103 16.6048 1.45319 0.06
492 11 2.56429 15.3662 2.7694 0.06
484 19 1.4413 17.0885 3.13685 -0.35
481 9 1.43156 18.4162 2.65261 0.52
482 20 1.0008 18.7451 1.57232 -0.5
483 19 1.86498 19.4254 3.48989 -0.35
487 11 3.90927 19.4869 3.29372 0.06
485 1 3.03211 19.9682 2.88794 0.22
431 11 4.41259 18.1659 0.130329 0.06
295 11 19.7994 18.9681 4.96355 0.06
296 11 20.2293 17.5034 4.22295 0.06
768 26 5.52452 15.852 1.35011 -0.39
770 26 5.19778 17.7083 2.42233 -0.39
766 26 4.99649 15.8448 3.50855 -0.39
764 27 6.14823 16.4906 2.61341 1.34
765 26 7.30283 17.17 1.79101 -0.39
769 26 7.11448 15.2464 2.89829 -0.39
429 11 8.87328 20.4753 19.5652 0.06
767 26 6.79035 17.0972 3.88848 -0.39
700 11 5.95539 19.9495 3.40392 0.06
225 11 9.39636 17.6973 0.854948 0.06
220 19 10.0795 15.1603 1.61238 -0.35
523 11 9.26773 16.9138 3.99176 0.06
223 11 9.51352 18.8221 2.15633 0.06
500 11 12.9675 19.347 3.6574 0.06
501 11 11.2253 19.5075 3.61814 0.06
736 27 14.6036 15.6102 4.51524 1.34
741 26 13.0607 15.5246 4.36251 -0.39
740 26 14.7589 15.9111 3.02092 -0.39
738 26 14.5376 17.1732 4.79407 -0.39
728 11 12.5835 18.4077 0.12052 0.06
217 9 11.1172 16.1171 1.47985 0.52
218 20 12.1171 15.7925 0.836942 -0.5
224 11 10.4787 18.9898 0.75895 0.06
221 1 10.1022 18.2632 1.45346 0.22
219 19 11.1043 17.4077 2.1161 -0.35
727 11 13.5078 17.9541 1.50755 0.06
723 19 14.481 19.4089 0.511707 -0.35
726 2 13.5986 18.3349 0.504998 0.22
742 26 16.1696 15.6598 4.62658 -0.39
417 11 17.054 16.4084 1.98043 0.06
409 9 19.3875 16.4302 1.2403 0.52
410 20 19.8653 15.5188 1.9848 -0.5
413 1 17.4541 17.4361 2.02794 0.22
415 11 17.1279 17.587 3.06322 0.06
416 11 16.8324 18.0762 1.40477 0.06
411 19 18.845 17.6083 1.77486 -0.35
293 1 20.037 17.906 5.19266 0.22
297 11 19.2025 17.538 5.60358 0.06
412 19 19.1353 16.2058 -0.0794614 -0.35
21 11 19.8197 19.8659 0.969068 0.06
689 11 0.126481 4.7853 6.11348 0.06
78 1 1.32002 1.09095 5.4951 0.22
84 11 0.810049 0.535042 6.24584 0.06
83 11 1.60157 2.06473 5.87317 0.06
82 11 2.15672 0.458683 5.16865 0.06
510 1 0.0352855 3.38583 9.63401 0.22
506 20 1.87563 1.3211 8.32282 -0.5
508 19 0.979393 3.47079 8.5818 -0.35
505 9 1.9278 2.45028 8.86226 0.52
188 11 4.47756 0.0447738 7.25786 0.06
681 9 3.17601 4.52233 5.31878 0.52
682 20 4.05258 3.67464 5.19846 -0.5
187 11 5.21942 1.5057 7.23989 0.06
513 11 4.18508 3.5292 8.52886 0.06
515 11 -0.162816 2.36131 9.97652 0.06
677 11 2.18688 0.354825 10.4601 0.06
503 11 8.84169 0.988371 5.77252 0.06
498 1 9.85476 0.814776 5.59261 0.22
185 1 5.16228 0.618025 7.86458 0.22
189 11 4.58118 0.827965 8.72776 0.06
183 19 6.38443 0.0640461 8.13482 -0.35
181 9 7.13077 1.06347 8.9498 0.52
184 19 8.51732 1.2716 8.81151 -0.35
504 11 10.242 -0.114116 6.01707 0.06
259 11 9.57247 4.19701 7.34698 0.06
257 1 9.28151 4.49992 8.35909 0.22
260 11 8.44689 3.87809 8.63909 0.06
186 1 9.12313 0.494962 9.73243 0.22
502 11 10.3397 1.64609 6.13466 0.06
496 19 10.0393 0.730052 4.21274 -0.35
495 19 12.3869 0.252349 4.0527 -0.35
255 19 10.2776 4.50225 9.402 -0.35
547 11 13.6231 3.97943 6.15917 0.06
546 2 14.564 3.53704 6.39809 0.22
548 11 14.2691 2.54489 6.76809 0.06
190 11 10.004 0.000208688 9.309 0.06
253 9 11.5862 4.3353 8.98896 0.52
256 19 12.1102 3.03759 8.88779 -0.35
334 11 17.4838 2.18845 5.3746 0.06
330 1 18.302 1.54154 5.68939 0.22
336 11 18.7357 0.961551 4.88544 0.06
335 11 19.0927 2.21975 5.88704 0.06
328 19 17.9513 0.748938 6.80536 -0.35
325 9 18.4907 1.27001 8.01102 0.52
326 20 19.6671 1.04641 8.37785 -0.5
327 19 17.529 1.94011 8.82589 -0.35
514 11 20.2065 3.81927 9.29202 0.06
543 19 15.4072 3.68033 5.19776 -0.35
329 1 17.3408 1.18984 9.99504 0.22
545 2 15.2285 4.4364 7.42515 0.22
550 11 15.5158 3.88512 8.30932 0.06
333 11 17.1975 0.108373 9.9324 0.06
685 2 1.00723 5.14035 5.5392 0.22
688 11 1.9159 6.81585 6.41111 0.06
686 2 1.8984 5.74509 6.63818 0.22
687 11 1.5381 5.59851 7.63502 0.06
683 19 3.22149 5.38701 6.39571 -0.35
157 9 -0.459676 8.05108 9.31915 0.52
158 20 0.0267832 7.00415 8.96122 -0.5
3 19 2.54962 9.83838 5.41844 -0.35
165 11 0.251753 10.5019 7.60591 0.06
7 11 3.2042 8.06454 4.69939 0.06
5 1 3.10383 9.09671 4.35734 0.22
2 20 4.24821 9.43569 6.86727 -0.5
441 11 6.4239 6.16181 6.72143 0.06
437 1 6.18492 6.84056 7.53446 0.22
440 11 6.8211 7.68752 7.36578 0.06
439 11 5.1302 7.11804 7.35848 0.06
447 19 9.70976 5.03975 4.94438 -0.35
70 11 8.62865 10.1165 6.97226 0.06
66 1 8.81839 9.95936 8.02927 0.22
435 19 6.36066 6.28588 8.80175 -0.35
433 9 6.21524 7.19483 9.91451 0.52
71 11 8.28957 9.03284 8.28934 0.06
261 11 8.91146 5.50111 8.20954 0.06
72 11 8.39942 10.8364 8.6037 0.06
434 20 6.8033 8.29757 10.0571 -0.5
254 20 12.2018 5.33981 8.74503 -0.5
456 11 12.3594 7.57295 6.02091 0.06
454 11 10.7249 7.8171 5.57091 0.06
549 11 14.5338 5.25063 7.71398 0.06
448 19 11.8691 6.11401 4.81197 -0.35
455 11 11.2721 6.56447 6.71298 0.06
450 1 11.4966 6.99316 5.80542 0.22
61 9 10.5693 10.0023 9.60333 0.52
64 19 10.2147 9.77212 8.24423 -0.35
63 19 11.6799 9.25436 9.98283 -0.35
470 20 14.468 9.10191 5.56818 -0.5
68 11 13.7089 9.31645 9.99258 0.06
159 19 20.2759 8.94663 8.31883 -0.35
542 20 17.2464 4.78332 4.78224 -0.5
541 9 16.3077 4.61991 5.49137 0.52
544 19 16.4734 4.61138 6.815 -0.35
474 1 17.6402 8.99325 5.99163 0.22
479 11 18.4167 8.58944 6.57898 0.06
472 19 16.4289 8.59021 6.59356 -0.35
287 11 16.2831 7.16263 8.73175 0.06
478 11 17.799 10.0559 5.99833 0.06
469 9 15.3635 9.47722 6.31854 0.52
286 11 15.7048 8.60398 9.63435 0.06
288 11 14.6598 7.26891 9.47916 0.06
282 1 15.7084 7.49343 9.62813 0.22
163 11 1.22625 9.0513 8.01697 0.06
161 1 0.282761 9.43761 7.58102 0.22
1 9 3.50102 10.2792 6.36597 0.52
630 11 2.58039 13.9841 6.90406 0.06
11 11 4.59059 13.3107 6.5553 0.06
4 19 3.57255 11.6214 6.81338 -0.35
6 1 4.70518 12.2497 6.22468 0.22
10 11 4.48725 12.3005 5.1787 0.06
164 11 0.275119 9.10843 6.57891 0.06
93 11 3.90509 10.198 9.27762 0.06
12 11 5.7281 12.0221 6.47137 0.06
387 19 7.061 13.9037 8.66926 -0.35
388 19 9.35421 14.7486 8.00432 -0.35
385 9 8.15247 13.9569 7.78881 0.52
389 1 6.10628 14.9513 8.4569 0.22
392 11 5.85624 15.0696 7.3886 0.06
386 20 8.0318 13.3775 6.6901 -0.5
390 1 10.4369 14.259 7.19129 0.22
395 11 11.4069 14.6373 7.56949 0.06
32 11 11.7468 10.6176 6.15175 0.06
27 19 10.0464 11.6973 5.22714 -0.35
29 1 11.3966 11.1197 5.23036 0.22
475 11 14.1477 11.6276 5.75334 0.06
394 11 10.1493 14.6456 6.19214 0.06
69 11 13.0036 10.1735 8.6597 0.06
396 11 10.439 13.1409 7.19353 0.06
65 1 12.8949 9.92753 9.71663 0.22
67 11 12.9096 10.9077 10.2835 0.06
42 1 14.2156 15.2282 9.40801 0.22
274 11 19.5961 15.2406 4.61241 0.06
276 11 20.2198 14.6186 6.06341 0.06
471 19 15.1198 10.5186 7.20265 -0.35
268 19 18.6519 13.5311 5.23052 -0.35
473 1 15.0203 11.72 6.49473 0.22
477 11 15.8777 12.0195 5.95202 0.06
476 11 14.8694 12.5725 7.13702 0.06
135 19 19.0654 11.792 8.46183 -0.35
133 9 19.712 12.9116 9.09915 0.52
136 19 19.6558 14.263 8.62473 -0.35
137 1 17.7916 11.5396 9.10077 0.22
141 11 17.7309 10.4599 9.24689 0.06
270 1 19.2844 14.7423 5.49678 0.22
275 11 18.674 15.4421 6.02469 0.06
40 19 14.0403 13.8629 9.7148 -0.35
140 11 16.969 11.8813 8.49497 0.06
627 11 2.44444 16.877 5.78715 0.06
629 11 1.37616 14.5485 5.82979 0.06
628 11 3.52557 15.7357 5.30629 0.06
291 19 0.094979 17.7496 6.02157 -0.35
626 2 2.93048 15.9959 6.19437 0.22
625 2 2.00537 14.87 6.64967 0.22
624 19 2.07077 14.8853 8.0237 -0.35
622 20 2.42633 16.7659 9.36118 -0.5
621 9 2.61639 16.1262 8.35211 0.52
623 19 3.3477 16.6264 7.33951 -0.35
289 9 0.274048 18.6859 7.12985 0.52
290 20 1.31676 19.3415 7.1908 -0.5
393 11 5.25731 14.594 8.98532 0.06
391 11 6.41914 15.8876 8.8741 0.06
528 11 5.1386 18.795 7.37479 0.06
526 11 6.18134 17.4297 7.27459 0.06
520 19 7.06934 19.1437 6.26071 -0.35
527 11 6.61402 18.7908 8.24935 0.06
522 1 6.1559 18.5384 7.25852 0.22
519 19 9.22564 18.5243 5.29646 -0.35
521 1 9.42884 17.1865 5.05163 0.22
517 9 8.41299 18.6996 6.43268 0.52
518 20 8.98821 18.7689 7.52574 -0.5
525 11 8.74155 16.4882 5.52477 0.06
192 11 8.58158 -0.34575 10.2156 0.06
739 26 14.4371 15.2306 6.02428 -0.39
524 11 10.4933 16.8357 5.22026 0.06
537 11 12.6682 18.3597 6.22385 0.06
535 11 13.3824 17.275 7.45134 0.06
536 11 11.8667 18.1745 7.86497 0.06
533 1 12.8003 18.2317 7.30201 0.22
531 19 13.5572 19.3282 7.71845 -0.35
46 11 13.3576 15.5179 8.81834 0.06
529 9 14.7054 19.0343 8.48732 0.52
530 20 14.6442 18.3993 9.49853 -0.5
144 11 -0.256841 15.412 10.1101 0.06
300 11 -0.247047 20.0157 9.46279 0.06
299 11 -0.0484723 18.2226 9.46202 0.06
538 11 16.741 17.9159 7.21552 0.06
539 11 15.8254 18.7066 6.02566 0.06
532 19 15.9028 19.5561 8.09084 -0.35
534 1 16.3905 18.9125 6.93462 0.22
540 11 17.2497 19.4532 6.50851 0.06
292 19 20.1956 19.0443 7.79573 -0.35
138 1 19.9264 15.3482 9.53875 0.22
298 11 19.4844 18.8439 9.70048 0.06
294 1 20.4313 19.0474 9.1753 0.22
142 11 19.8656 16.2064 8.86308 0.06
507 19 2.89321 2.72069 9.92295 -0.35
516 11 0.34176 3.96831 10.4911 0.06
509 1 3.86027 3.68173 9.5281 0.22
512 11 4.74237 3.74842 10.0457 0.06
678 11 3.39171 0.361419 11.7781 0.06
676 2 2.47289 -0.031277 11.4608 0.22
673 19 2.19431 0.356022 12.8105 -0.35
321 11 1.96715 2.96876 13.1553 0.06
317 1 2.38612 3.83193 13.6286 0.22
316 19 4.59438 2.45539 13.6908 -0.35
319 11 2.49886 3.79125 14.6423 0.06
146 20 0.205418 1.93835 15.4039 -0.5
313 9 4.63626 3.8298 13.461 0.52
315 19 3.47232 4.42607 12.9063 -0.35
320 11 1.58701 4.5497 13.4973 0.06
323 11 5.03415 1.61221 11.7875 0.06
318 1 5.47386 1.67152 12.7689 0.22
322 11 5.62678 0.664501 13.0792 0.06
182 20 6.47359 1.79335 9.65334 -0.5
324 11 6.45524 2.13153 12.7078 0.06
191 11 9.44808 1.17516 10.5076 0.06
744 26 7.35572 2.20531 15.0232 -0.39
264 11 13.6455 2.11602 9.97553 0.06
263 11 12.1993 2.12979 10.7436 0.06
258 1 12.7901 2.74448 10.1062 0.22
262 11 13.0897 3.6507 10.7227 0.06
608 11 13.293 3.40174 14.0006 0.06
603 19 15.1942 3.35346 13.3899 -0.35
604 19 15.5512 1.47981 14.7645 -0.35
170 20 12.4471 0.570472 13.1586 -0.5
331 11 18.1517 1.33477 10.717 0.06
332 11 16.3999 1.58283 10.3743 0.06
601 9 15.8135 2.15484 13.5727 0.52
602 20 16.572 1.72936 12.7117 -0.5
283 11 18.6435 3.75012 11.7915 0.06
153 11 19.0385 0.516912 13.4966 0.06
149 1 18.9206 0.012629 14.4643 0.22
152 11 17.8627 0.112795 14.6477 0.06
511 11 3.46115 4.69397 9.579 0.06
641 9 0.756727 7.0823 15.18 0.52
649 11 3.46757 7.09442 15.8194 0.06
643 19 1.11545 8.28683 14.4897 -0.35
647 11 2.45086 8.64611 14.2484 0.06
646 2 2.20713 8.78744 15.3279 0.22
438 1 3.98072 7.26751 10.8526 0.22
443 11 3.1488 6.5989 11.0283 0.06
442 11 3.73171 7.75715 9.89392 0.06
167 11 19.0271 7.63103 11.2018 0.06
402 1 9.04 6.23386 11.9894 0.22
408 11 9.4721 5.46736 11.3809 0.06
314 20 5.61113 4.5009 13.8638 -0.5
400 19 9.28709 5.92059 13.381 -0.35
444 11 3.84402 8.00773 11.6557 0.06
436 19 5.31209 6.7286 10.9063 -0.35
407 11 9.53572 7.16259 11.6496 0.06
406 11 7.95803 6.17242 11.7926 0.06
205 9 8.43155 9.32593 15.2564 0.52
208 19 7.97239 8.93158 13.9728 -0.35
398 20 10.8499 7.14315 14.4908 -0.5
397 9 10.5842 6.16931 13.7746 0.52
399 19 11.5434 5.53591 12.9754 -0.35
404 11 12.8853 5.94195 11.491 0.06
401 1 12.7338 6.14814 12.5207 0.22
405 11 12.7574 7.27096 12.6367 0.06
403 11 13.5559 5.70515 13.0989 0.06
102 1 11.9596 10.0417 13.2399 0.22
108 11 11.4249 9.5914 12.4223 0.06
106 11 11.7617 9.37468 14.0301 0.06
160 19 -0.395346 8.65679 10.5696 -0.35
162 1 19.565 8.53468 11.3527 0.22
166 11 18.9311 9.431 11.1143 0.06
285 11 17.3857 4.73858 12.5817 0.06
281 1 18.1014 4.74064 11.7635 0.22
284 11 18.8737 5.43838 11.9943 0.06
279 19 17.4515 4.97196 10.5003 -0.35
98 20 14.133 8.77352 14.3724 -0.5
580 11 18.1794 7.95408 16.2275 0.06
642 20 -0.0193304 6.35402 14.6015 -0.5
168 11 19.889 8.56442 12.3937 0.06
280 19 16.2304 7.03264 10.8786 -0.35
277 9 16.2401 5.63576 10.6393 0.52
278 20 15.2127 4.96494 10.7935 -0.5
579 11 16.7974 7.70929 15.0983 0.06
575 2 17.1679 7.60428 16.0967 0.22
89 1 3.91312 11.1557 9.87114 0.22
115 11 0.521823 10.4223 13.172 0.06
116 11 20.4377 11.6859 12.6601 0.06
113 1 0.418705 11.4828 12.9501 0.22
117 11 0.945372 11.6926 12.0352 0.06
111 19 0.816493 12.3018 14.0415 -0.35
109 9 0.449665 13.6155 13.6233 0.52
95 11 3.23145 13.4479 13.3845 0.06
96 11 4.55745 12.7659 14.2351 0.06
112 19 1.16631 14.245 12.6089 -0.35
87 19 3.50739 10.8049 11.1852 -0.35
92 11 4.916 11.5318 9.80352 0.06
216 11 8.40128 9.68556 11.9501 0.06
86 20 4.7078 10.6555 13.0158 -0.5
91 11 3.15434 11.8406 9.51904 0.06
210 1 8.22445 9.96873 13.0044 0.22
215 11 9.09714 10.628 13.2313 0.06
85 9 4.29281 11.4039 12.1502 0.52
88 19 4.70855 12.7662 12.1486 -0.35
637 11 9.45545 13.8392 11.6548 0.06
214 11 7.37728 10.6964 12.9466 0.06
90 1 4.3237 13.3432 13.3511 0.22
763 26 8.23682 14.5596 14.2821 -0.39
94 11 4.67425 14.3702 13.4777 0.06
760 26 8.56508 12.6691 15.4218 -0.39
47 11 14.3566 15.9471 10.2075 0.06
638 11 10.677 13.871 10.356 0.06
636 2 10.456 14.1522 11.4068 0.22
62 20 10.0267 10.8256 10.3281 -0.5
639 11 10.871 13.3332 13.2291 0.06
635 2 11.4881 13.5242 12.2822 0.22
640 11 11.781 12.5422 12.0141 0.06
107 11 11.4653 10.9166 13.6596 0.06
634 19 12.7504 14.2084 11.9983 -0.35
100 19 13.3389 10.2368 12.8668 -0.35
97 9 14.312 9.85878 13.8694 0.52
134 20 20.5749 12.5894 9.92737 -0.5
103 11 16.6841 12.1524 14.2161 0.06
104 11 14.9791 12.3655 13.8003 0.06
38 20 15.018 12.1155 10.7193 -0.5
139 11 17.7829 11.977 10.084 0.06
37 9 15.1694 13.2747 10.3906 0.52
101 1 15.702 11.6716 14.2709 0.22
39 19 16.421 13.9253 10.4745 -0.35
43 11 17.6612 14.6543 11.8849 0.06
41 1 16.8149 13.9988 11.805 0.22
44 11 16.0693 14.4627 12.4561 0.06
99 19 15.6545 10.3432 13.8029 -0.35
45 11 17.2247 13.0095 12.1517 0.06
110 20 20.4904 14.1432 13.9854 -0.5
710 11 18.5858 14.8296 15.697 0.06
680 11 3.20756 19.3056 10.8301 0.06
118 11 1.676 16.0511 13.5981 0.06
671 9 1.51475 20.4163 13.2893 0.52
672 20 0.978211 20.4749 14.4774 -0.5
675 2 2.37428 19.536 11.4097 0.22
679 11 1.52845 19.2059 10.8272 0.06
674 19 1.57017 19.2131 12.5715 -0.35
120 11 0.134311 16.1301 12.5875 0.06
119 11 1.62147 16.1252 11.8181 0.06
114 1 1.12972 15.6824 12.6626 0.22
613 19 4.51183 19.2113 14.1159 -0.35
616 2 4.76701 17.8135 13.8032 0.22
618 11 4.68038 17.0609 13.0752 0.06
652 20 5.53006 18.3877 10.8992 -0.5
651 9 6.71369 18.6592 11.0906 0.52
654 19 7.7615 17.73 10.9954 -0.35
653 19 6.95201 19.6767 11.967 -0.35
657 11 8.89128 20.0693 12.6079 0.06
658 11 8.04856 18.8838 13.6406 0.06
655 2 8.74186 18.1245 11.9094 0.22
656 2 8.1591 19.2731 12.6534 0.22
660 11 9.37174 17.5017 12.5668 0.06
659 11 9.34259 18.3621 11.0231 0.06
611 9 5.45664 19.4184 15.1265 0.52
614 19 6.19677 18.2679 15.4829 -0.35
615 2 5.43563 17.1016 15.0215 0.22
620 11 6.12137 16.3335 14.684 0.06
179 11 11.7055 19.0858 10.2571 0.06
180 11 12.7136 -0.608464 10.4042 0.06
48 11 15.0389 15.3343 8.71551 0.06
631 9 12.2154 15.4933 11.8656 0.52
632 20 12.8066 16.5131 12.2569 -0.5
633 19 10.9322 15.5106 11.3511 -0.35
178 11 13.0171 19.1213 11.4556 0.06
174 1 12.2086 19.7002 10.9865 0.22
172 19 11.2443 20.1691 11.8979 -0.35
169 9 12.021 20.5277 13.0586 0.52
173 1 12.8878 19.2979 14.9345 0.22
171 19 11.731 19.7934 14.249 -0.35
176 11 13.8569 19.6353 14.4449 0.06
568 11 15.5234 17.323 13.461 0.06
570 11 16.6231 19.6946 13.4688 0.06
569 11 15.3637 19.806 12.2089 0.06
143 11 19.0534 15.4307 10.1346 0.06
567 11 14.9082 17.4636 11.8647 0.06
565 2 16.2575 19.2281 12.5599 0.22
562 20 19.0848 17.5889 11.6352 -0.5
564 19 17.6064 19.3443 12.0253 -0.35
561 9 17.997 17.976 11.9438 0.52
563 19 16.9183 17.0394 11.8393 -0.35
566 2 15.8137 17.6894 12.4833 0.22
704 19 17.3624 16.6084 15.1028 -0.35
151 11 19.1602 20.0473 14.2717 0.06
155 11 19.1417 4.46649 16.5359 0.06
244 19 2.71422 2.74665 17.4338 -0.35
242 20 1.83946 0.578397 17.1242 -0.5
241 9 2.57096 1.33595 17.7752 0.52
245 1 3.42395 0.308614 19.6908 0.22
243 19 3.75965 0.7964 18.3926 -0.35
246 1 3.15685 3.58381 18.5288 0.22
251 11 2.97144 4.65983 18.3765 0.06
252 11 2.70615 3.36791 19.5168 0.06
250 11 4.25951 3.5519 18.5736 0.06
247 11 2.71363 0.960381 20.279 0.06
14 20 20.2956 2.02277 19.688 -0.5
154 11 20.3846 3.43403 17.1425 0.06
428 11 7.72793 -0.374022 -0.430774 0.06
733 31 5.31195 0.333574 17.1853 1
749 26 6.06633 3.37633 16.3423 -0.39
743 27 7.40731 2.70756 16.5362 1.34
747 26 6.76433 1.35634 16.97 -0.39
745 26 7.37776 3.19128 17.978 -0.39
746 26 7.96163 4.00353 15.8842 -0.39
748 26 8.83779 2.10436 16.6795 -0.39
49 9 11.2244 1.63568 -0.396612 0.52
51 19 12.069 1.60222 19.5221 -0.35
56 11 11.6731 -0.404565 18.8528 0.06
607 11 14.2114 4.29874 15.0909 0.06
606 2 14.2683 3.41949 14.4447 0.22
605 2 14.4964 2.22599 15.3314 0.22
610 11 13.5801 1.62547 15.4025 0.06
57 11 10.4359 0.784757 18.4853 0.06
53 1 11.4979 0.641518 18.6438 0.22
560 11 11.1667 4.32976 18.484 0.06
559 11 12.5486 3.96646 17.5949 0.06
609 11 14.7492 2.59048 16.2862 0.06
55 11 11.9674 0.804781 17.7406 0.06
722 20 14.9962 20.3976 19.6589 -0.5
15 19 19.8621 -0.017817 20.4563 -0.35
147 19 19.6075 0.469788 15.6141 -0.35
145 9 20.1062 1.74317 15.2702 0.52
22 11 17.8216 -0.600271 18.9563 0.06
16 19 18.1238 1.36709 19.4573 -0.35
13 9 19.4321 1.2293 20.041 0.52
18 1 17.7944 0.385257 18.5071 0.22
23 11 16.8505 0.583672 18.0401 0.06
148 19 19.2633 2.81475 15.4015 -0.35
156 11 18.7834 2.95755 17.4839 0.06
150 1 19.3932 3.40153 16.6977 0.22
24 11 18.5958 0.466943 17.744 0.06
644 19 1.64151 6.69116 16.2127 -0.35
645 2 2.6455 7.67699 16.262 0.22
648 11 2.69943 9.71489 15.6794 0.06
650 11 2.91019 7.98167 17.2751 0.06
356 11 1.54401 9.82196 18.3008 0.06
353 1 1.14438 9.87736 19.3089 0.22
201 11 5.0602 8.41114 19.8443 0.06
207 19 7.44453 9.4183 16.3058 -0.35
734 31 6.20142 4.98589 15.2667 1
197 1 5.77639 7.84979 19.3946 0.22
200 11 6.52726 8.54422 19.1123 0.06
195 19 5.23028 6.85628 18.4886 -0.35
206 20 9.55485 9.10146 15.7003 -0.5
193 9 6.37388 6.39135 17.7444 0.52
194 20 6.23231 6.22952 16.4987 -0.5
196 19 7.47411 5.76189 18.3837 -0.35
202 11 9.08982 6.45301 19.073 0.06
203 11 9.3352 5.65644 17.5019 0.06
198 1 8.70848 6.35526 18.0888 0.22
204 11 8.68856 7.3469 17.6597 0.06
199 11 6.31474 7.21977 20.1645 0.06
557 11 13.8148 5.36658 19.4555 0.06
555 2 12.0312 4.85588 18.0512 0.22
732 31 10.9701 8.25114 15.8673 1
556 2 12.7458 5.60746 19.2561 0.22
554 19 11.8559 5.90591 17.1098 -0.35
551 9 12.0647 7.08531 17.8697 0.52
553 19 12.4652 6.94514 19.2261 -0.35
552 20 11.7315 8.14078 17.3446 -0.5
464 11 14.251 9.87025 18.7781 0.06
599 11 19.0141 5.92732 18.8942 0.06
595 2 19.1614 7.01805 19.1497 0.22
594 19 20.3469 7.22678 19.8339 -0.35
596 2 17.958 7.52502 20.1376 0.22
574 19 17.3971 6.36442 16.6276 -0.35
600 11 19.3676 7.5714 18.2276 0.06
577 11 15.5268 9.05112 16.5106 0.06
571 9 16.221 6.11484 17.3279 0.52
572 20 16.0143 4.99279 17.7546 -0.5
573 19 15.4799 7.26877 17.6678 -0.35
576 2 16.1939 8.38607 17.0583 0.22
578 11 16.6733 9.19895 17.5089 0.06
598 11 17.1544 8.04185 19.5448 0.06
350 20 19.8713 9.81832 17.3501 -0.5
351 19 -0.25131 10.2119 19.4359 -0.35
355 11 1.69772 10.4751 19.9508 0.06
382 11 2.58347 13.7946 17.5461 0.06
383 11 3.91746 14.6621 17.93 0.06
378 1 3.63095 13.8687 17.2724 0.22
384 11 3.67579 14.2706 16.2482 0.06
376 19 4.33067 12.6811 17.361 -0.35
373 9 4.55274 12.4264 18.7568 0.52
374 20 4.05906 11.4577 19.2037 -0.5
358 11 0.814213 11.9624 16.8215 0.06
379 11 5.15281 14.9628 19.5397 0.06
213 11 6.3996 11.1842 16.5612 0.06
211 11 6.17691 10.5594 14.9713 0.06
375 19 5.76882 13.0181 19.3006 -0.35
131 11 8.88851 12.2332 19.9357 0.06
209 1 6.3777 10.2857 16.026 0.22
212 11 5.40654 9.93463 16.3704 0.06
757 27 8.19974 14.1301 15.8377 1.34
124 19 10.136 10.7249 -0.366495 -0.35
126 1 8.87868 11.445 -0.41065 0.22
132 11 8.03062 10.8094 20.3629 0.06
758 26 6.7216 13.8487 15.6215 -0.39
762 26 8.07145 13.6135 17.274 -0.39
759 26 9.67865 14.3766 16.0928 -0.39
129 11 9.57921 10.9147 17.5947 0.06
236 11 9.38821 15.8083 18.3964 0.06
584 19 12.7249 14.2579 15.4712 -0.35
123 19 11.3438 10.9691 18.6796 -0.35
463 11 14.9444 11.2677 17.9656 0.06
121 9 11.1193 11.4479 20.0201 0.52
461 1 14.665 10.8703 18.9142 0.22
465 11 14.0209 11.6521 19.3271 0.06
587 11 12.9824 14.5519 18.5889 0.06
122 20 11.4094 12.6235 20.3653 -0.5
128 11 10.9522 11.322 16.7253 0.06
125 1 10.5082 11.4751 17.6771 0.22
237 11 10.0031 14.9377 19.7252 0.06
127 11 10.2722 12.5192 17.7423 0.06
586 2 13.5545 14.7717 17.6702 0.22
583 19 13.9233 13.405 17.3319 -0.35
581 9 13.036 13.1684 16.2912 0.52
582 20 12.9938 12.0711 15.8005 -0.5
468 11 13.6508 12.8456 0.530996 0.06
105 11 15.4481 11.7626 15.3236 0.06
349 9 20.3544 10.6126 18.1895 0.52
352 19 20.3038 11.9752 18.0166 -0.35
459 19 15.8922 10.7608 19.5917 -0.35
457 9 16.242 12.015 20.1547 0.52
359 11 20.381 12.2211 16.0254 0.06
708 11 16.2418 14.9289 16.8325 0.06
458 20 17.0584 12.7764 19.6166 -0.5
360 11 -0.206078 13.4447 16.8124 0.06
354 1 -0.137198 12.3558 16.9242 0.22
420 11 18.8093 17.5965 19.6018 0.06
617 11 3.73491 17.9159 14.1165 0.06
248 11 2.85491 20.4265 19.6683 0.06
426 1 4.87898 17.9038 20.2924 0.22
432 11 4.15675 17.2585 19.7782 0.06
430 11 5.80633 17.4084 20.6234 0.06
731 31 0.750005 20.6869 16.0647 1
753 26 0.559772 16.6043 17.1528 -0.39
756 26 1.66838 17.2523 15.6198 -0.39
750 27 1.56599 17.7092 17.0661 1.34
752 26 2.67589 16.749 17.5208 -0.39
751 26 0.489804 18.7835 16.6843 -0.39
755 26 1.32931 18.0902 18.5319 -0.39
754 26 2.59132 18.8823 16.9289 -0.39
427 11 8.23342 1.0611 19.6752 0.06
425 1 7.95599 -0.0421159 19.6731 0.22
612 20 5.30014 20.3559 15.9916 -0.5
619 11 4.58338 16.4632 15.2904 0.06
424 19 5.10472 19.0381 19.4207 -0.35
421 9 6.47628 19.2998 19.1154 0.52
423 19 6.86845 20.616 18.8046 -0.35
761 26 7.92106 15.6332 16.2612 -0.39
238 11 9.2235 18.7862 17.73 0.06
422 20 7.34821 18.4399 19.016 -0.5
234 1 9.88136 18.3344 16.9649 0.22
239 11 9.95114 18.832 15.9943 0.06
240 11 9.35209 17.4201 16.7477 0.06
235 11 9.26946 16.5981 19.9976 0.06
233 1 9.87958 15.9732 19.3568 0.22
589 11 11.7728 15.6464 16.9731 0.06
585 2 12.6247 15.2142 16.4836 0.22
590 11 13.0993 16.0666 16.0401 0.06
175 11 13.0295 18.222 15.2574 0.06
588 11 14.1628 15.6083 18.0768 0.06
721 9 15.1608 19.3951 20.41 0.52
177 11 12.7723 19.7973 15.887 0.06
231 19 11.1614 16.5378 19.3063 -0.35
232 19 11.2273 18.1065 17.4402 -0.35
229 9 11.2139 17.8294 18.8278 0.52
230 20 10.8778 18.7267 19.6502 -0.5
730 11 13.609 16.5808 20.2376 0.06
725 2 14.2865 17.2926 -0.439389 0.22
724 19 15.3017 18.0565 20.0583 -0.35
414 1 19.6851 17.08 20.0118 0.22
702 20 16.0505 18.4453 15.5616 -0.5
709 11 19.0445 16.2453 16.2321 0.06
705 2 18.1085 15.7073 15.9429 0.22
418 11 20.2659 17.8528 20.4789 0.06
707 11 17.5812 15.0591 17.922 0.06
706 2 17.1317 15.5132 17.0775 0.22
703 19 16.1152 16.5572 16.9901 -0.35
729 11 14.946 16.7093 0.179796 0.06
701 9 16.5519 17.3843 15.9723 0.52
ITEM: TIMESTEP
200
ITEM: NUMBER OF ATOMS
770
ITEM: BOX BOUNDS pp pp pp
-5.6013362327784399e-01 2.0560133623277956e+01
-5.6013362327784399e-01 2.0560133623277956e+01
-5.6013362327784399e-01 2.0560133623277956e+01
ITEM: ATOMS id type x y z c_charge
74 20 1.71197 1.79892 3.01417 -0.5
73 9 0.610068 1.89836 3.44945 0.52
75 19 -0.475776 2.02676 2.588 -0.35
77 1 20.5624 3.29018 1.97874 0.22
81 11 0.315547 3.95235 2.0545 0.06
684 19 1.93651 4.85201 4.74627 -0.35
76 19 0.237891 1.26081 4.66068 -0.35
309 11 4.32959 2.49751 0.362629 0.06
249 11 4.48245 0.666933 20.351 0.06
308 11 2.7178 2.75575 0.935874 0.06
305 1 3.73694 3.1494 0.992916 0.22
79 11 20.4518 3.09665 0.899651 0.06
489 11 3.03529 -0.324692 3.00956 0.06
488 11 3.51159 19.1543 2.38149 0.06
19 11 -0.127495 0.0986943 1.27447 0.06
303 19 3.83588 4.49741 0.503586 -0.35
692 20 6.69786 1.83061 0.808037 -0.5
691 9 6.77925 1.21382 1.79964 0.52
694 19 6.7179 -0.227046 1.93329 -0.35
693 19 6.57914 1.86551 2.94512 -0.35
54 1 9.80638 3.16199 0.41971 0.22
60 11 9.50883 2.63011 1.30141 0.06
696 2 6.31612 0.854307 3.96081 0.22
453 11 8.69601 3.35146 4.01739 0.06
698 11 5.27606 0.777683 4.33621 0.06
695 2 6.72395 -0.492807 3.35827 0.22
58 11 9.90492 4.26226 0.863108 0.06
59 11 8.88755 3.13408 -0.109975 0.06
449 1 8.68306 4.45851 4.02656 0.22
451 11 7.73177 4.92403 4.33574 0.06
699 11 7.77782 20.4646 3.40226 0.06
697 11 6.91472 1.17719 4.81365 0.06
307 11 4.0818 3.24943 2.0059 0.06
52 19 11.079 2.96642 -0.126489 -0.35
348 11 14.393 1.63118 0.65182 0.06
50 20 10.9778 0.637112 0.173429 -0.5
342 1 14.1644 1.79214 1.67645 0.22
347 11 13.0736 1.88526 1.74689 0.06
338 20 13.8184 4.97379 1.97416 -0.5
337 9 14.6906 4.08404 1.75859 0.52
346 11 14.478 0.876013 2.00703 0.06
340 19 14.8216 2.847 2.41671 -0.35
339 19 15.2983 4.04668 0.523372 -0.35
493 9 11.1547 0.906367 3.63588 0.52
497 1 12.461 20.09 3.04261 0.22
494 20 11.4489 2.08008 3.54578 -0.5
499 11 12.2593 20.2893 1.98116 0.06
343 11 17.1059 3.17473 1.32622 0.06
345 11 16.9782 5.07682 1.21034 0.06
341 1 16.7269 4.05549 0.739951 0.22
17 1 20.0109 -0.147745 0.891181 0.22
20 11 19.2678 0.485137 1.33488 0.06
80 11 19.648 3.82627 2.30128 0.06
690 11 0.469165 6.33703 5.14937 0.06
306 1 3.66682 6.96308 1.53681 0.22
311 11 3.5754 8.11722 1.63667 0.06
312 11 2.7968 6.75577 0.890575 0.06
592 20 -0.206969 7.7385 0.87473 -0.5
8 11 2.3927 8.63111 3.60421 0.06
9 11 4.03094 9.11412 3.91564 0.06
301 9 5.11503 5.2425 0.812929 0.52
304 19 5.01482 6.64422 1.03637 -0.35
310 11 3.32613 6.51884 2.47146 0.06
452 11 8.73894 4.61335 2.97277 0.06
302 20 6.21469 4.71901 0.92503 -0.5
714 19 8.97213 8.03089 3.77771 -0.35
716 2 7.68123 8.29643 1.87108 0.22
713 19 6.77896 8.16812 2.94263 -0.35
711 9 7.60173 7.97256 4.03755 0.52
719 11 9.47948 7.18927 1.87997 0.06
720 11 9.78009 8.87733 1.90057 0.06
715 2 9.12153 8.15699 2.37534 0.22
717 11 7.44381 7.86164 0.881718 0.06
712 20 7.1307 8.15558 5.15324 -0.5
446 20 11.1933 5.27839 2.77782 -0.5
363 19 14.3826 8.33284 1.38074 -0.35
368 11 16.3808 7.90546 1.95742 0.06
735 31 12.5285 5.96324 2.39534 1
361 9 13.3261 8.56695 2.23307 0.52
362 20 12.6227 7.61398 2.41647 -0.5
364 19 13.2699 9.76868 3.0561 -0.35
365 1 15.7016 8.76729 1.73129 0.22
369 11 16.0531 9.01424 0.733791 0.06
445 9 10.945 5.29621 4.04461 0.52
558 11 12.8155 5.01676 20.245 0.06
591 9 20.0965 7.48101 -0.0229259 0.52
344 11 17.0992 3.97802 -0.284739 0.06
597 11 17.1283 6.62886 19.7406 0.06
593 19 18.6568 7.81055 0.09263 -0.35
367 11 15.7815 9.63632 2.39661 0.06
480 11 16.9526 8.11179 5.09861 0.06
670 11 -0.00248355 10.5844 1.00743 0.06
669 11 0.136666 10.9294 2.74574 0.06
665 2 0.499243 11.2399 1.7665 0.22
664 19 1.82133 10.8356 1.44092 -0.35
661 9 2.53877 11.9976 1.49167 0.52
663 19 1.72046 13.0762 1.12654 -0.35
666 2 0.432931 12.7672 1.48055 0.22
668 11 -0.171982 12.8902 0.567488 0.06
667 11 -0.0812672 13.3232 2.26339 0.06
662 20 3.46393 12.0746 2.29209 -0.5
357 11 1.37303 9.13511 18.2256 0.06
380 11 4.95984 13.7616 -0.532571 0.06
381 11 6.60621 14.1689 20.4224 0.06
377 1 5.74754 13.923 19.8515 0.22
718 11 7.37315 9.34495 1.79255 0.06
36 11 7.34397 12.1592 2.77982 0.06
26 20 9.51876 10.8748 3.17864 -0.5
25 9 9.02463 11.2077 4.25474 0.52
227 11 10.7719 13.0403 2.116 0.06
222 1 10.7113 14.0169 2.55139 0.22
30 1 6.98191 11.9731 3.72054 0.22
34 11 6.0117 11.5645 3.45938 0.06
28 19 7.64767 11.0933 4.50086 -0.35
35 11 6.85912 12.9198 4.26693 0.06
130 11 8.73382 12.0417 0.804953 0.06
372 11 13.5707 11.867 2.86447 0.06
370 11 13.7323 10.9088 1.41604 0.06
366 1 13.1788 10.9802 2.34735 0.22
371 11 12.1871 11.2937 1.99828 0.06
226 11 10.1908 13.9382 3.51422 0.06
737 26 14.7622 14.1127 3.98373 -0.39
228 11 11.7582 14.1203 2.87719 0.06
33 11 11.2632 10.2836 5.08819 0.06
460 19 15.8179 12.3639 0.305997 -0.35
467 11 14.946 14.0079 20.2478 0.06
31 11 11.9074 12.0061 4.81739 0.06
462 1 15.0706 13.5547 0.142036 0.22
466 11 15.3997 14.4816 0.654697 0.06
266 20 20.4125 12.0969 4.92124 -0.5
272 11 17.8637 13.0232 1.79189 0.06
273 11 16.8038 12.5939 3.12185 0.06
271 11 17.8339 14.0057 3.20925 0.06
269 1 17.7933 12.9553 2.84838 0.22
267 19 18.742 12.0842 3.37622 -0.35
265 9 19.324 12.5677 4.63096 0.52
490 11 1.50663 15.9944 1.43258 0.06
419 11 19.7389 16.5588 19.2138 0.06
486 1 1.81591 16.0621 2.49747 0.22
491 11 2.90925 16.1842 2.50883 0.06
492 11 1.56676 15.0496 2.76531 0.06
484 19 1.17236 16.9972 3.31729 -0.35
481 9 1.37777 18.2362 2.63044 0.52
482 20 0.914447 18.4169 1.53085 -0.5
483 19 1.69169 19.3432 3.4016 -0.35
487 11 3.63096 19.5345 4.10114 0.06
485 1 3.04557 19.7384 3.20322 0.22
431 11 4.58969 18.2606 -0.198945 0.06
295 11 20.4138 18.8493 4.49329 0.06
296 11 19.9661 17.1785 4.45325 0.06
768 26 5.51468 15.7046 1.36864 -0.39
770 26 5.29985 17.6615 2.39631 -0.39
766 26 5.10199 15.6766 3.5505 -0.39
764 27 6.19066 16.3791 2.62188 1.34
765 26 7.2581 17.0639 1.67676 -0.39
769 26 7.1657 15.1527 2.85741 -0.39
429 11 8.665 0.0111716 18.9435 0.06
767 26 6.79491 17.0932 3.89275 -0.39
700 11 6.23014 19.7636 3.81642 0.06
225 11 9.4226 17.8208 0.805548 0.06
220 19 10.1929 14.996 1.66629 -0.35
523 11 9.58755 16.7023 4.34313 0.06
223 11 9.27517 18.2332 2.51672 0.06
500 11 13.499 19.7643 3.19671 0.06
501 11 11.8498 19.3206 3.4661 0.06
736 27 14.6078 15.6028 4.35894 1.34
741 26 13.0667 15.4818 4.2551 -0.39
740 26 14.7039 16 2.88152 -0.39
738 26 14.4721 17.0896 4.83156 -0.39
728 11 12.6601 18.5548 0.486703 0.06
217 9 11.1075 16.0379 1.41728 0.52
218 20 12.114 15.7703 0.737497 -0.5
224 11 10.3981 19.0596 1.38537 0.06
221 1 9.98648 18.0837 1.69492 0.22
219 19 10.9976 17.2477 2.13015 -0.35
727 11 13.6148 17.8396 1.73454 0.06
723 19 14.3964 19.6114 0.487562 -0.35
726 2 13.6815 18.3649 0.772852 0.22
742 26 16.1723 15.7155 4.5361 -0.39
417 11 17.0684 16.5028 2.1862 0.06
409 9 19.3008 16.5305 1.24724 0.52
410 20 19.7002 15.5648 1.84473 -0.5
413 1 17.3377 17.5397 2.05882 0.22
415 11 17.0879 18.0229 2.97365 0.06
416 11 16.8387 18.1109 1.30117 0.06
411 19 18.7187 17.7332 1.84294 -0.35
293 1 20.15 18.0376 5.1161 0.22
297 11 19.1368 18.3305 5.6205 0.06
412 19 18.9946 16.3699 -0.105318 -0.35
21 11 19.8232 19.9591 1.26733 0.06
689 11 0.222152 4.86897 6.01882 0.06
78 1 1.3776 1.04247 5.47146 0.22
84 11 1.01208 0.507649 6.3608 0.06
83 11 1.82074 2.00591 5.74295 0.06
82 11 2.07331 0.39437 4.99301 0.06
510 1 -0.164742 3.46068 9.53842 0.22
506 20 2.16679 1.28048 8.35902 -0.5
508 19 0.860625 3.26385 8.54485 -0.35
505 9 1.94695 2.36066 8.90093 0.52
188 11 4.73995 20.5669 7.10398 0.06
681 9 3.09057 4.65909 5.42272 0.52
682 20 3.7981 3.652 5.31168 -0.5
187 11 4.85159 1.07296 6.90065 0.06
513 11 4.37385 3.4373 8.37832 0.06
515 11 -0.434652 2.52409 10.0708 0.06
677 11 2.6152 0.0754936 10.4171 0.06
503 11 9.16585 0.619299 6.05229 0.06
498 1 10.1991 0.760027 5.60509 0.22
185 1 5.01152 0.354194 7.69252 0.22
189 11 4.26153 0.42336 8.56061 0.06
183 19 6.34491 0.250034 8.24832 -0.35
181 9 7.06327 1.39264 8.79209 0.52
184 19 8.42999 1.33082 8.66504 -0.35
504 11 10.9645 0.0512722 5.95131 0.06
259 11 9.13717 3.85967 7.96342 0.06
257 1 9.11812 4.64675 8.72309 0.22
260 11 8.22659 4.48821 9.3763 0.06
186 1 9.02556 0.650933 9.80942 0.22
502 11 10.4362 1.78308 5.88729 0.06
496 19 9.93579 0.650282 4.21761 -0.35
495 19 12.207 0.0135917 3.88447 -0.35
255 19 10.1798 4.54588 9.61023 -0.35
547 11 13.198 3.52838 6.60366 0.06
546 2 14.2326 3.72994 6.20405 0.22
548 11 14.5607 2.71426 5.92839 0.06
190 11 10.0273 0.212516 9.65036 0.06
253 9 11.4918 4.33435 9.13664 0.52
256 19 11.9787 3.01696 9.14556 -0.35
334 11 17.5612 1.76041 4.92729 0.06
330 1 18.3994 1.53534 5.57362 0.22
336 11 19.0368 0.777357 5.10393 0.06
335 11 18.956 2.50528 5.67312 0.06
328 19 17.8607 0.878134 6.73898 -0.35
325 9 18.3545 1.27436 7.97188 0.52
326 20 19.4595 0.955236 8.38092 -0.5
327 19 17.4288 1.87597 8.83833 -0.35
514 11 20.0254 3.92741 9.17229 0.06
543 19 15.0763 3.78715 5.01913 -0.35
329 1 17.1975 1.0444 9.94388 0.22
545 2 15.1653 4.29994 7.25217 0.22
550 11 15.1873 3.67078 8.16102 0.06
333 11 17.4917 -0.00249432 9.84256 0.06
685 2 0.996579 5.47786 5.58255 0.22
688 11 1.4914 7.0565 6.95655 0.06
686 2 1.92512 6.0996 6.67762 0.22
687 11 1.79962 5.41498 7.52284 0.06
683 19 3.10728 5.37562 6.59014 -0.35
157 9 -0.286657 7.91654 9.3601 0.52
158 20 0.143114 6.78964 9.00694 -0.5
3 19 2.68576 9.73895 5.34142 -0.35
165 11 0.167689 10.6991 7.83028 0.06
7 11 3.40743 7.77663 4.79928 0.06
5 1 3.14548 8.7504 4.39403 0.22
2 20 4.26607 9.51075 6.98923 -0.5
441 11 6.68714 6.30596 6.94477 0.06
437 1 6.24951 6.90205 7.75569 0.22
440 11 6.88244 7.83097 7.78752 0.06
439 11 5.20933 7.07249 7.45702 0.06
447 19 9.80412 4.87187 4.78301 -0.35
70 11 8.32506 10.2299 6.90026 0.06
66 1 8.72082 10.4313 7.92569 0.22
435 19 6.40318 6.15191 8.95383 -0.35
433 9 6.10582 7.09494 9.97921 0.52
71 11 8.06407 9.85262 8.57747 0.06
261 11 9.14748 5.65005 8.22001 0.06
72 11 8.6194 11.4686 8.14649 0.06
434 20 6.78077 8.12665 10.2151 -0.5
254 20 12.2501 5.28199 8.98719 -0.5
456 11 12.428 7.32039 6.46891 0.06
454 11 11.2769 7.7422 5.30877 0.06
549 11 14.9447 5.3334 7.50811 0.06
448 19 12.012 5.89509 4.81318 -0.35
455 11 10.8576 6.58404 6.51921 0.06
450 1 11.6359 6.9462 5.8102 0.22
61 9 10.369 9.98939 9.51151 0.52
64 19 10.0984 10.1365 8.083 -0.35
63 19 11.4725 9.22781 9.93231 -0.35
470 20 14.5186 8.88511 5.92704 -0.5
68 11 13.4873 9.54773 10.34 0.06
159 19 20.3086 8.85542 8.44185 -0.35
542 20 17.2717 4.56077 4.71011 -0.5
541 9 16.394 4.13938 5.47524 0.52
544 19 16.3555 4.78402 6.68445 -0.35
474 1 17.4012 8.64961 5.93768 0.22
479 11 18.2775 8.04171 6.29073 0.06
472 19 16.4899 8.91366 7.02746 -0.35
287 11 16.3264 7.06259 8.77046 0.06
478 11 17.8661 9.61926 5.64924 0.06
469 9 15.2688 9.50593 6.60611 0.52
286 11 16.0241 8.63257 9.57489 0.06
288 11 14.6984 7.50818 9.41306 0.06
282 1 15.8004 7.56615 9.59582 0.22
163 11 1.07355 9.20372 7.51578 0.06
161 1 0.0599913 9.58709 7.63708 0.22
1 9 3.72657 10.2716 6.15965 0.52
630 11 2.35839 13.9624 7.16302 0.06
11 11 4.54335 13.0408 7.6367 0.06
4 19 3.51931 11.634 6.52244 -0.35
6 1 4.66106 12.4281 6.79729 0.22
10 11 5.09552 12.9732 5.93872 0.06
164 11 -0.301629 9.4848 6.56334 0.06
93 11 3.46638 10.3263 9.06823 0.06
12 11 5.47666 11.7429 7.13635 0.06
387 19 7.11105 13.7872 8.8188 -0.35
388 19 9.02227 14.9399 7.89497 -0.35
385 9 7.92769 13.9736 7.73793 0.52
389 1 6.05461 14.7511 8.82162 0.22
392 11 5.80399 15.1943 7.87273 0.06
386 20 7.77047 13.2418 6.80848 -0.5
390 1 10.3518 14.5463 7.45703 0.22
395 11 10.9326 15.3969 7.14123 0.06
32 11 11.3495 11.4829 6.36912 0.06
27 19 9.8397 11.984 5.12157 -0.35
29 1 11.1099 11.3749 5.2838 0.22
475 11 14.8845 11.7577 5.3878 0.06
394 11 10.416 13.8113 6.68212 0.06
69 11 13.0891 9.29324 8.67288 0.06
396 11 10.915 14.1841 8.27759 0.06
65 1 12.7459 9.7766 9.56385 0.22
67 11 12.747 10.8119 9.39936 0.06
42 1 14.3428 15.1435 9.36655 0.22
274 11 19.2767 15.1148 4.39826 0.06
276 11 20.0955 14.8882 5.86446 0.06
471 19 14.9452 10.7144 7.22875 -0.35
268 19 18.6365 13.3798 5.60192 -0.35
473 1 14.9127 11.887 6.41231 0.22
477 11 15.711 12.6184 6.68906 0.06
476 11 14.079 12.5223 6.72273 0.06
135 19 19.2039 11.9134 8.23748 -0.35
133 9 19.9405 12.8875 8.88237 0.52
136 19 19.751 14.2148 8.50564 -0.35
137 1 18.044 11.7388 9.03027 0.22
141 11 17.5549 10.8668 8.62877 0.06
270 1 19.1279 14.7087 5.42922 0.22
275 11 18.469 15.4566 5.89023 0.06
40 19 14.0633 13.8057 9.71908 -0.35
140 11 17.4223 12.5998 8.79909 0.06
627 11 2.54154 16.7125 5.65444 0.06
629 11 1.1378 14.6235 6.05829 0.06
628 11 3.39476 15.2931 5.41506 0.06
291 19 -0.0286425 17.6292 6.06285 -0.35
626 2 2.92206 15.8313 6.22449 0.22
625 2 1.86506 14.874 6.82528 0.22
624 19 2.02808 15.0179 8.20197 -0.35
622 20 2.4842 16.8127 9.46628 -0.5
621 9 2.61507 16.211 8.39766 0.52
623 19 3.16345 16.7303 7.29375 -0.35
289 9 0.221825 18.5744 7.07483 0.52
290 20 1.31872 19.1005 7.03698 -0.5
393 11 5.13155 14.3277 9.26868 0.06
391 11 6.32112 15.6432 9.41161 0.06
528 11 5.59314 17.9343 6.24339 0.06
526 11 6.95516 17.1462 7.06968 0.06
520 19 7.2362 19.0212 6.28694 -0.35
527 11 6.07865 18.5353 7.91866 0.06
522 1 6.4749 18.115 7.00364 0.22
519 19 9.36571 18.5015 5.42545 -0.35
521 1 9.68126 17.1141 5.3247 0.22
517 9 8.56885 18.7595 6.58635 0.52
518 20 9.085 19.0188 7.6687 -0.5
525 11 9.11351 16.4487 5.99739 0.06
192 11 8.53287 -0.26724 10.0689 0.06
739 26 14.5353 15.0959 5.84379 -0.39
524 11 10.7131 17.1208 5.47551 0.06
537 11 12.2008 18.8952 6.23817 0.06
535 11 13.2276 17.5467 6.80221 0.06
536 11 11.9731 18.1482 7.8452 0.06
533 1 12.7077 18.4273 7.09033 0.22
531 19 13.4493 19.4672 7.81108 -0.35
46 11 13.4078 15.7197 9.31312 0.06
529 9 14.6923 18.9431 8.30602 0.52
530 20 14.6694 18.3043 9.41976 -0.5
144 11 -0.732784 14.7743 10.4192 0.06
300 11 0.559962 19.8123 9.14005 0.06
299 11 -0.161634 18.2808 9.82358 0.06
538 11 16.9098 17.9704 7.01218 0.06
539 11 16.0531 19.1305 6.00881 0.06
532 19 15.8824 19.5653 7.98973 -0.35
534 1 16.644 19.0503 6.91745 0.22
540 11 17.4694 19.723 6.71614 0.06
292 19 20.2693 18.9411 7.89653 -0.35
138 1 19.7747 15.1476 9.57789 0.22
298 11 20.0655 19.7631 9.81611 0.06
294 1 -0.350652 19.2009 9.21203 0.22
142 11 20.3303 16.0166 9.35019 0.06
507 19 2.87325 2.90461 9.8603 -0.35
516 11 0.156768 4.11451 10.3897 0.06
509 1 3.82692 3.76458 9.27906 0.22
512 11 4.70787 4.02696 9.91604 0.06
678 11 3.7697 0.114005 11.7706 0.06
676 2 2.76918 -0.256529 11.439 0.22
673 19 2.08749 0.31921 12.5262 -0.35
321 11 2.48813 3.33242 13.8511 0.06
317 1 2.58954 4.39 13.5141 0.22
316 19 4.90619 2.51477 13.4748 -0.35
319 11 2.59476 5.02709 14.4735 0.06
146 20 0.127794 2.17837 15.1221 -0.5
313 9 4.89548 3.94177 13.4464 0.52
315 19 3.75945 4.55676 12.7928 -0.35
320 11 1.5849 4.5289 13.1311 0.06
323 11 5.43245 1.3797 11.8297 0.06
318 1 5.83874 1.79141 12.7667 0.22
322 11 6.1042 0.881781 13.3633 0.06
182 20 6.59572 2.1796 9.64353 -0.5
324 11 6.76146 2.34788 12.5087 0.06
191 11 9.10819 1.22554 10.7647 0.06
744 26 7.30508 2.25855 15.049 -0.39
264 11 13.7626 3.04858 10.0711 0.06
263 11 12.7444 1.78836 10.6313 0.06
258 1 12.6805 2.86015 10.2984 0.22
262 11 12.4204 3.47921 11.138 0.06
608 11 13.2589 3.30787 13.8382 0.06
603 19 14.9538 3.01375 13.002 -0.35
604 19 15.7353 1.72399 14.7975 -0.35
170 20 12.43 0.609759 13.2949 -0.5
331 11 17.8082 1.35179 10.7865 0.06
332 11 16.1475 1.01313 10.2247 0.06
601 9 15.8034 2.00103 13.4352 0.52
602 20 16.5199 1.36962 12.7325 -0.5
283 11 18.9513 3.97494 11.2264 0.06
153 11 19.1513 0.0818072 13.4437 0.06
149 1 18.9926 -0.168556 14.5203 0.22
152 11 17.9083 0.0380365 14.6941 0.06
511 11 3.45259 4.76391 9.10643 0.06
641 9 0.915081 7.00037 15.219 0.52
649 11 3.34538 6.93175 16.2491 0.06
643 19 1.18539 8.24493 14.5544 -0.35
647 11 3.15326 8.70003 14.5745 0.06
646 2 2.33587 8.75188 15.2774 0.22
438 1 3.96686 7.08618 10.9678 0.22
443 11 3.13365 6.55554 11.4388 0.06
442 11 3.59118 7.25453 9.96399 0.06
167 11 18.8328 7.98878 11.0459 0.06
402 1 8.66063 6.31419 12.1963 0.22
408 11 8.48863 5.3103 11.7661 0.06
314 20 5.80169 4.69134 13.915 -0.5
400 19 9.24846 6.25017 13.4924 -0.35
444 11 3.94372 8.02607 11.5018 0.06
436 19 5.26926 6.54898 10.9979 -0.35
407 11 9.32891 6.8269 11.5146 0.06
406 11 7.70564 6.77491 12.2863 0.06
205 9 8.52883 9.3536 15.3812 0.52
208 19 8.31166 8.7548 14.1341 -0.35
398 20 11.1677 7.13387 14.4894 -0.5
397 9 10.6777 6.37884 13.6451 0.52
399 19 11.5935 5.62652 12.8758 -0.35
404 11 13.0078 5.85827 11.49 0.06
401 1 12.6906 6.39956 12.4003 0.22
405 11 12.317 7.31212 12.0035 0.06
403 11 13.5055 6.50964 13.0876 0.06
102 1 11.7771 10.3293 13.4052 0.22
108 11 11.1026 10.154 12.5454 0.06
106 11 11.4159 9.80137 14.3131 0.06
160 19 -0.169676 8.34341 10.6459 -0.35
162 1 19.715 8.6204 11.3763 0.22
166 11 19.396 9.65347 11.3353 0.06
285 11 17.8903 4.74595 12.3459 0.06
281 1 18.3079 4.80216 11.3342 0.22
284 11 19.0051 5.67384 11.2491 0.06
279 19 17.2806 4.81602 10.3431 -0.35
98 20 13.7904 8.71266 14.6769 -0.5
580 11 17.9379 8.90083 16.3795 0.06
642 20 0.358913 6.13174 14.5206 -0.5
168 11 19.7929 8.30433 12.4327 0.06
280 19 16.1448 6.9747 10.8149 -0.35
277 9 16.0766 5.54217 10.6391 0.52
278 20 15.1358 4.94605 11.1178 -0.5
579 11 17.1075 7.71348 15.286 0.06
575 2 17.2967 8.01518 16.3336 0.22
89 1 3.67708 11.0871 9.75942 0.22
115 11 0.722043 10.3241 13.1431 0.06
116 11 20.5463 11.3086 12.6795 0.06
113 1 0.451587 11.3118 12.7961 0.22
117 11 0.806026 11.4562 11.7788 0.06
111 19 0.985036 12.258 13.7073 -0.35
109 9 0.409473 13.5482 13.4531 0.52
95 11 3.79712 13.2602 13.8949 0.06
96 11 5.38237 13.6379 13.3142 0.06
112 19 0.876691 14.1847 12.2974 -0.35
87 19 3.34244 10.7127 11.0738 -0.35
92 11 4.76837 11.1955 9.56507 0.06
216 11 8.14659 9.24831 12.0916 0.06
86 20 4.535 10.7285 13.041 -0.5
91 11 3.17821 12.0212 9.45068 0.06
210 1 8.071 9.69006 13.0773 0.22
215 11 8.85084 10.4188 13.0498 0.06
85 9 4.06464 11.3389 12.0918 0.52
88 19 4.2356 12.712 11.8475 -0.35
637 11 9.3336 14.137 11.7756 0.06
214 11 7.12567 10.1926 13.1339 0.06
90 1 4.32665 13.5362 13.0085 0.22
763 26 8.49428 14.4151 14.2871 -0.39
94 11 3.91524 14.4984 12.6946 0.06
760 26 8.4523 12.6382 15.4603 -0.39
47 11 14.845 15.6716 10.1837 0.06
638 11 10.242 13.8721 10.3016 0.06
636 2 10.3442 14.2099 11.3165 0.22
62 20 9.96279 10.9215 10.2769 -0.5
639 11 10.8367 13.0953 13.0545 0.06
635 2 11.3435 13.4968 12.2389 0.22
640 11 11.6186 12.6032 11.6268 0.06
107 11 11.7699 11.3763 13.7339 0.06
634 19 12.4253 14.3734 12.6579 -0.35
100 19 13.1162 10.026 12.9073 -0.35
97 9 14.0905 9.66241 13.917 0.52
134 20 -0.409391 12.5912 9.78194 -0.5
103 11 16.443 11.9944 13.9156 0.06
104 11 14.6905 12.0415 13.8987 0.06
38 20 15.003 11.9821 10.6784 -0.5
139 11 18.2354 11.6129 10.116 0.06
37 9 15.0742 13.223 10.5296 0.52
101 1 15.5344 11.4528 14.2273 0.22
39 19 16.3039 13.8671 10.5058 -0.35
43 11 17.6943 14.5753 11.9455 0.06
41 1 16.8085 13.921 11.8539 0.22
44 11 16.1118 14.421 12.513 0.06
99 19 15.463 10.0979 13.8486 -0.35
45 11 17.1385 12.9723 12.1835 0.06
110 20 20.5055 13.9664 13.999 -0.5
710 11 18.5386 14.859 15.5487 0.06
680 11 3.46186 18.7772 11.0432 0.06
118 11 1.59612 15.7568 13.33 0.06
671 9 1.59518 20.3315 13.3157 0.52
672 20 1.08512 20.3494 14.3819 -0.5
675 2 2.6951 19.3697 11.6198 0.22
679 11 1.84862 19.0656 10.9559 0.06
674 19 1.75465 19.0672 12.5994 -0.35
120 11 0.43675 16.211 12.1101 0.06
119 11 2.03772 15.7938 11.6731 0.06
114 1 1.24221 15.5607 12.3964 0.22
613 19 4.84077 19.405 14.0203 -0.35
616 2 4.56041 18.0464 13.9151 0.22
618 11 4.72563 17.3356 13.0391 0.06
652 20 5.69818 18.3056 11.0296 -0.5
651 9 6.87011 18.5607 11.1889 0.52
654 19 7.89917 17.6403 10.9521 -0.35
653 19 7.16402 19.5654 12.1102 -0.35
657 11 9.14508 19.2827 13.5341 0.06
658 11 7.56292 18.6839 13.6286 0.06
655 2 8.75773 17.9954 12.066 0.22
656 2 8.25247 19.1592 12.8999 0.22
660 11 9.25891 17.1982 12.5785 0.06
659 11 9.42636 18.2569 11.2438 0.06
611 9 5.43438 19.4584 15.3223 0.52
614 19 5.88057 18.2143 15.845 -0.35
615 2 5.37998 17.29 14.9625 0.22
620 11 5.97262 16.6213 14.3278 0.06
179 11 11.8465 18.6179 10.8795 0.06
180 11 12.4132 20.1286 10.3249 0.06
48 11 14.9165 15.2944 8.43356 0.06
631 9 12.0588 15.5864 12.0335 0.52
632 20 12.8353 16.5236 11.9449 -0.5
633 19 10.9084 15.4899 11.2278 -0.35
178 11 13.0544 19.5968 11.765 0.06
174 1 12.1092 19.6321 11.2231 0.22
172 19 11.0812 20.3098 11.9713 -0.35
169 9 11.706 -0.386347 13.2502 0.52
173 1 12.9146 19.4933 14.7204 0.22
171 19 11.5972 19.9659 14.4462 -0.35
176 11 13.7222 19.8461 14.1177 0.06
568 11 15.3818 17.3661 13.2283 0.06
570 11 16.3242 19.3223 13.5293 0.06
569 11 15.5893 19.8509 12.0707 0.06
143 11 18.8357 15.388 10.0699 0.06
567 11 15.1775 17.666 11.6077 0.06
565 2 16.3141 19.165 12.4584 0.22
562 20 19.2408 17.5523 11.5982 -0.5
564 19 17.7691 19.1754 12.4098 -0.35
561 9 18.0499 17.9785 11.6886 0.52
563 19 16.9133 17.0522 11.5925 -0.35
566 2 15.9148 17.7307 12.3491 0.22
704 19 17.635 16.8409 15.3247 -0.35
151 11 19.1646 19.8675 14.6405 0.06
155 11 19.4428 4.57091 16.779 0.06
244 19 2.81155 2.78456 17.3749 -0.35
242 20 1.73763 0.78587 17.417 -0.5
241 9 2.84196 1.38178 17.5693 0.52
245 1 3.65944 0.579218 19.5955 0.22
243 19 4.00632 0.761459 18.205 -0.35
246 1 3.15988 3.63137 18.4783 0.22
251 11 3.44189 4.62019 18.1134 0.06
252 11 2.24683 3.79883 19.0548 0.06
250 11 4.00269 3.30578 19.068 0.06
247 11 2.86486 1.16041 20.0013 0.06
14 20 20.155 2.08616 19.7986 -0.5
154 11 19.6452 2.97369 17.5171 0.06
428 11 8.3614 0.127995 -0.477867 0.06
733 31 5.55172 -0.0164083 17.4973 1
749 26 5.93979 3.25203 16.4218 -0.39
743 27 7.33413 2.58057 16.5595 1.34
747 26 6.53622 1.33791 17.0186 -0.39
745 26 7.44401 3.09814 18.0307 -0.39
746 26 7.92312 3.89992 16.0933 -0.39
748 26 8.71363 1.87815 16.5788 -0.39
49 9 11.3119 1.59308 -0.586044 0.52
51 19 12.2339 1.29735 19.4858 -0.35
56 11 11.8436 -0.346656 18.3318 0.06
607 11 14.2213 4.25194 14.8157 0.06
606 2 14.2972 3.33269 14.2404 0.22
605 2 14.4346 2.17917 15.1438 0.22
610 11 13.4857 1.96056 15.6031 0.06
57 11 10.5346 0.635131 18.4326 0.06
53 1 11.5946 0.701051 18.3364 0.22
560 11 11.481 4.18416 18.1684 0.06
559 11 13.1275 4.04927 17.8174 0.06
609 11 15.147 2.42047 15.9888 0.06
55 11 11.852 1.06465 17.296 0.06
722 20 15.0443 20.1879 19.5033 -0.5
15 19 20.0052 -0.0509987 20.5602 -0.35
147 19 19.7743 0.546807 15.4702 -0.35
145 9 20.0365 1.9194 15.1378 0.52
22 11 17.028 20.6267 18.554 0.06
16 19 18.1383 1.00302 19.5483 -0.35
13 9 19.4797 1.09786 19.9928 0.52
18 1 17.9943 -0.0404889 18.5504 0.22
23 11 17.9773 0.540516 17.6199 0.06
148 19 19.0666 2.92623 15.4811 -0.35
156 11 18.0402 3.52122 17.2521 0.06
150 1 19.0521 3.55198 16.793 0.22
24 11 18.7782 20.3578 18.5161 0.06
644 19 1.79212 6.68571 16.2988 -0.35
645 2 2.7201 7.80288 16.4203 0.22
648 11 2.15406 9.78675 15.5675 0.06
650 11 3.06037 8.35566 17.294 0.06
356 11 1.65644 10.781 18.7542 0.06
353 1 1.32233 9.77992 19.0264 0.22
201 11 4.75217 9.06093 19.3371 0.06
207 19 7.39235 9.34899 16.2789 -0.35
734 31 6.44237 4.79232 15.4249 1
197 1 5.52673 8.22589 19.0999 0.22
200 11 6.37673 8.81236 18.6375 0.06
195 19 5.07689 7.3556 18.1074 -0.35
206 20 9.6938 9.2796 15.8898 -0.5
193 9 6.18131 6.60269 17.5528 0.52
194 20 6.1035 6.07517 16.4656 -0.5
196 19 7.20186 6.02845 18.4048 -0.35
202 11 9.04866 7.1094 18.4409 0.06
203 11 9.14117 5.40496 17.8843 0.06
198 1 8.52276 6.27413 17.9139 0.22
204 11 8.59551 6.61023 16.8531 0.06
199 11 5.97177 7.7678 19.9963 0.06
557 11 13.7338 6.05731 19.2892 0.06
555 2 12.3843 4.77257 18.049 0.22
732 31 11.0232 8.22564 15.6527 1
556 2 12.7655 5.59694 19.2732 0.22
554 19 11.9837 5.71912 17.0085 -0.35
551 9 12.181 6.94895 17.6354 0.52
553 19 12.3995 6.87517 19.0323 -0.35
552 20 11.6817 7.97284 17.107 -0.5
464 11 14.2123 9.99511 19.7663 0.06
599 11 19.3684 6.0381 18.6331 0.06
595 2 19.2147 6.91238 19.2095 0.22
594 19 20.4247 6.79105 19.8907 -0.35
596 2 18.0123 7.04687 20.2269 0.22
574 19 17.4184 6.63796 16.6431 -0.35
600 11 19.2694 7.75243 18.5147 0.06
577 11 15.5627 9.34841 16.5369 0.06
571 9 16.1109 6.23343 17.1578 0.52
572 20 15.9338 5.1259 17.7204 -0.5
573 19 15.3384 7.34676 17.578 -0.35
576 2 15.9512 8.42553 16.9834 0.22
578 11 16.2001 8.90554 17.9602 0.06
598 11 17.7452 8.00342 20.5544 0.06
350 20 19.952 9.91868 17.3411 -0.5
351 19 -0.114415 9.93138 19.2766 -0.35
355 11 1.83305 9.35579 19.9347 0.06
382 11 2.95104 14.2189 17.7754 0.06
383 11 4.2935 14.9045 16.9635 0.06
378 1 3.66135 14.0059 16.9579 0.22
384 11 3.109 13.999 16.0097 0.06
376 19 4.35193 12.7861 17.0674 -0.35
373 9 4.76217 12.3914 18.3396 0.52
374 20 4.50435 11.2389 18.7104 -0.5
358 11 0.540534 11.8094 16.6234 0.06
379 11 5.47547 14.8635 19.2967 0.06
213 11 6.72002 11.2892 16.9473 0.06
211 11 6.52781 10.9124 15.1051 0.06
375 19 5.93096 12.8246 18.9011 -0.35
131 11 8.53615 12.4994 20.3079 0.06
209 1 6.55921 10.5098 16.1437 0.22
212 11 5.55035 10.1895 16.4291 0.06
757 27 8.15713 14.1321 15.8062 1.34
124 19 10.0242 11.0079 -0.264308 -0.35
126 1 8.80057 11.6393 -0.191112 0.22
132 11 8.01978 10.9148 -0.308849 0.06
758 26 6.68594 13.8575 15.5029 -0.39
762 26 7.91133 13.7904 17.3311 -0.39
759 26 9.64583 14.2855 16.1007 -0.39
129 11 9.37336 11.5819 18.035 0.06
236 11 9.23267 15.612 18.6412 0.06
584 19 12.5194 14.1866 15.5653 -0.35
123 19 11.2436 11.0197 18.8647 -0.35
463 11 14.4032 10.4806 18.0622 0.06
121 9 11.0207 11.6551 20.1289 0.52
461 1 14.6531 10.7499 19.1153 0.22
465 11 14.1647 11.7024 19.1786 0.06
587 11 12.4957 14.1887 18.3186 0.06
122 20 11.6399 12.6465 20.4829 -0.5
128 11 10.515 11.3587 16.7608 0.06
125 1 10.4352 11.6585 17.8316 0.22
237 11 9.99854 14.9862 19.9203 0.06
127 11 10.5819 12.7411 17.7602 0.06
586 2 13.3318 14.5427 17.7073 0.22
583 19 14.0758 13.4655 17.2719 -0.35
581 9 13.4221 13.1738 16.0555 0.52
582 20 13.0065 12.0321 15.9318 -0.5
468 11 14.0293 13.373 0.600965 0.06
105 11 15.4633 11.5406 15.3147 0.06
349 9 20.2965 10.6046 18.2879 0.52
352 19 20.3564 12.0376 18.2712 -0.35
459 19 16.0804 10.8828 19.4307 -0.35
457 9 16.4873 12.0402 20.1778 0.52
359 11 20.3247 12.9243 16.2359 0.06
708 11 16.5641 14.6541 17.1889 0.06
458 20 17.2526 12.8338 19.6731 -0.5
360 11 0.346127 13.4708 17.1484 0.06
354 1 -0.211162 12.5721 17.0587 0.22
420 11 19.3278 18.1589 19.9964 0.06
617 11 3.49421 17.986 14.0655 0.06
248 11 3.19866 -0.368293 19.6979 0.06
426 1 4.98495 17.9554 19.9438 0.22
432 11 4.29145 17.2555 19.4969 0.06
430 11 5.83444 17.4102 20.3288 0.06
731 31 1.02693 0.290446 15.841 1
753 26 0.579046 16.7304 17.261 -0.39
756 26 1.98922 17.4523 15.6642 -0.39
750 27 1.698 17.835 17.1216 1.34
752 26 2.76431 16.7914 17.5153 -0.39
751 26 0.535765 18.869 16.7988 -0.39
755 26 1.4836 18.156 18.5736 -0.39
754 26 2.73369 18.9395 17.0085 -0.39
427 11 7.76965 1.40949 19.5478 0.06
425 1 7.94646 0.371662 19.6474 0.22
612 20 5.33482 20.3552 16.0894 -0.5
619 11 4.78257 16.6254 15.5642 0.06
424 19 5.36063 18.9866 19.045 -0.35
421 9 6.62766 19.5527 19.4883 0.52
423 19 6.70868 -0.152661 19.291 -0.35
761 26 7.72378 15.6491 16.1386 -0.39
238 11 9.48861 19.506 17.0538 0.06
422 20 7.61802 18.8837 19.2616 -0.5
234 1 9.79694 18.5271 16.8033 0.22
239 11 9.83953 18.2533 15.7542 0.06
240 11 8.9319 18.0243 17.1835 0.06
235 11 9.10944 16.5673 20.0745 0.06
233 1 9.80777 15.9514 19.4662 0.22
589 11 11.8557 15.6499 16.5338 0.06
585 2 12.8646 15.2313 16.3964 0.22
590 11 13.5236 16.1135 16.2428 0.06
175 11 12.9838 18.4431 14.6927 0.06
588 11 13.7925 15.1972 18.4327 0.06
721 9 15.1838 19.4013 20.4416 0.52
177 11 13.078 19.6737 15.787 0.06
231 19 11.016 16.5969 19.0352 -0.35
232 19 11.0722 18.3348 17.3965 -0.35
229 9 10.8864 17.9491 18.7799 0.52
230 20 10.8378 18.694 19.7347 -0.5
730 11 13.8713 17.3096 19.9027 0.06
725 2 14.3351 17.3376 -0.204655 0.22
724 19 15.3889 18.0336 20.2708 -0.35
414 1 19.7314 17.1656 20.1138 0.22
702 20 15.9726 18.3562 15.6272 -0.5
709 11 19.0951 16.0765 16.5341 0.06
705 2 18.1633 15.7608 16.1438 0.22
418 11 -0.338851 17.1989 -0.691986 0.06
707 11 17.6059 15.7298 18.2624 0.06
706 2 17.1866 15.5502 17.2366 0.22
703 19 16.1342 16.5432 17.0583 -0.35
729 11 14.4169 16.2952 0.127411 0.06
701 9 16.4936 17.3152 15.9921 0.52
ITEM: TIMESTEP
250
ITEM: NUMBER OF ATOMS
770
ITEM: BOX BOUNDS pp pp pp
-5.7331990100143138e-01 2.0573319901001526e+01
-5.7331990100143138e-01 2.0573319901001526e+01
-5.7331990100143138e-01 2.0573319901001526e+01
ITEM: ATOMS id type x y z c_charge
74 20 1.8703 1.67892 3.04915 -0.5
73 9 0.659453 1.56469 3.41759 0.52
75 19 -0.42384 2.03648 2.64259 -0.35
77 1 -0.432919 3.43702 2.38152 0.22
81 11 0.591936 3.80608 2.23563 0.06
684 19 1.95183 4.89382 4.75762 -0.35
76 19 0.367471 1.18635 4.78415 -0.35
309 11 4.31596 2.58797 0.649652 0.06
249 11 4.35196 0.72832 20.201 0.06
308 11 2.73558 2.6458 0.910715 0.06
305 1 3.61343 3.20506 1.18296 0.22
79 11 20.1777 3.60526 1.44462 0.06
489 11 3.2004 -0.59858 3.96519 0.06
488 11 3.57797 19.3811 2.67336 0.06
19 11 -0.00504793 -0.493529 1.26519 0.06
303 19 3.57841 4.49325 0.544704 -0.35
692 20 6.66447 1.48765 0.818429 -0.5
691 9 6.22388 0.98354 1.83658 0.52
694 19 6.45641 -0.383481 1.92996 -0.35
693 19 6.31363 1.71244 2.96185 -0.35
54 1 9.82308 3.07564 0.180632 0.22
60 11 9.36522 2.22677 0.694978 0.06
696 2 6.69686 0.836943 3.97122 0.22
453 11 8.52562 3.44627 3.64281 0.06
698 11 5.82752 0.898646 4.6236 0.06
695 2 6.67482 -0.512591 3.34538 0.22
58 11 9.75625 3.85871 0.790843 0.06
59 11 9.0533 3.16488 -0.565061 0.06
449 1 8.75955 4.4904 3.83579 0.22
451 11 7.89318 4.9972 4.28292 0.06
699 11 7.63213 20.1788 3.01086 0.06
697 11 7.53802 0.83503 4.68136 0.06
307 11 3.77114 3.20986 2.27599 0.06
52 19 11.052 2.84166 -0.477696 -0.35
348 11 14.7213 1.28671 1.21799 0.06
50 20 10.9805 0.609332 0.00225889 -0.5
342 1 14.1193 1.89869 1.90943 0.22
347 11 13.1947 2.14705 1.44025 0.06
338 20 13.9308 5.07198 2.15433 -0.5
337 9 14.5247 4.17451 1.57116 0.52
346 11 14.0508 1.08404 2.67826 0.06
340 19 14.7944 3.03207 2.33126 -0.35
339 19 15.5391 4.50086 0.553257 -0.35
493 9 11.2334 0.927196 4.0007 0.52
497 1 12.4695 20.3357 2.99441 0.22
494 20 11.336 1.93562 3.33927 -0.5
499 11 12.3093 -0.408885 2.0041 0.06
343 11 16.9449 2.98535 0.940956 0.06
345 11 17.5241 4.59766 1.18697 0.06
341 1 16.9129 3.99723 0.589989 0.22
17 1 20.1942 -0.52825 0.720357 0.22
20 11 19.4234 0.0712782 1.24326 0.06
80 11 20.2144 4.00176 3.173 0.06
690 11 0.550204 6.58066 5.06916 0.06
306 1 3.5965 7.39654 1.12033 0.22
311 11 3.60121 8.41721 0.998606 0.06
312 11 2.67304 6.97354 0.762354 0.06
592 20 -0.0278196 7.84194 0.639892 -0.5
8 11 2.78753 8.09421 4.02473 0.06
9 11 3.9673 9.36384 3.70309 0.06
301 9 4.69979 5.30096 0.888205 0.52
304 19 4.66803 6.68222 0.60781 -0.35
310 11 3.539 7.11809 2.20239 0.06
452 11 8.76546 4.85193 2.83863 0.06
302 20 5.78291 4.63674 0.841265 -0.5
714 19 9.02328 8.0413 3.79613 -0.35
716 2 7.32654 8.14779 2.10142 0.22
713 19 6.62621 8.04475 3.33778 -0.35
711 9 7.67892 8.19409 4.28723 0.52
719 11 9.1242 6.97184 2.38988 0.06
720 11 9.3357 8.40356 1.48037 0.06
715 2 8.85238 7.9742 2.36227 0.22
717 11 7.05482 7.64269 1.19029 0.06
712 20 7.34402 8.01595 5.44328 -0.5
446 20 11.2203 5.21183 2.92255 -0.5
363 19 14.5137 8.7036 1.318 -0.35
368 11 16.0084 8.86775 2.804 0.06
735 31 12.6938 5.96835 2.59195 1
361 9 13.481 8.70438 2.25347 0.52
362 20 12.7216 7.64793 2.41475 -0.5
364 19 13.4363 9.87588 3.00923 -0.35
365 1 15.8478 8.98219 1.7319 0.22
369 11 16.5638 8.28753 1.28567 0.06
445 9 10.9993 5.14938 4.09951 0.52
558 11 12.031 5.21848 19.9815 0.06
591 9 20.2108 7.343 -0.0811344 0.52
344 11 17.2753 3.88181 -0.418687 0.06
597 11 17.5644 6.48264 20.3879 0.06
593 19 18.8284 7.68965 0.0148217 -0.35
367 11 16.0535 10.0218 1.39691 0.06
480 11 16.5037 7.56331 5.82644 0.06
670 11 0.0845408 10.632 0.80237 0.06
669 11 0.160295 10.8163 2.5087 0.06
665 2 0.557906 11.1992 1.56352 0.22
664 19 1.88506 10.9829 1.33792 -0.35
661 9 2.50042 12.1921 1.38679 0.52
663 19 1.57697 13.2249 1.11786 -0.35
666 2 0.322308 12.6826 1.36561 0.22
668 11 -0.606977 12.8576 0.81492 0.06
667 11 0.188115 13.1143 2.36079 0.06
662 20 3.56744 12.299 2.0648 -0.5
357 11 1.93692 10.0917 18.2402 0.06
380 11 4.82719 13.5776 20.2327 0.06
381 11 6.5666 13.5807 20.3853 0.06
377 1 5.7334 13.7093 19.6564 0.22
718 11 6.98819 9.18211 1.95967 0.06
36 11 6.82749 12.6644 2.74861 0.06
26 20 9.74297 10.8218 3.1866 -0.5
25 9 9.0383 11.3477 4.04745 0.52
227 11 9.71685 13.1556 2.3802 0.06
222 1 10.5949 13.8176 2.46893 0.22
30 1 6.78138 12.1446 3.75909 0.22
34 11 5.73677 11.8379 3.59694 0.06
28 19 7.67528 11.0464 4.02016 -0.35
35 11 6.77444 12.9546 4.49703 0.06
130 11 8.34159 12.314 1.06461 0.06
372 11 13.3696 11.8791 2.55006 0.06
370 11 13.5694 10.9707 1.07477 0.06
366 1 13.1331 10.9257 2.08931 0.22
371 11 12.0782 11.0316 1.9332 0.06
226 11 10.7325 14.1064 3.51196 0.06
737 26 14.8046 14.0386 3.83362 -0.39
228 11 11.4723 13.2816 2.1145 0.06
33 11 10.9101 10.6214 6.0537 0.06
460 19 15.8425 12.5137 0.136166 -0.35
467 11 15.0618 14.1293 20.3688 0.06
31 11 11.5975 11.2813 4.64428 0.06
462 1 15.4428 13.8706 0.180111 0.22
466 11 16.3315 14.4953 0.191342 0.06
266 20 20.3168 11.9725 5.08307 -0.5
272 11 18.164 12.7999 1.88741 0.06
273 11 16.7998 12.6388 2.99465 0.06
271 11 17.9682 13.8315 3.20465 0.06
269 1 17.8662 12.8099 2.95756 0.22
267 19 18.5927 11.8368 3.71727 -0.35
265 9 19.2892 12.5529 4.74529 0.52
490 11 1.40674 15.5646 1.7188 0.06
419 11 19.7599 17.403 19.188 0.06
486 1 1.7312 15.7497 2.71012 0.22
491 11 2.80932 15.8013 2.69662 0.06
492 11 1.42823 14.8614 3.24966 0.06
484 19 1.15295 16.9343 3.25208 -0.35
481 9 1.34481 18.1564 2.50367 0.52
482 20 0.80846 18.3478 1.35002 -0.5
483 19 1.5746 19.3084 3.27623 -0.35
487 11 3.34904 18.792 4.19918 0.06
485 1 2.95695 19.5587 3.5395 0.22
431 11 5.08582 18.385 -0.311687 0.06
295 11 -0.492989 19.0228 4.71531 0.06
296 11 19.8904 17.5132 4.29027 0.06
768 26 5.56474 15.4579 1.39042 -0.39
770 26 5.15801 17.4472 2.38774 -0.39
766 26 5.19869 15.5995 3.658 -0.39
764 27 6.19289 16.2452 2.61007 1.34
765 26 7.15039 16.929 1.55092 -0.39
769 26 7.15036 15.0259 2.76006 -0.39
429 11 8.88461 -0.115444 19.0279 0.06
767 26 6.88789 17.0697 3.77706 -0.39
700 11 5.91065 19.9739 3.74825 0.06
225 11 9.45524 17.3883 0.731798 0.06
220 19 10.2395 14.9286 1.72359 -0.35
523 11 9.55155 16.945 4.16937 0.06
223 11 9.24772 18.2903 2.24101 0.06
500 11 13.4887 19.9723 2.93039 0.06
501 11 11.8723 19.391 3.09647 0.06
736 27 14.6457 15.5643 4.2971 1.34
741 26 13.0792 15.3773 4.30352 -0.39
740 26 14.6634 16.0664 2.81466 -0.39
738 26 14.5218 16.987 4.86326 -0.39
728 11 12.7498 18.6802 0.286598 0.06
217 9 11.2491 15.8789 1.56903 0.52
218 20 12.0182 15.8625 0.627882 -0.5
224 11 10.4775 18.6751 1.03591 0.06
221 1 9.9929 17.8635 1.5582 0.22
219 19 10.9978 17.0782 2.25453 -0.35
727 11 13.5913 17.9672 1.68968 0.06
723 19 14.3423 19.6952 0.531468 -0.35
726 2 13.7356 18.4092 0.712347 0.22
742 26 16.2111 15.6598 4.39187 -0.39
417 11 17 16.5665 2.09245 0.06
409 9 19.1588 16.659 1.22317 0.52
410 20 19.6223 15.6639 1.7398 -0.5
413 1 17.2943 17.6316 2.05893 0.22
415 11 16.8788 18.1147 2.97659 0.06
416 11 16.917 18.2638 1.2266 0.06
411 19 18.7349 17.7158 2.02511 -0.35
293 1 20.0403 18.174 5.15131 0.22
297 11 19.1612 18.6105 5.49292 0.06
412 19 18.9108 16.6976 -0.143477 -0.35
21 11 19.8308 19.6196 0.67374 0.06
689 11 0.527177 4.93789 5.79876 0.06
78 1 1.38229 0.972246 5.7722 0.22
84 11 0.978621 0.549325 6.68711 0.06
83 11 1.83881 1.91173 6.06138 0.06
82 11 2.17728 0.273839 5.45766 0.06
510 1 -0.122226 3.47509 9.30983 0.22
506 20 2.40893 1.37901 8.50078 -0.5
508 19 0.927264 3.2762 8.38289 -0.35
505 9 2.01105 2.51236 8.96221 0.52
188 11 4.96247 -0.174236 7.05028 0.06
681 9 3.01577 4.63195 5.54313 0.52
682 20 3.63897 3.5958 5.34832 -0.5
187 11 4.79468 1.43485 7.6678 0.06
513 11 4.10456 3.43481 8.40984 0.06
515 11 -0.299374 2.62273 9.94847 0.06
677 11 2.84013 -0.00903643 10.6395 0.06
503 11 8.95774 0.562864 6.26548 0.06
498 1 9.92626 0.728585 5.90504 0.22
185 1 5.13625 0.406939 7.94669 0.22
189 11 4.62732 -0.0214158 8.75793 0.06
183 19 6.41397 0.277763 8.46244 -0.35
181 9 7.08252 1.50446 8.50621 0.52
184 19 8.4821 1.47243 8.4679 -0.35
504 11 10.6512 0.0573431 6.35573 0.06
259 11 9.24739 3.86464 8.24437 0.06
257 1 9.19318 4.7043 8.97079 0.22
260 11 8.27023 4.60928 9.52352 0.06
186 1 9.00287 0.870565 9.61748 0.22
502 11 10.2216 1.76251 6.15948 0.06
496 19 10.0088 0.42526 4.48903 -0.35
495 19 12.3787 0.15068 4.07146 -0.35
255 19 10.2353 4.64278 9.98593 -0.35
547 11 13.569 4.45487 6.05983 0.06
546 2 14.2635 3.62083 6.17276 0.22
548 11 13.6661 2.76592 6.41206 0.06
190 11 10.0112 1.09486 9.78321 0.06
253 9 11.5223 4.38048 9.5363 0.52
256 19 11.8436 3.03457 9.3989 -0.35
334 11 18.0836 1.01918 4.59296 0.06
330 1 18.5817 1.14708 5.56855 0.22
336 11 19.3726 0.43293 5.73641 0.06
335 11 18.9129 2.16579 5.5758 0.06
328 19 17.666 0.910304 6.61181 -0.35
325 9 18.1359 1.2293 7.85625 0.52
326 20 19.2742 0.90439 8.09253 -0.5
327 19 17.3456 1.85567 8.82913 -0.35
514 11 20.0813 3.67452 8.77535 0.06
543 19 14.9599 3.88885 4.96632 -0.35
329 1 17.0131 0.908024 9.79791 0.22
545 2 15.1793 4.14396 7.29327 0.22
550 11 15.2428 3.40954 8.07934 0.06
333 11 16.7434 -0.0880488 9.44585 0.06
685 2 1.16663 5.79318 5.50214 0.22
688 11 2.16489 7.22419 6.66894 0.06
686 2 1.94162 6.17616 6.73309 0.22
687 11 1.46934 5.80163 7.62577 0.06
683 19 3.18017 5.51397 6.65109 -0.35
157 9 -0.073325 7.95504 9.35956 0.52
158 20 0.00810944 6.79824 9.03795 -0.5
3 19 2.67944 9.59391 5.40249 -0.35
165 11 0.76506 10.0267 8.39924 0.06
7 11 4.15218 8.23534 5.04535 0.06
5 1 3.41161 8.82674 4.49328 0.22
2 20 4.29545 9.50301 7.02993 -0.5
441 11 6.43002 6.33875 6.78405 0.06
437 1 6.20777 6.85869 7.71807 0.22
440 11 6.68652 7.80187 7.77549 0.06
439 11 5.13819 7.02704 7.64597 0.06
447 19 9.82575 4.64714 4.7883 -0.35
70 11 8.1866 10.3561 6.8674 0.06
66 1 8.4776 10.4233 7.87542 0.22
435 19 6.34882 6.12199 8.95702 -0.35
433 9 5.97959 6.96745 10.0508 0.52
71 11 7.93205 9.64408 8.3905 0.06
261 11 9.21375 5.5928 8.40271 0.06
72 11 8.13097 11.4182 8.21184 0.06
434 20 6.70708 7.86552 10.4455 -0.5
254 20 12.0628 5.22666 8.79541 -0.5
456 11 12.3051 6.63294 6.61385 0.06
454 11 12.1551 7.74193 5.10142 0.06
549 11 14.7089 4.99729 7.78203 0.06
448 19 12.0787 5.65818 4.88654 -0.35
455 11 10.6864 6.84157 5.9825 0.06
450 1 11.7438 6.76212 5.65429 0.22
61 9 10.2916 10.2197 9.48777 0.52
64 19 9.8806 10.2387 8.06865 -0.35
63 19 11.2828 9.27489 9.77162 -0.35
470 20 14.4459 8.86829 6.27386 -0.5
68 11 13.0249 10.4252 10.237 0.06
159 19 20.2946 8.80647 8.52956 -0.35
542 20 17.0887 4.24103 4.68329 -0.5
541 9 16.1048 4.62504 5.29387 0.52
544 19 16.1998 4.84383 6.70072 -0.35
474 1 17.2193 8.33013 6.14208 0.22
479 11 17.9326 7.79242 6.72893 0.06
472 19 16.6049 9.25697 7.03302 -0.35
287 11 16.75 7.29812 8.80904 0.06
478 11 17.7555 8.77595 5.31228 0.06
469 9 15.2639 9.65906 6.79593 0.52
286 11 15.5922 8.36255 9.53413 0.06
288 11 15.1389 6.80453 9.08671 0.06
282 1 15.9438 7.3537 9.50423 0.22
163 11 0.562679 9.03485 6.98331 0.06
161 1 0.0704642 9.57106 7.78451 0.22
1 9 3.66482 10.2129 6.24923 0.52
630 11 2.35783 13.8745 7.0012 0.06
11 11 4.54809 12.627 7.96912 0.06
4 19 3.51426 11.6299 6.42596 -0.35
6 1 4.71135 12.1769 6.96087 0.22
10 11 4.85016 13.0025 6.28095 0.06
164 11 -0.380627 10.3458 7.2758 0.06
93 11 2.66277 10.0789 9.20416 0.06
12 11 5.62028 11.6028 6.97473 0.06
387 19 7.11909 13.8253 9.06629 -0.35
388 19 8.69615 15.1545 7.93294 -0.35
385 9 7.68535 14.1759 7.85926 0.52
389 1 6.16094 14.7669 9.47002 0.22
392 11 5.47511 15.1467 8.66116 0.06
386 20 7.48527 13.5894 6.7673 -0.5
390 1 9.95716 14.6303 7.88588 0.22
395 11 10.679 15.4485 7.7191 0.06
32 11 11.5487 12.2055 6.03301 0.06
27 19 9.69525 12.0229 5.1045 -0.35
29 1 10.9769 11.5212 5.46843 0.22
475 11 15.6746 11.695 5.57734 0.06
394 11 10.1554 14.0117 6.99895 0.06
69 11 13.3441 8.97024 9.2333 0.06
396 11 10.3162 14.0569 8.77447 0.06
65 1 12.5846 9.75792 9.48083 0.22
67 11 12.5917 10.3637 8.51899 0.06
42 1 14.2523 15.1385 9.28788 0.22
274 11 18.8484 15.0826 4.76533 0.06
276 11 19.9164 14.7486 6.05406 0.06
471 19 14.7943 10.8836 7.26478 -0.35
268 19 18.4908 13.2678 5.67599 -0.35
473 1 14.9076 11.9582 6.39162 0.22
477 11 15.2103 12.8497 6.85937 0.06
476 11 14.0249 12.2697 5.86847 0.06
135 19 19.282 12.0843 8.09784 -0.35
133 9 20.1005 12.8982 8.95928 0.52
136 19 20.0739 14.2308 8.48231 -0.35
137 1 18.118 11.6239 8.69445 0.22
141 11 17.9855 10.5656 8.38803 0.06
270 1 18.8799 14.6547 5.74463 0.22
275 11 18.2417 15.2517 6.40447 0.06
40 19 14.1203 13.7284 9.58228 -0.35
140 11 17.2243 12.2299 8.40822 0.06
627 11 2.28463 16.0913 5.35486 0.06
629 11 0.92258 14.8425 6.32397 0.06
628 11 3.75772 15.4727 6.08429 0.06
291 19 -0.361996 17.4839 6.12773 -0.35
626 2 2.72895 15.8268 6.30192 0.22
625 2 1.81316 14.8188 6.93939 0.22
624 19 1.82629 15.1082 8.31176 -0.35
622 20 2.5399 16.855 9.5223 -0.5
621 9 2.51751 16.3095 8.45028 0.52
623 19 3.3188 16.6124 7.34273 -0.35
289 9 0.107883 18.4149 7.01391 0.52
290 20 1.20462 18.9439 6.66671 -0.5
393 11 5.54761 14.4376 10.3007 0.06
391 11 6.69006 15.6825 9.74985 0.06
528 11 5.83034 17.6522 5.84252 0.06
526 11 7.05574 16.7909 6.48557 0.06
520 19 7.31624 18.9295 6.4593 -0.35
527 11 5.9067 17.7828 7.51391 0.06
522 1 6.4972 17.7203 6.58826 0.22
519 19 9.53131 18.6339 5.42847 -0.35
521 1 9.80834 17.225 5.20575 0.22
517 9 8.70354 18.9194 6.56063 0.52
518 20 9.2333 19.4013 7.56002 -0.5
525 11 9.04722 16.7266 5.75588 0.06
192 11 8.96222 -0.219285 9.57343 0.06
739 26 14.6287 15.156 5.80035 -0.39
524 11 10.8561 16.873 5.40685 0.06
537 11 12.3655 18.6904 6.08196 0.06
535 11 13.0543 17.6278 7.23188 0.06
536 11 11.6112 18.5002 7.72657 0.06
533 1 12.5262 18.5894 7.14086 0.22
531 19 13.3963 19.5975 7.62551 -0.35
46 11 13.4156 15.504 8.71772 0.06
529 9 14.6135 19.0518 8.29097 0.52
530 20 14.6381 18.2032 9.13219 -0.5
144 11 19.4677 14.7983 10.4918 0.06
300 11 0.459526 20.1966 8.96781 0.06
299 11 0.187656 18.634 9.69895 0.06
538 11 16.0229 17.9931 6.82416 0.06
539 11 16.8784 19.3106 6.04071 0.06
532 19 15.7865 19.6903 7.86684 -0.35
534 1 16.6001 18.8662 6.99401 0.22
540 11 17.5201 18.638 7.54548 0.06
292 19 20.3341 18.8307 7.98402 -0.35
138 1 19.5848 15.1002 9.47793 0.22
298 11 20.0935 19.7079 9.79817 0.06
294 1 -0.264834 19.393 9.12512 0.22
142 11 20.2144 16.049 9.47893 0.06
507 19 2.74487 3.11194 9.97821 -0.35
516 11 0.0232067 4.30707 9.96754 0.06
509 1 3.79686 3.83902 9.38537 0.22
512 11 4.69104 3.7496 9.95921 0.06
678 11 3.95539 -0.392196 11.8551 0.06
676 2 2.91779 -0.509935 11.5947 0.22
673 19 1.99704 0.232592 12.3727 -0.35
321 11 2.44707 3.533 13.6855 0.06
317 1 2.92198 4.4751 13.5379 0.22
316 19 5.14893 2.52306 13.3645 -0.35
319 11 3.02675 5.02725 14.4131 0.06
146 20 0.0458197 2.26377 14.8647 -0.5
313 9 5.10286 3.90346 13.2554 0.52
315 19 4.02175 4.55914 12.6314 -0.35
320 11 2.12379 4.97031 12.9663 0.06
323 11 5.18555 2.2153 11.2295 0.06
318 1 5.75609 2.07113 12.1476 0.22
322 11 5.96674 1.01101 12.0986 0.06
182 20 6.46055 2.4216 9.05324 -0.5
324 11 6.72731 2.54374 11.9388 0.06
191 11 8.45914 1.23879 10.4536 0.06
744 26 7.18138 1.96445 15.2529 -0.39
264 11 13.5353 3.24046 10.7018 0.06
263 11 13.0664 1.73712 10.5003 0.06
258 1 12.6664 2.69075 10.5433 0.22
262 11 12.0894 2.77917 11.4721 0.06
608 11 13.0284 3.26597 14.0221 0.06
603 19 14.8065 2.53454 12.7991 -0.35
604 19 15.6705 1.61782 14.8047 -0.35
170 20 12.3304 0.891646 13.2507 -0.5
331 11 17.8754 0.764022 10.4692 0.06
332 11 16.2055 1.33276 10.411 0.06
601 9 15.7876 1.78512 13.4491 0.52
602 20 16.5401 1.00751 12.8471 -0.5
283 11 18.7557 3.62203 10.9543 0.06
153 11 19.5836 0.257043 13.6743 0.06
149 1 19.1703 0.00468352 14.6195 0.22
152 11 18.1618 0.350917 14.592 0.06
511 11 3.66979 4.91114 9.37126 0.06
641 9 0.94546 7.00549 15.2279 0.52
649 11 3.55973 6.98366 16.0259 0.06
643 19 1.1627 8.36395 14.6935 -0.35
647 11 3.39985 9.17045 14.638 0.06
646 2 2.49098 8.67116 14.9668 0.22
438 1 3.98143 7.35446 11.0768 0.22
443 11 3.23918 6.87851 11.7323 0.06
442 11 3.49121 7.44416 10.1023 0.06
167 11 19.0183 8.22807 10.752 0.06
402 1 8.65401 6.12072 12.4828 0.22
408 11 8.37924 5.17418 12.0426 0.06
314 20 5.89696 4.53531 13.9442 -0.5
400 19 9.31501 6.0648 13.7813 -0.35
444 11 4.23335 8.31632 11.575 0.06
436 19 5.08435 6.47876 11.0028 -0.35
407 11 9.0838 6.68716 11.6462 0.06
406 11 7.66577 6.6149 12.6935 0.06
205 9 8.52367 9.21916 15.4062 0.52
208 19 8.38916 8.74963 14.1164 -0.35
398 20 11.1001 7.34393 14.3844 -0.5
397 9 10.6045 6.579 13.5732 0.52
399 19 11.489 5.78444 12.7902 -0.35
404 11 12.6623 6.08108 10.9782 0.06
401 1 12.4188 6.50987 11.9337 0.22
405 11 12.1278 7.55053 11.7262 0.06
403 11 13.3674 6.49115 12.5041 0.06
102 1 11.8346 10.5665 13.4467 0.22
108 11 11.0878 10.6458 12.6624 0.06
106 11 11.4823 10.0825 14.3245 0.06
160 19 -0.0254452 8.2287 10.6888 -0.35
162 1 19.9119 8.62916 11.159 0.22
166 11 19.8606 9.72199 11.0352 0.06
285 11 17.9617 4.65765 12.1734 0.06
281 1 18.2322 4.61192 11.111 0.22
284 11 18.984 5.33729 10.8708 0.06
279 19 17.1401 4.76228 10.2587 -0.35
98 20 13.4345 8.76606 14.9332 -0.5
580 11 17.9927 8.868 16.7596 0.06
642 20 0.646153 6.05986 14.4874 -0.5
168 11 19.8066 8.38551 12.1979 0.06
280 19 16.3658 6.92233 10.8095 -0.35
277 9 16.1285 5.51762 10.8326 0.52
278 20 15.0759 5.00169 11.2487 -0.5
579 11 17.2432 8.08054 15.3099 0.06
575 2 17.2983 8.12145 16.394 0.22
89 1 3.29348 10.7774 9.77647 0.22
115 11 1.1592 10.3285 12.8492 0.06
116 11 -0.461876 10.9979 12.8199 0.06
113 1 0.635417 11.2698 12.6392 0.22
117 11 0.655184 11.5013 11.5668 0.06
111 19 1.07365 12.3152 13.4734 -0.35
109 9 0.303328 13.4805 13.2359 0.52
95 11 4.55342 13.0781 13.8027 0.06
96 11 5.43034 13.9578 12.5906 0.06
112 19 0.686562 14.2368 12.1026 -0.35
87 19 3.13055 10.6138 11.1684 -0.35
92 11 4.22806 10.4717 9.34355 0.06
216 11 8.52034 9.551 12.1872 0.06
86 20 4.51718 10.8616 13.0007 -0.5
91 11 3.06621 11.7816 9.43644 0.06
210 1 7.94043 9.66895 13.1389 0.22
215 11 8.03293 10.7681 13.3858 0.06
85 9 3.85168 11.4149 12.08 0.52
88 19 3.97831 12.769 11.7971 -0.35
637 11 9.54089 15.014 11.7975 0.06
214 11 6.86588 9.41618 12.9312 0.06
90 1 4.43915 13.6178 12.8341 0.22
763 26 8.55634 14.5428 14.2607 -0.39
94 11 3.69392 14.3906 12.9713 0.06
760 26 8.55539 12.6147 15.4786 -0.39
47 11 14.4025 15.8384 10.1099 0.06
638 11 9.68301 13.5356 10.9774 0.06
636 2 10.2804 14.3558 11.3941 0.22
62 20 9.95842 11.0258 10.338 -0.5
639 11 10.6458 13.2195 13.1394 0.06
635 2 11.3079 13.6887 12.3526 0.22
640 11 11.7497 12.838 11.8885 0.06
107 11 12.2212 11.4856 13.8001 0.06
634 19 11.8489 14.7331 12.9983 -0.35
100 19 12.9284 9.82053 12.975 -0.35
97 9 13.8473 9.45185 13.9933 0.52
134 20 -0.143053 12.4281 9.63809 -0.5
103 11 16.5587 11.2081 13.9193 0.06
104 11 14.9333 11.8676 13.6502 0.06
38 20 14.9899 11.9828 10.8186 -0.5
139 11 18.1762 11.5901 9.78461 0.06
37 9 15.1623 13.1432 10.4533 0.52
101 1 15.5206 11.0779 14.1734 0.22
39 19 16.3802 13.8963 10.6918 -0.35
43 11 17.6797 14.6389 12.2854 0.06
41 1 16.9189 13.9135 12.0177 0.22
44 11 16.1455 13.9617 12.8238 0.06
99 19 15.2132 9.75107 13.7078 -0.35
45 11 17.3166 12.8636 12.0008 0.06
110 20 20.4716 13.7593 13.9163 -0.5
710 11 18.1605 15.2562 15.5759 0.06
680 11 3.19643 18.5404 11.3913 0.06
118 11 1.50382 15.6501 13.4946 0.06
671 9 1.54671 20.4165 13.2293 0.52
672 20 1.5626 -0.510197 14.4784 -0.5
675 2 2.36725 19.1931 11.5389 0.22
679 11 1.96031 18.8832 10.6464 0.06
674 19 1.72332 19.0757 12.8525 -0.35
120 11 0.365837 16.2787 12.1422 0.06
119 11 1.97592 15.8204 11.7708 0.06
114 1 1.14807 15.5363 12.3948 0.22
613 19 5.01637 19.4878 14.1848 -0.35
616 2 4.58983 18.218 13.7979 0.22
618 11 4.32323 17.5507 13.0069 0.06
652 20 5.98697 18.3102 10.8818 -0.5
651 9 7.14607 18.5518 11.1976 0.52
654 19 8.15473 17.6136 10.944 -0.35
653 19 7.40457 19.4345 12.2648 -0.35
657 11 8.88268 19.6577 13.0346 0.06
658 11 8.54524 18.5038 14.134 0.06
655 2 8.74493 17.5906 12.2681 0.22
656 2 8.25913 18.7924 13.1515 0.22
660 11 8.79144 16.6334 12.8117 0.06
659 11 9.76779 17.6558 11.9334 0.06
611 9 5.47456 19.4522 15.4641 0.52
614 19 5.79029 18.2553 15.9884 -0.35
615 2 5.22432 17.3892 14.9951 0.22
620 11 5.91778 16.5894 14.7455 0.06
179 11 11.8045 18.8091 11.0773 0.06
180 11 12.1875 20.3013 10.4438 0.06
48 11 15.0943 15.2351 8.6198 0.06
631 9 11.922 15.6629 11.9846 0.52
632 20 12.952 16.3397 11.8796 -0.5
633 19 10.9047 15.5446 11.0114 -0.35
178 11 13.1342 19.7204 11.7789 0.06
174 1 12.1018 19.7841 11.4165 0.22
172 19 11.0847 20.3496 12.1734 -0.35
169 9 11.7365 -0.229767 13.3056 0.52
173 1 12.9808 19.6034 14.9471 0.22
171 19 11.7149 20.1608 14.5149 -0.35
176 11 13.8165 19.9949 14.3597 0.06
568 11 15.8139 17.1743 13.1206 0.06
570 11 15.8335 19.6247 13.2891 0.06
569 11 16.1002 19.6703 11.6184 0.06
143 11 18.5688 15.4044 9.12871 0.06
567 11 14.9489 17.7614 11.7755 0.06
565 2 16.4568 19.1427 12.525 0.22
562 20 19.2492 17.4619 11.4333 -0.5
564 19 17.8826 19.0821 12.2557 -0.35
561 9 18.1043 17.8724 11.5936 0.52
563 19 16.9297 17.0659 11.3818 -0.35
566 2 15.9711 17.7313 12.2022 0.22
704 19 17.8638 17.0774 15.629 -0.35
151 11 19.185 20.0778 14.6582 0.06
155 11 19.8923 4.11703 16.4968 0.06
244 19 3.12778 2.81853 17.1353 -0.35
242 20 2.0119 0.975656 16.8697 -0.5
241 9 2.84712 1.55896 17.5714 0.52
245 1 3.54134 0.441054 19.5788 0.22
243 19 3.89106 0.891493 18.2698 -0.35
246 1 3.00512 3.8061 18.1649 0.22
251 11 3.07608 4.80797 17.7722 0.06
252 11 2.05516 3.72269 18.6754 0.06
250 11 3.86892 3.69102 18.8429 0.06
247 11 2.59627 0.85439 19.9825 0.06
14 20 19.8334 2.07439 19.9578 -0.5
154 11 18.8965 2.87448 17.4708 0.06
428 11 8.45083 0.119879 -0.504742 0.06
733 31 5.32619 0.338483 17.4754 1
749 26 5.91439 3.27504 16.4837 -0.39
743 27 7.31637 2.545 16.6476 1.34
747 26 6.62747 1.28906 17.1435 -0.39
745 26 7.39261 3.1116 18.1475 -0.39
746 26 7.90737 3.86588 16.1647 -0.39
748 26 8.71549 1.92757 16.8964 -0.39
49 9 11.3762 1.48952 20.4103 0.52
51 19 12.3762 1.31191 19.4743 -0.35
56 11 11.8043 -0.340859 18.3767 0.06
607 11 14.2862 4.18769 13.9461 0.06
606 2 14.0692 3.11925 13.9211 0.22
605 2 14.6015 2.46574 15.211 0.22
610 11 13.8658 1.68205 15.5267 0.06
57 11 10.8676 1.12446 17.937 0.06
53 1 11.8766 0.777201 18.289 0.22
560 11 12.0784 3.87749 17.9691 0.06
559 11 13.8366 4.07994 17.9591 0.06
609 11 14.5648 3.15619 16.0017 0.06
55 11 12.6037 0.905943 17.4988 0.06
722 20 14.8317 20.0881 19.3856 -0.5
15 19 20.3836 -0.132428 20.5383 -0.35
147 19 19.9965 0.518016 15.6606 -0.35
145 9 20.1475 1.90049 15.3583 0.52
22 11 17.399 -0.375408 17.8481 0.06
16 19 18.2693 0.381632 19.5472 -0.35
13 9 19.5336 0.865185 20.0441 0.52
18 1 18.4093 -0.075333 18.2199 0.22
23 11 18.757 0.673561 17.5472 0.06
148 19 19.0015 2.69517 15.3638 -0.35
156 11 18.1017 4.06846 16.4796 0.06
150 1 18.9931 3.4668 16.5524 0.22
24 11 19.0473 20.1246 18.2193 0.06
644 19 1.84456 6.76216 16.2742 -0.35
645 2 2.8162 7.78157 16.1776 0.22
648 11 1.76519 9.46369 15.2029 0.06
650 11 2.9108 8.16868 17.1935 0.06
356 11 1.65505 10.5821 19.9691 0.06
353 1 1.41016 9.84298 19.205 0.22
201 11 4.59202 8.77162 19.4818 0.06
207 19 7.35741 9.23365 16.2312 -0.35
734 31 6.31053 4.74334 15.5935 1
197 1 5.45878 8.52819 18.9204 0.22
200 11 6.15336 9.34471 18.8378 0.06
195 19 5.1298 7.72457 17.7811 -0.35
206 20 9.61256 9.33919 15.9184 -0.5
193 9 6.07389 6.6938 17.5004 0.52
194 20 5.90105 5.97427 16.5017 -0.5
196 19 7.05451 6.27728 18.4429 -0.35
202 11 8.5729 7.64953 17.704 0.06
203 11 9.08851 6.41104 18.9164 0.06
198 1 8.41426 6.6335 18.0541 0.22
204 11 8.87339 5.96821 17.3197 0.06
199 11 5.94977 7.93061 19.6994 0.06
557 11 13.8382 5.46271 19.8363 0.06
555 2 12.8669 4.65024 18.0189 0.22
732 31 11.1707 8.43814 15.5492 1
556 2 12.8455 5.39126 19.3321 0.22
554 19 12.2158 5.48275 17.0129 -0.35
551 9 12.0031 6.71689 17.6406 0.52
553 19 12.5528 6.73984 18.9369 -0.35
552 20 11.6189 7.71732 17.0862 -0.5
464 11 14.4209 10.4093 20.3104 0.06
599 11 19.1222 5.50851 18.7678 0.06
595 2 19.3301 6.53409 19.1689 0.22
594 19 20.5064 6.52054 19.9947 -0.35
596 2 18.2509 7.20327 19.9677 0.22
574 19 17.2803 6.64561 16.4375 -0.35
600 11 19.9395 7.06032 18.4289 0.06
577 11 15.679 9.51671 16.6975 0.06
571 9 16.0348 6.28494 17.1176 0.52
572 20 15.941 5.26563 17.8414 -0.5
573 19 15.2036 7.38205 17.4114 -0.35
576 2 15.9108 8.5179 16.9849 0.22
578 11 15.9384 8.65233 18.0478 0.06
598 11 17.5282 7.70093 19.2202 0.06
350 20 19.8931 9.96817 17.2498 -0.5
351 19 -0.00382036 9.79772 19.1644 -0.35
355 11 1.70595 8.82768 19.3863 0.06
382 11 3.89171 14.3368 18.0737 0.06
383 11 4.49662 14.7218 16.5194 0.06
378 1 3.86197 14.019 17.0354 0.22
384 11 2.8876 14.1061 16.5907 0.06
376 19 4.36212 12.7132 16.8435 -0.35
373 9 4.80615 12.1852 18.0596 0.52
374 20 4.42432 11.0281 18.372 -0.5
358 11 0.259432 12.3194 16.5736 0.06
379 11 5.8219 14.6628 19.2197 0.06
213 11 7.2533 11.0144 17.0812 0.06
211 11 6.78412 10.8599 15.3445 0.06
375 19 5.93673 12.7101 18.7227 -0.35
131 11 8.90834 13.2043 -0.342911 0.06
209 1 6.74603 10.4826 16.3084 0.22
212 11 5.70223 10.322 16.5436 0.06
757 27 8.24656 14.1563 15.7243 1.34
124 19 9.88072 11.3368 -0.0651087 -0.35
126 1 8.71696 12.2076 0.0484239 0.22
132 11 7.89877 11.7429 -0.528296 0.06
758 26 6.7841 13.8693 15.321 -0.39
762 26 7.89485 13.7531 17.2512 -0.39
759 26 9.71135 14.453 16.1092 -0.39
129 11 9.38321 11.793 17.9075 0.06
236 11 8.9981 15.4216 18.5447 0.06
584 19 12.8236 14.2272 15.5617 -0.35
123 19 11.048 11.141 18.91 -0.35
463 11 14.2551 10.3972 18.6299 0.06
121 9 10.8922 11.7263 20.1861 0.52
461 1 14.6772 10.9923 19.4164 0.22
465 11 14.0821 11.9243 19.2661 0.06
587 11 12.6862 14.4333 18.6592 0.06
122 20 11.9149 12.2196 -0.44345 -0.5
128 11 10.9128 11.5184 17.0185 0.06
125 1 10.4925 11.9254 17.924 0.22
237 11 9.96754 15.0254 19.8715 0.06
127 11 10.8091 12.9761 17.9662 0.06
586 2 13.3386 14.6573 17.8118 0.22
583 19 13.9851 13.5075 17.4412 -0.35
581 9 13.3513 13.1159 16.2938 0.52
582 20 13.0875 11.9325 16.0171 -0.5
468 11 14.82 14.1077 0.960981 0.06
105 11 15.3859 11.1846 15.2597 0.06
349 9 20.3859 10.6364 18.2086 0.52
352 19 20.3898 12.1309 18.3891 -0.35
459 19 16.0854 11.0268 19.4027 -0.35
457 9 16.5446 12.1583 20.0801 0.52
359 11 19.9215 13.1388 16.6558 0.06
708 11 17.3185 14.592 17.7095 0.06
458 20 17.4777 12.8562 19.5891 -0.5
360 11 -0.0202574 13.8609 17.4219 0.06
354 1 -0.339102 12.8255 17.2283 0.22
420 11 20.4957 18.0965 20.6847 0.06
617 11 3.67697 18.6937 14.1843 0.06
248 11 3.40463 20.4886 19.6232 0.06
426 1 5.1013 18.0446 19.8232 0.22
432 11 4.07758 17.7864 19.5462 0.06
430 11 5.71811 17.1612 19.9845 0.06
731 31 1.12769 -0.0236326 15.8238 1
753 26 0.606513 16.8138 17.4382 -0.39
756 26 1.81785 17.6836 15.7076 -0.39
750 27 1.73366 17.977 17.2283 1.34
752 26 2.84182 16.9057 17.5532 -0.39
751 26 0.63806 19.0556 16.8229 -0.39
755 26 1.63561 18.3257 18.6942 -0.39
754 26 2.85327 18.9905 17.1826 -0.39
427 11 8.11144 1.41662 19.6913 0.06
425 1 8.08436 0.360078 19.6493 0.22
612 20 5.23044 20.3888 16.2479 -0.5
619 11 4.42131 16.9277 15.6041 0.06
424 19 5.58717 19.0543 18.9651 -0.35
421 9 6.74342 19.5857 19.493 0.52
423 19 6.75186 -0.193833 19.6197 -0.35
761 26 7.9975 15.6959 15.9808 -0.39
238 11 9.40736 19.6914 16.326 0.06
422 20 7.81747 18.9593 19.3861 -0.5
234 1 9.62478 18.6688 16.6871 0.22
239 11 9.69743 17.8416 15.9802 0.06
240 11 8.70034 18.5074 17.2556 0.06
235 11 9.04063 16.4945 19.8886 0.06
233 1 9.68148 15.8905 19.2771 0.22
589 11 12.117 16.1607 16.817 0.06
585 2 12.7069 15.28 16.5678 0.22
590 11 13.5073 15.6474 15.9483 0.06
175 11 13.0053 18.5939 14.4991 0.06
588 11 14.0196 15.3882 18.2352 0.06
721 9 15.1094 19.4659 20.4266 0.52
177 11 13.2291 19.4181 15.9966 0.06
231 19 10.7903 16.5585 18.8039 -0.35
232 19 10.8537 18.5439 17.4124 -0.35
229 9 10.664 17.9659 18.7232 0.52
230 20 10.9719 18.5829 19.7223 -0.5
730 11 13.7466 17.0384 20.1158 0.06
725 2 14.3469 17.4607 -0.242901 0.22
724 19 15.4497 18.1149 20.2529 -0.35
414 1 20.0363 17.1964 20.2371 0.22
702 20 15.7733 18.0459 15.659 -0.5
709 11 19.3652 15.8033 16.5362 0.06
705 2 18.2909 15.9631 16.3238 0.22
418 11 -0.284457 16.4864 20.1387 0.06
707 11 17.3258 16.3079 18.2955 0.06
706 2 17.31 15.6504 17.4456 0.22
703 19 16.2206 16.4556 17.1661 -0.35
729 11 15.2418 16.9308 0.059709 0.06
701 9 16.5577 17.2556 16.1409 0.52
ITEM: TIMESTEP
300
ITEM: NUMBER OF ATOMS
770
ITEM: BOX BOUNDS pp pp pp
-5.9528891422714914e-01 2.0595288914227261e+01
-5.9528891422714914e-01 2.0595288914227261e+01
-5.9528891422714914e-01 2.0595288914227261e+01
ITEM: ATOMS id type x y z c_charge
74 20 1.91602 1.20174 3.19733 -0.5
73 9 0.834736 1.53335 3.61436 0.52
75 19 -0.138271 2.09219 2.77282 -0.35
77 1 -0.161373 3.53756 2.83842 0.22
81 11 0.724669 3.99247 2.43078 0.06
684 19 1.93817 4.8397 4.69093 -0.35
76 19 0.383691 0.881937 4.774 -0.35
309 11 4.03219 2.58098 0.892937 0.06
249 11 3.3352 0.854308 20.4379 0.06
308 11 2.39948 2.87562 1.2244 0.06
305 1 3.38002 3.37921 1.30133 0.22
79 11 20.1608 4.05962 2.4384 0.06
489 11 3.22524 20.0598 4.31737 0.06
488 11 3.65132 19.4862 2.74844 0.06
19 11 0.200588 20.359 1.08294 0.06
303 19 3.29681 4.59275 0.642024 -0.35
692 20 6.53953 1.4659 0.900149 -0.5
691 9 6.17246 0.914583 1.93885 0.52
694 19 6.15844 -0.49437 2.0542 -0.35
693 19 6.00414 1.54153 3.12915 -0.35
54 1 9.76917 3.00105 0.0765003 0.22
60 11 9.32195 2.08391 0.46561 0.06
696 2 6.6897 0.717559 3.99818 0.22
453 11 8.8406 3.25221 3.34152 0.06
698 11 5.95766 0.773961 4.82691 0.06
695 2 6.64876 20.5176 3.27111 0.22
58 11 9.95345 3.83572 0.877776 0.06
59 11 9.09966 3.4649 -0.70727 0.06
449 1 8.67188 4.18493 3.88442 0.22
451 11 7.75401 4.18643 4.48717 0.06
699 11 7.62557 20.0654 3.2603 0.06
697 11 7.67419 0.871998 4.40594 0.06
307 11 3.54895 3.5837 2.36391 0.06
52 19 11.0232 2.80985 -0.583097 -0.35
348 11 14.3708 1.93741 0.72737 0.06
50 20 11.1058 0.522776 -0.131089 -0.5
342 1 14.1274 2.23887 1.72858 0.22
347 11 13.0443 2.54659 1.78095 0.06
338 20 13.778 5.10896 1.86988 -0.5
337 9 14.795 4.42758 1.62268 0.52
346 11 14.3055 1.27939 2.12256 0.06
340 19 15.0282 3.19314 2.23718 -0.35
339 19 15.6724 4.85832 0.571426 -0.35
493 9 11.2532 1.06246 4.25781 0.52
497 1 12.2994 20.4246 3.34684 0.22
494 20 11.1219 1.82812 3.3005 -0.5
499 11 12.3692 -0.489835 2.28348 0.06
343 11 16.8582 3.1879 -0.202779 0.06
345 11 17.2384 3.83797 1.46328 0.06
341 1 16.8816 4.08587 0.422362 0.22
17 1 20.4445 -0.67619 0.573931 0.22
20 11 19.9108 -0.0605359 1.28372 0.06
80 11 -0.180968 3.84053 3.87114 0.06
690 11 1.08726 6.84673 4.92491 0.06
306 1 3.36721 7.32129 0.77119 0.22
311 11 3.90209 8.31257 0.94915 0.06
312 11 2.42219 7.59454 0.26864 0.06
592 20 -0.0434012 7.85956 0.535615 -0.5
8 11 2.99831 8.21181 3.77134 0.06
9 11 3.59641 9.7945 3.74377 0.06
301 9 4.48847 5.34363 0.465147 0.52
304 19 4.31429 6.59263 -0.0763399 -0.35
310 11 3.07769 6.93736 1.70143 0.06
452 11 8.56868 4.98333 3.04801 0.06
302 20 5.4444 4.992 1.06407 -0.5
714 19 8.9767 7.63993 3.70111 -0.35
716 2 7.03144 8.0216 2.25598 0.22
713 19 6.5483 8.0064 3.61243 -0.35
711 9 7.76514 7.77967 4.44059 0.52
719 11 8.9417 7.30911 1.48868 0.06
720 11 8.95628 8.94208 2.32473 0.06
715 2 8.56959 7.92384 2.36784 0.22
717 11 6.48487 7.05479 2.26099 0.06
712 20 7.79056 7.97859 5.66781 -0.5
446 20 11.1315 5.30768 2.8808 -0.5
363 19 14.6309 8.79935 1.15303 -0.35
368 11 16.1491 10.0387 2.08038 0.06
735 31 12.6605 6.10789 2.38391 1
361 9 13.6305 8.70122 2.1929 0.52
362 20 13.2108 7.64108 2.64705 -0.5
364 19 13.4334 9.94378 2.88521 -0.35
365 1 16.0337 9.07403 1.57384 0.22
369 11 16.455 8.41181 2.33391 0.06
445 9 10.951 5.16243 4.11943 0.52
558 11 12.0413 5.17928 19.7676 0.06
591 9 20.364 7.257 -0.208239 0.52
344 11 17.7328 4.58996 -0.0839392 0.06
597 11 17.7111 6.90128 -0.904291 0.06
593 19 19.004 7.63049 -0.170258 -0.35
367 11 16.6233 9.13054 0.685518 0.06
480 11 16.2937 7.37425 6.70424 0.06
670 11 -0.192858 10.4366 0.690671 0.06
669 11 0.437526 10.5956 2.26722 0.06
665 2 0.564034 11.0156 1.27623 0.22
664 19 1.95952 10.9585 1.52492 -0.35
661 9 2.48419 12.2603 1.52796 0.52
663 19 1.58267 13.2445 1.19662 -0.35
666 2 0.284938 12.5466 1.25363 0.22
668 11 -0.122714 12.8447 0.299457 0.06
667 11 -0.375917 12.9002 2.05398 0.06
662 20 3.58449 12.5734 1.84791 -0.5
357 11 1.74705 10.6923 18.4996 0.06
380 11 4.58477 13.9072 20.0396 0.06
381 11 6.21921 13.6941 20.5467 0.06
377 1 5.61833 13.6993 19.6729 0.22
718 11 6.88521 8.38639 1.24991 0.06
36 11 6.67939 12.5279 2.79416 0.06
26 20 9.65282 11.0393 2.98747 -0.5
25 9 8.96773 11.1995 3.97136 0.52
227 11 9.72683 13.9065 3.19241 0.06
222 1 10.5621 13.9433 2.49938 0.22
30 1 6.94374 12.3447 3.79863 0.22
34 11 5.98475 12.3384 4.23426 0.06
28 19 7.56273 11.1245 3.89145 -0.35
35 11 7.5345 13.1179 4.26078 0.06
130 11 7.86584 12.2489 0.254062 0.06
372 11 12.4168 11.8018 2.89779 0.06
370 11 13.5081 11.4986 1.54535 0.06
366 1 12.8078 11.0591 2.21649 0.22
371 11 11.9348 10.7341 1.63044 0.06
226 11 11.5597 14.0555 2.95965 0.06
737 26 14.8488 13.9909 3.87151 -0.39
228 11 10.5441 13.052 1.88975 0.06
33 11 11.0262 10.5441 5.35561 0.06
460 19 16.1757 12.7112 0.188725 -0.35
467 11 14.8753 14.2763 20.697 0.06
31 11 11.5884 12.2354 4.94384 0.06
462 1 15.805 14.116 0.146351 0.22
466 11 16.5994 14.7518 -0.294367 0.06
266 20 20.2464 12.1847 5.27639 -0.5
272 11 18.3776 12.1442 1.82783 0.06
273 11 16.8571 12.4126 2.71759 0.06
271 11 18.1938 13.6397 2.80802 0.06
269 1 17.9633 12.5302 2.75075 0.22
267 19 18.4741 11.7349 3.78552 -0.35
265 9 19.0877 12.4316 4.91364 0.52
490 11 0.880731 15.6137 1.78078 0.06
419 11 19.9946 17.1478 19.1661 0.06
486 1 1.61304 15.8558 2.60678 0.22
491 11 2.58049 16.1165 2.13663 0.06
492 11 1.77558 14.9394 3.2165 0.06
484 19 1.09107 16.9436 3.35444 -0.35
481 9 1.17837 18.1637 2.52839 0.52
482 20 1.09843 18.1312 1.30694 -0.5
483 19 1.66437 19.3141 3.26189 -0.35
487 11 3.45956 18.3376 3.95555 0.06
485 1 3.01853 19.2797 3.61048 0.22
431 11 5.47351 18.0936 -0.170768 0.06
295 11 20.1316 18.9855 4.68657 0.06
296 11 19.9983 17.3053 4.19483 0.06
768 26 5.31718 15.24 1.47284 -0.39
770 26 4.98128 17.1785 2.33932 -0.39
766 26 5.36224 15.441 3.62066 -0.39
764 27 6.15289 16.1318 2.46781 1.34
765 26 6.89928 16.7681 1.22904 -0.39
769 26 7.32484 15.1286 2.60129 -0.39
429 11 9.13106 -0.369976 19.2073 0.06
767 26 6.96998 17.038 3.46544 -0.39
700 11 5.89011 19.8025 3.64136 0.06
225 11 9.6984 17.5926 0.619371 0.06
220 19 10.2773 14.9773 1.53562 -0.35
523 11 9.1932 16.8782 4.18069 0.06
223 11 9.4954 18.3826 2.21464 0.06
500 11 13.0943 19.6873 3.49591 0.06
501 11 11.429 19.8513 3.52644 0.06
736 27 14.6637 15.5224 4.34583 1.34
741 26 13.0834 15.3931 4.42278 -0.39
740 26 14.5754 16.0113 2.84208 -0.39
738 26 14.5041 16.9921 4.77257 -0.39
728 11 12.7655 18.967 0.0517012 0.06
217 9 11.2598 15.9455 1.42808 0.52
218 20 12.2047 15.7898 0.635523 -0.5
224 11 10.81 18.9299 1.07868 0.06
221 1 10.1969 18.0808 1.44207 0.22
219 19 11.0395 17.1517 2.13274 -0.35
727 11 13.4422 18.2387 1.46862 0.06
723 19 14.3499 19.837 0.340613 -0.35
726 2 13.683 18.5735 0.464493 0.22
742 26 16.2057 15.7583 4.32917 -0.39
417 11 16.8489 16.958 1.63006 0.06
409 9 19.243 16.8263 1.16216 0.52
410 20 19.505 15.6519 1.49302 -0.5
413 1 17.3526 17.8334 2.04506 0.22
415 11 16.8046 17.9671 2.9554 0.06
416 11 17.2333 18.7292 1.48073 0.06
411 19 18.7006 17.6426 2.21785 -0.35
293 1 19.8486 18.0162 4.97109 0.22
297 11 18.7744 18.0073 5.26702 0.06
412 19 19.1306 17.1405 -0.222212 -0.35
21 11 19.8913 19.5481 0.501507 0.06
689 11 0.389074 5.38049 5.61347 0.06
78 1 1.23514 1.13109 5.82982 0.22
84 11 0.692783 0.942988 6.75796 0.06
83 11 1.62896 2.13479 5.96738 0.06
82 11 2.04418 0.434268 5.86 0.06
510 1 -0.126792 3.39678 8.9278 0.22
506 20 2.35781 1.49825 8.69826 -0.5
508 19 1.09066 3.28501 8.20105 -0.35
505 9 2.05039 2.60916 9.02007 0.52
188 11 5.35404 -0.62903 7.13093 0.06
681 9 3.1307 4.62487 5.37568 0.52
682 20 3.63185 3.5406 5.37404 -0.5
187 11 4.84695 0.951429 7.40234 0.06
513 11 4.12237 3.79681 8.60462 0.06
515 11 -0.555266 2.44686 9.26663 0.06
677 11 2.66212 -0.133625 10.529 0.06
503 11 9.08613 0.482424 6.49098 0.06
498 1 10.0034 0.977533 6.07986 0.22
185 1 5.16818 0.116461 7.93607 0.22
189 11 4.4394 -0.330662 8.66866 0.06
183 19 6.47023 0.392995 8.59512 -0.35
181 9 7.13056 1.63541 8.32671 0.52
184 19 8.53427 1.60426 8.33419 -0.35
504 11 10.7955 0.808078 6.82197 0.06
259 11 9.35356 4.4609 8.20442 0.06
257 1 9.18009 4.76356 9.22703 0.22
260 11 8.32653 4.24866 9.65734 0.06
186 1 9.07474 0.968983 9.50479 0.22
502 11 9.8196 2.038 5.97951 0.06
496 19 10.158 0.410059 4.82358 -0.35
495 19 12.4085 0.302438 4.21371 -0.35
255 19 10.3321 4.68858 10.0607 -0.35
547 11 13.3809 3.44659 6.41862 0.06
546 2 14.4485 3.34523 6.32347 0.22
548 11 14.7199 2.24312 6.31664 0.06
190 11 10.1939 1.25116 9.48612 0.06
253 9 11.5618 4.27162 9.45164 0.52
256 19 11.8891 2.86645 9.47456 -0.35
334 11 17.711 0.884945 4.59253 0.06
330 1 18.398 0.735645 5.39163 0.22
336 11 18.871 -0.243963 5.32108 0.06
335 11 19.1265 1.52822 5.17936 0.06
328 19 17.538 0.872775 6.54682 -0.35
325 9 18.0795 0.986677 7.82838 0.52
326 20 19.2835 0.888252 7.96948 -0.5
327 19 17.2838 1.73034 8.69719 -0.35
514 11 20.3241 3.93448 8.35493 0.06
543 19 14.837 3.97068 5.16801 -0.35
329 1 16.9424 1.07036 9.92307 0.22
545 2 15.283 4.06612 7.44887 0.22
550 11 15.953 3.4411 7.97533 0.06
333 11 16.5613 0.0572751 9.70376 0.06
685 2 1.31206 5.91984 5.45251 0.22
688 11 1.81036 7.18671 7.15192 0.06
686 2 2.1339 6.22425 6.69005 0.22
687 11 1.98025 5.44317 7.42736 0.06
683 19 3.30311 5.44538 6.54446 -0.35
157 9 -0.210969 8.00732 9.29723 0.52
158 20 -0.148352 6.84088 9.0125 -0.5
3 19 2.78306 9.376 5.55229 -0.35
165 11 0.758737 10.1889 8.26817 0.06
7 11 4.54775 8.61032 4.59335 0.06
5 1 3.53847 8.94553 4.41704 0.22
2 20 4.17687 9.47806 7.43496 -0.5
441 11 6.09313 6.03585 7.04161 0.06
437 1 5.8775 6.71528 7.86635 0.22
440 11 6.52782 7.59718 7.6834 0.06
439 11 4.80182 6.95656 7.73993 0.06
447 19 9.85466 4.57672 4.67857 -0.35
70 11 7.78491 10.3304 7.09838 0.06
66 1 8.27119 10.1226 8.11327 0.22
435 19 6.27299 6.04505 9.01135 -0.35
433 9 6.03012 6.83361 10.1513 0.52
71 11 8.06473 9.07463 8.38694 0.06
261 11 8.90866 5.85639 9.10186 0.06
72 11 7.73586 10.8281 8.7486 0.06
434 20 6.79622 7.72082 10.5023 -0.5
254 20 11.9177 5.00622 8.56389 -0.5
456 11 11.9429 6.61135 6.59539 0.06
454 11 12.1131 7.59597 5.2452 0.06
549 11 14.6294 4.44377 8.25217 0.06
448 19 12.0251 5.62944 4.86267 -0.35
455 11 10.5834 6.90032 5.66005 0.06
450 1 11.6457 6.79269 5.59913 0.22
61 9 10.1405 10.3132 9.42801 0.52
64 19 9.64135 10.4103 8.08812 -0.35
63 19 11.1142 9.37839 9.67867 -0.35
470 20 14.3838 8.87952 6.69011 -0.5
68 11 12.4432 10.9889 9.56218 0.06
159 19 20.3201 8.84634 8.32395 -0.35
542 20 16.9411 4.10667 4.64551 -0.5
541 9 16.0551 4.44941 5.40073 0.52
544 19 16.1662 4.87828 6.71433 -0.35
474 1 16.961 8.1796 6.38004 0.22
479 11 18.0076 7.92267 6.63688 0.06
472 19 16.5764 9.41302 6.93973 -0.35
287 11 17.0043 7.03583 8.7465 0.06
478 11 16.9461 8.2909 5.29921 0.06
469 9 15.2164 9.74683 6.6168 0.52
286 11 16.185 8.47821 9.43225 0.06
288 11 15.1916 6.96996 9.05837 0.06
282 1 16.1835 7.35871 9.43877 0.22
163 11 0.666489 8.91438 6.94264 0.06
161 1 0.0745219 9.58968 7.55908 0.22
1 9 3.58335 10.0779 6.5033 0.52
630 11 2.33136 13.8289 6.92628 0.06
11 11 5.01403 12.1425 7.76064 0.06
4 19 3.50244 11.4816 6.55992 -0.35
6 1 4.76902 12.2011 6.72646 0.22
10 11 4.78357 13.2366 6.3912 0.06
164 11 20.6995 10.2409 6.82052 0.06
93 11 3.1341 9.68366 9.59131 0.06
12 11 5.59893 11.6262 6.27611 0.06
387 19 6.97168 13.9084 9.19699 -0.35
388 19 8.4593 15.4033 7.99227 -0.35
385 9 7.40062 14.4777 7.97535 0.52
389 1 6.30404 14.8514 10.0785 0.22
392 11 5.29104 14.9598 9.83082 0.06
386 20 7.14178 14.081 6.83591 -0.5
390 1 9.71946 14.7278 7.97423 0.22
395 11 10.3672 15.2057 8.65378 0.06
32 11 10.9751 11.8008 6.57 0.06
27 19 9.46807 11.9456 5.09029 -0.35
29 1 10.806 11.6038 5.4605 0.22
475 11 15.9639 12.155 5.9964 0.06
394 11 10.2772 14.8455 7.04908 0.06
69 11 13.079 9.52825 10.1031 0.06
396 11 9.61952 13.6924 8.25478 0.06
65 1 12.3891 9.91395 9.40524 0.22
67 11 12.7799 9.67968 8.4537 0.06
42 1 14.4991 14.9561 9.04596 0.22
274 11 18.6388 15.0133 4.88071 0.06
276 11 19.7453 14.4856 6.2323 0.06
471 19 14.8014 10.8999 7.23582 -0.35
268 19 18.2241 13.1241 5.74692 -0.35
473 1 15.0183 12.0414 6.40921 0.22
477 11 14.6887 12.9471 6.95383 0.06
476 11 14.3172 12.1001 5.55883 0.06
135 19 19.3035 12.2001 8.09162 -0.35
133 9 20.2371 12.8917 8.93893 0.52
136 19 20.4279 14.2841 8.76685 -0.35
137 1 18.1674 11.6183 8.77633 0.22
141 11 18.3715 10.701 9.29765 0.06
270 1 18.7034 14.4821 5.85454 0.22
275 11 18.0948 14.9593 6.61206 0.06
40 19 14.2929 13.6134 9.48719 -0.35
140 11 17.3412 11.4044 8.14887 0.06
627 11 2.39895 16.5402 5.71357 0.06
629 11 0.943598 14.9064 6.37627 0.06
628 11 3.61711 15.3148 5.94751 0.06
291 19 -0.59958 17.3745 5.99387 -0.35
626 2 2.82373 15.845 6.4553 0.22
625 2 1.82455 14.7776 7.00069 0.22
624 19 1.66347 15.1917 8.37069 -0.35
622 20 2.68663 16.8927 9.63313 -0.5
621 9 2.61451 16.2377 8.57468 0.52
623 19 3.4899 16.5011 7.53181 -0.35
289 9 -0.0712418 18.3171 6.93254 0.52
290 20 0.972494 18.8241 6.70988 -0.5
393 11 6.26262 14.4399 11.0926 0.06
391 11 6.66004 15.8671 10.0738 0.06
528 11 5.4541 17.6576 6.46273 0.06
526 11 6.92399 16.9778 5.8158 0.06
520 19 7.19911 18.9942 6.40665 -0.35
527 11 6.86984 17.4501 7.57888 0.06
522 1 6.62275 17.7303 6.5406 0.22
519 19 9.33675 18.6421 5.26484 -0.35
521 1 9.7241 17.3433 5.00141 0.22
517 9 8.63518 18.9232 6.49347 0.52
518 20 9.20012 19.4233 7.4736 -0.5
525 11 9.81116 16.5855 5.79291 0.06
192 11 9.15109 -0.130955 9.4466 0.06
739 26 14.7347 15.0323 5.81597 -0.39
524 11 10.6615 17.5625 4.55222 0.06
537 11 12.202 18.8492 6.03437 0.06
535 11 12.9246 17.551 7.00178 0.06
536 11 11.5555 18.4591 7.67249 0.06
533 1 12.4641 18.5562 7.08437 0.22
531 19 13.2203 19.6474 7.60132 -0.35
46 11 13.5992 15.4074 8.60286 0.06
529 9 14.4927 19.1359 8.072 0.52
530 20 14.4797 18.334 9.04105 -0.5
144 11 19.2664 14.8431 10.379 0.06
300 11 0.567312 19.8011 8.92549 0.06
299 11 -0.251675 18.5956 9.67721 0.06
538 11 16.1435 18.1414 6.26301 0.06
539 11 17.4944 19.2104 6.83917 0.06
532 19 15.6865 19.7257 7.60506 -0.35
534 1 16.5687 18.712 7.13545 0.22
540 11 16.9349 18.1036 7.95072 0.06
292 19 20.2142 19.0077 7.74877 -0.35
138 1 19.4148 15.1919 9.31993 0.22
298 11 20.1198 20.0704 9.59482 0.06
294 1 -0.437403 19.4022 8.98769 0.22
142 11 19.8085 16.1543 9.29129 0.06
507 19 2.68106 3.30518 10.0835 -0.35
516 11 0.0275796 3.96834 9.87773 0.06
509 1 3.74775 4.18235 9.55653 0.22
512 11 4.58373 4.33309 10.2338 0.06
678 11 3.92467 -0.620896 11.5653 0.06
676 2 2.83656 -0.582803 11.517 0.22
673 19 2.17087 0.205355 12.4527 -0.35
321 11 2.75107 3.0864 13.3861 0.06
317 1 2.89003 4.19115 13.3545 0.22
316 19 5.51503 2.39524 13.1008 -0.35
319 11 2.96327 4.6882 14.3501 0.06
146 20 0.149303 2.4145 14.9033 -0.5
313 9 5.3201 3.81074 13.1237 0.52
315 19 4.09711 4.48237 12.6985 -0.35
320 11 2.03475 4.57626 12.8131 0.06
323 11 4.80185 1.74106 11.3541 0.06
318 1 5.74506 1.86633 11.8442 0.22
322 11 6.23618 0.911309 11.8092 0.06
182 20 6.51524 2.63356 8.56852 -0.5
324 11 6.24699 2.52171 11.1694 0.06
191 11 8.67736 1.36099 10.4837 0.06
744 26 7.34519 1.81604 15.4739 -0.39
264 11 13.4476 3.16467 10.7471 0.06
263 11 12.7854 1.54856 10.8 0.06
258 1 12.4537 2.62437 10.7001 0.22
262 11 11.8299 2.95435 11.5428 0.06
608 11 13.1054 3.35249 13.8116 0.06
603 19 14.8112 2.22803 12.7101 -0.35
604 19 15.5976 1.5817 14.8752 -0.35
170 20 12.1612 1.05739 13.3558 -0.5
331 11 17.7969 1.01618 10.603 0.06
332 11 16.1891 1.70234 10.3955 0.06
601 9 15.6426 1.3361 13.4675 0.52
602 20 16.5692 0.74588 12.9269 -0.5
283 11 18.5645 3.22402 10.6889 0.06
153 11 19.2505 -0.170949 13.5394 0.06
149 1 19.3867 -0.414011 14.6421 0.22
152 11 18.4157 -0.186852 15.1154 0.06
511 11 3.19399 5.1512 9.45207 0.06
641 9 0.869974 7.08543 15.1505 0.52
649 11 3.92867 7.52826 15.5696 0.06
643 19 1.07679 8.34155 14.51 -0.35
647 11 2.63968 8.72194 13.8217 0.06
646 2 2.33672 8.80696 14.886 0.22
438 1 4.0619 7.66318 11.4009 0.22
443 11 3.39017 7.34676 12.2085 0.06
442 11 3.43502 7.94786 10.5336 0.06
167 11 19.2997 7.82055 11.6944 0.06
402 1 8.52586 5.73906 12.7418 0.22
408 11 8.686 4.73528 12.3127 0.06
314 20 5.89712 4.37045 14.0502 -0.5
400 19 9.31514 5.79801 13.8717 -0.35
444 11 4.675 8.46335 11.8019 0.06
436 19 4.91225 6.58781 10.9567 -0.35
407 11 8.89192 6.40686 11.9457 0.06
406 11 7.49898 5.92008 12.9031 0.06
205 9 8.58054 9.23678 15.2173 0.52
208 19 8.39238 8.80335 13.9372 -0.35
398 20 10.9132 7.42022 14.1832 -0.5
397 9 10.5866 6.36106 13.6343 0.52
399 19 11.5036 5.81914 12.687 -0.35
404 11 12.7343 6.38652 11.128 0.06
401 1 12.1813 6.80308 11.9586 0.22
405 11 11.5054 7.56377 11.5156 0.06
403 11 12.9213 7.2222 12.6022 0.06
102 1 11.8466 10.6867 13.3084 0.22
108 11 11.0778 10.6843 12.553 0.06
106 11 11.443 10.6313 14.3338 0.06
160 19 -0.0251865 8.30861 10.656 -0.35
162 1 19.9822 8.63788 11.4072 0.22
166 11 19.3547 9.42916 11.0014 0.06
285 11 18.0453 3.97368 12.1356 0.06
281 1 18.2166 4.15715 11.0681 0.22
284 11 19.0983 4.82154 10.9326 0.06
279 19 17.008 4.56456 10.3686 -0.35
98 20 13.0489 8.88825 15.144 -0.5
580 11 17.9814 8.13138 16.7064 0.06
642 20 0.442124 6.10297 14.5318 -0.5
168 11 20.2503 8.92408 12.4252 0.06
280 19 16.5179 6.93526 10.7399 -0.35
277 9 16.1934 5.54966 10.9451 0.52
278 20 15.1155 5.16977 11.4186 -0.5
579 11 16.954 8.65895 15.2942 0.06
575 2 17.0364 8.03265 16.1861 0.22
89 1 3.16402 10.6576 10.008 0.22
115 11 0.985925 10.4225 13.0718 0.06
116 11 -0.5568 11.2024 13.0513 0.06
113 1 0.462208 11.3314 12.8278 0.22
117 11 0.498014 11.5135 11.7785 0.06
111 19 1.09102 12.4676 13.4512 -0.35
109 9 0.271756 13.5591 13.2264 0.52
95 11 4.04651 13.1595 13.9829 0.06
96 11 5.53733 13.2229 13.0988 0.06
112 19 0.488655 14.3738 12.0768 -0.35
87 19 3.07931 10.6103 11.4047 -0.35
92 11 4.07256 11.0949 9.62344 0.06
216 11 8.42569 9.82444 12.1012 0.06
86 20 4.71353 10.8669 12.8456 -0.5
91 11 2.34097 11.235 9.60827 0.06
210 1 7.88799 9.78762 13.034 0.22
215 11 7.97853 10.8036 13.4162 0.06
85 9 3.98991 11.4226 12.0522 0.52
88 19 3.89885 12.8449 11.8892 -0.35
637 11 9.27487 14.7382 11.4831 0.06
214 11 6.85641 9.56926 12.7992 0.06
90 1 4.45158 13.4794 13.0484 0.22
763 26 8.72353 14.6595 14.16 -0.39
94 11 4.27246 14.5577 12.9112 0.06
760 26 8.923 12.7475 15.2436 -0.39
47 11 14.6745 15.5937 9.90644 0.06
638 11 10.3244 13.6689 10.5603 0.06
636 2 10.3169 14.4532 11.3084 0.22
62 20 9.88507 11.2167 10.2493 -0.5
639 11 10.2203 13.1021 12.9961 0.06
635 2 10.7731 13.948 12.6809 0.22
640 11 11.7696 13.4634 12.5596 0.06
107 11 12.3316 11.6791 13.2656 0.06
634 19 11.6616 14.9936 13.0723 -0.35
100 19 12.7626 9.60089 12.9566 -0.35
97 9 13.5603 9.31092 14.0922 0.52
134 20 -0.0344621 12.1565 9.47037 -0.5
103 11 16.6309 10.6072 13.7496 0.06
104 11 15.0779 11.3486 13.313 0.06
38 20 15.1358 12.0722 11.0368 -0.5
139 11 17.7051 12.2711 9.51211 0.06
37 9 15.2529 13.2112 10.5092 0.52
101 1 15.5412 10.6517 13.9892 0.22
39 19 16.4478 13.9759 10.655 -0.35
43 11 17.5296 14.7535 12.1936 0.06
41 1 16.9071 13.8635 12.0313 0.22
44 11 16.152 14.1414 12.7129 0.06
99 19 14.9353 9.35086 13.8321 -0.35
45 11 17.3625 12.9472 12.3416 0.06
110 20 20.3616 13.5972 13.8018 -0.5
710 11 18.6137 15.6002 15.6974 0.06
680 11 3.17886 18.4474 11.5591 0.06
118 11 1.41748 15.7736 13.3758 0.06
671 9 1.50507 20.5216 13.2851 0.52
672 20 1.705 -0.621995 14.4534 -0.5
675 2 2.39525 19.2112 11.7075 0.22
679 11 1.77459 18.8958 10.8408 0.06
674 19 1.3197 19.2638 12.6654 -0.35
120 11 0.100841 16.4009 12.4356 0.06
119 11 1.62625 16.161 11.7504 0.06
114 1 0.914207 15.686 12.4595 0.22
613 19 4.97993 19.5341 14.2841 -0.35
616 2 4.71894 18.1841 14.0062 0.22
618 11 5.42595 17.8991 13.1946 0.06
652 20 6.21505 18.3341 10.7066 -0.5
651 9 7.3303 18.567 11.1949 0.52
654 19 8.25223 17.4764 11.208 -0.35
653 19 7.41606 19.4281 12.338 -0.35
657 11 9.07965 19.3709 13.332 0.06
658 11 7.95463 18.3943 14.225 0.06
655 2 8.72511 17.454 12.5042 0.22
656 2 8.21845 18.6823 13.1962 0.22
660 11 8.13777 16.6069 12.7369 0.06
659 11 9.63865 17.1313 13.0112 0.06
611 9 5.60974 19.5911 15.5275 0.52
614 19 6.02418 18.2661 15.8828 -0.35
615 2 5.11121 17.4632 15.1938 0.22
620 11 5.90338 16.7988 14.8544 0.06
179 11 11.6481 19.0011 10.654 0.06
180 11 12.1788 20.5871 10.4581 0.06
48 11 15.3339 15.0065 8.33143 0.06
631 9 11.9252 15.7497 11.897 0.52
632 20 12.9162 16.4417 11.8136 -0.5
633 19 11.1388 15.4788 10.7926 -0.35
178 11 13.1451 19.5703 11.4595 0.06
174 1 12.1147 19.8328 11.2048 0.22
172 19 11.3649 20.1895 12.393 -0.35
169 9 11.9855 -0.158668 13.4373 0.52
173 1 13.0444 19.8416 15.1553 0.22
171 19 11.8356 20.4203 14.7189 -0.35
176 11 13.8399 20.6013 15.2623 0.06
568 11 15.7559 16.975 12.6931 0.06
570 11 16.1745 19.1199 13.5238 0.06
569 11 16.3559 19.847 11.9857 0.06
143 11 18.4993 15.1709 8.80278 0.06
567 11 15.0042 18.0112 11.644 0.06
565 2 16.6809 19.0047 12.5732 0.22
562 20 19.2103 17.3647 11.2713 -0.5
564 19 17.91 19.0602 11.8854 -0.35
561 9 18.1023 17.8102 11.4038 0.52
563 19 16.9504 17.0236 11.2397 -0.35
566 2 16.0049 17.7434 11.9496 0.22
704 19 17.9164 17.3247 15.8321 -0.35
151 11 19.5401 19.694 14.8701 0.06
155 11 19.9856 4.06237 16.3106 0.06
244 19 3.17779 2.93551 17.0285 -0.35
242 20 2.30338 0.8042 16.7758 -0.5
241 9 2.9095 1.60888 17.4438 0.52
245 1 2.91104 0.482229 19.4558 0.22
243 19 3.73154 1.07563 18.429 -0.35
246 1 2.85748 4.01 17.8754 0.22
251 11 2.70873 4.89693 17.2309 0.06
252 11 1.92757 3.87584 18.4651 0.06
250 11 3.74077 4.23393 18.4593 0.06
247 11 1.83308 0.713716 19.4019 0.06
14 20 19.4874 1.87816 20.1711 -0.5
154 11 18.4863 3.34482 17.0465 0.06
428 11 8.82581 -0.208842 -0.283993 0.06
733 31 5.33288 0.392772 17.6032 1
749 26 5.87586 3.11274 16.5442 -0.39
743 27 7.34393 2.58923 16.7978 1.34
747 26 6.78693 1.37108 17.5569 -0.39
745 26 7.27242 3.36736 18.1772 -0.39
746 26 7.88395 3.84627 16.0797 -0.39
748 26 8.80295 2.06009 17.1166 -0.39
49 9 11.4926 1.48108 20.4119 0.52
51 19 12.5114 1.35973 19.4459 -0.35
56 11 11.6127 -0.342571 18.4848 0.06
607 11 14.54 3.80965 13.1906 0.06
606 2 14.1304 2.93825 13.6668 0.22
605 2 14.797 2.69364 15.0067 0.22
610 11 14.1903 2.08872 15.626 0.06
57 11 11.771 1.15097 17.5881 0.06
53 1 12.1681 0.547654 18.3444 0.22
560 11 12.0348 3.97839 17.897 0.06
559 11 13.7584 3.67894 17.9862 0.06
609 11 14.7977 3.72628 15.4879 0.06
55 11 13.1539 0.261337 17.9756 0.06
722 20 14.7946 20.2709 19.3527 -0.5
15 19 -0.467513 0.00212448 20.4919 -0.35
147 19 20.374 0.3573 15.3672 -0.35
145 9 20.3357 1.78294 15.2462 0.52
22 11 17.7934 20.2005 17.7865 0.06
16 19 18.4848 -0.133293 19.592 -0.35
13 9 19.5983 0.660459 20.0309 0.52
18 1 18.5446 -0.331583 18.187 0.22
23 11 18.3134 0.641543 17.7054 0.06
148 19 19.1215 2.42331 15.3313 -0.35
156 11 18.3445 4.36609 15.6514 0.06
150 1 19.0077 3.64153 16.148 0.22
24 11 19.4834 20.5432 17.7991 0.06
644 19 1.78157 6.9292 16.1501 -0.35
645 2 2.91645 7.77253 15.8429 0.22
648 11 2.53488 9.81575 15.2456 0.06
650 11 3.12972 8.32638 16.7505 0.06
356 11 1.69935 10.5303 20.1436 0.06
353 1 1.32597 10.0672 19.2582 0.22
201 11 4.53819 8.3579 19.5311 0.06
207 19 7.45109 9.1306 16.0454 -0.35
734 31 6.27529 4.72173 15.5879 1
197 1 5.57706 8.40446 19.2142 0.22
200 11 5.91168 9.47363 19.1642 0.06
195 19 5.60712 7.95021 17.853 -0.35
206 20 9.68243 9.16527 15.7399 -0.5
193 9 6.12979 6.66834 17.5933 0.52
194 20 5.82018 5.99043 16.5845 -0.5
196 19 7.11802 6.25161 18.5088 -0.35
202 11 8.12077 7.96931 18.2967 0.06
203 11 8.97315 6.70121 19.2264 0.06
198 1 8.3567 6.91137 18.3733 0.22
204 11 8.88161 6.65296 17.4566 0.06
199 11 6.03365 8.03688 20.1271 0.06
557 11 13.8369 4.85672 20.0386 0.06
555 2 13.0189 4.45278 18.0175 0.22
732 31 11.5865 8.20224 15.5888 1
556 2 13.0781 5.2037 19.3472 0.22
554 19 12.4616 5.33494 17.0352 -0.35
551 9 12.2287 6.54279 17.686 0.52
553 19 12.5046 6.49571 19.064 -0.35
552 20 11.4436 7.42567 17.2216 -0.5
464 11 14.2069 10.1332 20.0363 0.06
599 11 18.9214 5.17403 19.1925 0.06
595 2 19.3892 6.12279 19.2253 0.22
594 19 -0.554701 6.23683 19.9769 -0.35
596 2 18.5655 7.28311 19.7108 0.22
574 19 17.1317 6.59214 16.3474 -0.35
600 11 19.8278 6.27074 18.2487 0.06
577 11 15.0717 8.96911 16.5159 0.06
571 9 16.0049 6.30205 17.149 0.52
572 20 16.1142 5.40867 17.9678 -0.5
573 19 15.0833 7.37213 17.2839 -0.35
576 2 15.9216 8.52217 17.1006 0.22
578 11 16.295 9.36374 17.698 0.06
598 11 18.0465 7.66584 18.9311 0.06
350 20 19.9626 10.1423 17.0921 -0.5
351 19 -0.108369 9.92274 19.1023 -0.35
355 11 1.83556 9.156 18.9387 0.06
382 11 3.26556 14.3878 17.8007 0.06
383 11 4.50218 15.0209 16.7797 0.06
378 1 3.80427 14.1802 16.8761 0.22
384 11 3.13246 14.2503 15.9956 0.06
376 19 4.4108 12.8631 16.8794 -0.35
373 9 4.51422 12.1931 18.1634 0.52
374 20 3.88263 11.2529 18.4478 -0.5
358 11 0.351807 12.4727 16.7739 0.06
379 11 5.93821 14.58 19.0411 0.06
213 11 6.99968 10.8809 17.0801 0.06
211 11 6.59821 10.956 15.1874 0.06
375 19 5.72246 12.4746 18.8786 -0.35
131 11 9.14855 13.4894 0.250861 0.06
209 1 6.69729 10.3914 16.1648 0.22
212 11 5.71237 10.007 16.3638 0.06
757 27 8.42023 14.2319 15.607 1.34
124 19 9.79494 11.5336 0.0692199 -0.35
126 1 8.83932 12.5572 -0.184173 0.22
132 11 8.62459 12.7417 19.9629 0.06
758 26 6.94028 14.0146 15.1313 -0.39
762 26 8.0395 13.908 17.1312 -0.39
759 26 9.86913 14.588 16.0934 -0.39
129 11 9.31759 12.1189 18.0932 0.06
236 11 8.57556 16.175 18.5327 0.06
584 19 13.1878 14.154 15.6702 -0.35
123 19 10.7991 11.1198 19.0835 -0.35
463 11 14.2006 10.8839 18.4802 0.06
121 9 10.8249 11.7207 20.3533 0.52
461 1 14.6135 10.9555 19.4761 0.22
465 11 14.0909 11.8317 19.7146 0.06
587 11 12.7461 14.8178 18.6983 0.06
122 20 11.9008 11.9516 -0.392735 -0.5
128 11 10.6285 11.5688 17.0857 0.06
125 1 10.3874 12.0443 18.0535 0.22
237 11 9.31592 15.0411 19.4077 0.06
127 11 10.9448 12.984 18.0677 0.06
586 2 13.4642 15.0172 17.887 0.22
583 19 13.6783 13.5832 17.8191 -0.35
581 9 13.544 13.1103 16.5476 0.52
582 20 13.3269 11.9559 16.2442 -0.5
468 11 15.6706 14.3297 1.28612 0.06
105 11 15.3631 10.9593 15.0082 0.06
349 9 -0.620808 10.7042 18.0624 0.52
352 19 20.5758 12.0401 18.4968 -0.35
459 19 16.022 11.1819 19.4808 -0.35
457 9 16.5335 12.4151 20.0229 0.52
359 11 19.8446 12.7651 16.6716 0.06
708 11 17.305 14.7371 17.5665 0.06
458 20 17.5759 12.8665 19.5414 -0.5
360 11 -0.562194 13.9541 17.5067 0.06
354 1 -0.54927 12.8887 17.379 0.22
420 11 -0.0728746 17.4976 -0.818747 0.06
617 11 3.6398 18.2143 13.7766 0.06
248 11 2.96547 20.5827 19.4533 0.06
426 1 5.12594 18.0446 19.9665 0.22
432 11 4.0509 17.959 19.8311 0.06
430 11 5.57513 17.1129 19.6361 0.06
731 31 1.72132 -0.578876 16.0673 1
753 26 0.479659 17.1285 17.4018 -0.39
756 26 1.76519 17.7329 15.8388 -0.39
750 27 1.68946 18.1703 17.3196 1.34
752 26 2.74841 17.0036 17.6063 -0.39
751 26 0.807709 19.4391 17.0572 -0.39
755 26 1.65555 18.4951 18.83 -0.39
754 26 2.80386 19.2262 17.0444 -0.39
427 11 8.42402 1.13347 19.8418 0.06
425 1 8.44075 0.00160839 19.9167 0.22
612 20 5.21606 20.437 16.3356 -0.5
619 11 4.37802 16.919 15.7409 0.06
424 19 5.52553 19.0979 19.1175 -0.35
421 9 6.88696 19.469 19.3219 0.52
423 19 7.15288 -0.348785 19.5038 -0.35
761 26 8.03405 15.7024 15.9206 -0.39
238 11 9.38836 19.3761 16.1342 0.06
422 20 7.72303 18.659 19.6093 -0.5
234 1 9.58749 18.4909 16.7164 0.22
239 11 9.7889 17.5657 16.1929 0.06
240 11 8.69618 18.4346 17.3055 0.06
235 11 9.08345 16.6505 20.1474 0.06
233 1 9.37508 16.1066 19.227 0.22
589 11 11.8771 15.8194 16.5922 0.06
585 2 12.8318 15.2945 16.547 0.22
590 11 13.4931 15.943 15.9401 0.06
175 11 13.527 19.0154 14.6273 0.06
588 11 13.9742 15.8952 18.3004 0.06
721 9 15.0555 19.5575 20.3157 0.52
177 11 12.8293 19.4791 16.1645 0.06
231 19 10.609 16.4752 18.6369 -0.35
232 19 10.7907 18.7073 17.4753 -0.35
229 9 10.7943 17.8925 18.6288 0.52
230 20 10.9843 18.5141 19.7122 -0.5
730 11 13.8019 17.1267 19.9517 0.06
725 2 14.4316 17.4653 -0.407912 0.22
724 19 15.3987 18.2181 20.1271 -0.35
414 1 20.258 16.8866 20.1803 0.22
702 20 15.719 17.706 15.5831 -0.5
709 11 19.5034 16.2571 16.9165 0.06
705 2 18.487 16.3252 16.5739 0.22
418 11 20.6145 15.862 20.0495 0.06
707 11 17.7452 16.1527 18.6906 0.06
706 2 17.4447 15.8173 17.6694 0.22
703 19 16.2984 16.4085 17.2989 -0.35
729 11 14.6704 16.5168 0.0603224 0.06
701 9 16.5918 17.2775 16.3114 0.52
ITEM: TIMESTEP
350
ITEM: NUMBER OF ATOMS
770
ITEM: BOX BOUNDS pp pp pp
-6.1958004712942127e-01 2.0619580047129524e+01
-6.1958004712942127e-01 2.0619580047129524e+01
-6.1958004712942127e-01 2.0619580047129524e+01
ITEM: ATOMS id type x y z c_charge
74 20 1.99422 0.94539 3.26951 -0.5
73 9 0.957983 1.36351 3.71069 0.52
75 19 0.0566226 2.02987 2.87051 -0.35
77 1 0.00287305 3.29107 3.34546 0.22
81 11 0.883219 3.84989 2.98731 0.06
684 19 2.0401 5.03838 4.57874 -0.35
76 19 0.391746 0.581252 4.76565 -0.35
309 11 4.14315 2.71825 1.25372 0.06
249 11 2.74812 1.07147 20.6313 0.06
308 11 2.5518 2.65903 1.39473 0.06
305 1 3.34219 3.35977 1.49704 0.22
79 11 20.3792 3.76832 2.86694 0.06
489 11 3.34553 20.2131 4.19678 0.06
488 11 3.69838 19.2547 2.73399 0.06
19 11 0.654022 -0.317032 1.02777 0.06
303 19 3.12248 4.37742 0.533865 -0.35
692 20 6.43362 1.45654 0.931047 -0.5
691 9 6.05087 0.875545 1.91785 0.52
694 19 6.05191 -0.579027 2.02236 -0.35
693 19 5.99828 1.5053 3.12178 -0.35
54 1 9.81994 2.84218 0.12912 0.22
60 11 9.76303 2.15601 1.02272 0.06
696 2 6.25792 0.430658 4.08274 0.22
453 11 9.18111 3.47027 2.79985 0.06
698 11 5.94596 0.137438 5.08506 0.06
695 2 6.63551 20.3861 3.21303 0.22
58 11 9.8222 3.81259 0.558126 0.06
59 11 8.95439 2.77533 20.7616 0.06
449 1 8.85178 4.03935 3.72738 0.22
451 11 8.42345 3.28869 4.44886 0.06
699 11 7.66133 20.0725 3.45534 0.06
697 11 7.13421 1.10074 4.23639 0.06
307 11 3.39939 3.68875 2.52454 0.06
52 19 11.1125 2.83901 -0.508448 -0.35
348 11 13.8068 2.42141 0.485138 0.06
50 20 11.4482 0.62913 -0.0148964 -0.5
342 1 14.0578 2.34686 1.53782 0.22
347 11 13.2111 2.51253 2.13525 0.06
338 20 13.7537 5.16971 1.52809 -0.5
337 9 14.8611 4.60794 1.53163 0.52
346 11 14.3931 1.30686 1.56586 0.06
340 19 15.0017 3.28949 2.03529 -0.35
339 19 15.8242 5.17149 0.659286 -0.35
493 9 11.2225 1.04995 4.07311 0.52
497 1 12.5931 20.2657 3.63847 0.22
494 20 11.1084 2.01183 3.33802 -0.5
499 11 12.6949 20.2367 2.57156 0.06
343 11 17.2295 4.70673 20.6031 0.06
345 11 16.7788 3.228 0.369993 0.06
341 1 16.8885 4.32214 0.331718 0.22
17 1 -0.283814 -0.47736 0.49282 0.22
20 11 20.1572 -0.190056 1.19817 0.06
80 11 -0.171473 3.50585 4.42318 0.06
690 11 1.48523 6.75165 4.73933 0.06
306 1 3.09508 7.44876 0.335611 0.22
311 11 3.74447 8.13403 0.832006 0.06
312 11 2.48102 7.98294 -0.36105 0.06
592 20 -0.0379632 7.65806 0.505306 -0.5
8 11 2.97759 8.93051 3.65666 0.06
9 11 3.83463 10.3604 4.10936 0.06
301 9 4.08639 5.44334 0.46017 0.52
304 19 3.85543 6.52087 -0.342872 -0.35
310 11 2.30163 6.94964 1.02959 0.06
452 11 8.12693 4.6813 3.39521 0.06
302 20 5.05136 5.3671 1.18305 -0.5
714 19 8.91006 7.32761 3.50743 -0.35
716 2 6.79925 7.81256 2.56124 0.22
713 19 6.62881 7.7363 3.9577 -0.35
711 9 7.95808 7.5501 4.48707 0.52
719 11 8.47091 6.88433 1.5726 0.06
720 11 8.64365 8.61213 1.84818 0.06
715 2 8.32135 7.6793 2.2464 0.22
717 11 6.34439 6.9732 2.12056 0.06
712 20 8.28319 7.86968 5.64429 -0.5
446 20 11.0032 5.46783 2.88902 -0.5
363 19 14.5526 8.99579 1.14939 -0.35
368 11 16.5024 9.81537 0.552485 0.06
735 31 12.6127 6.03754 2.32668 1
361 9 13.9445 8.70191 2.41841 0.52
362 20 13.3538 7.60507 2.55839 -0.5
364 19 13.5551 9.85757 3.14609 -0.35
365 1 15.9544 9.18721 1.27592 0.22
369 11 16.2835 9.69745 2.1835 0.06
445 9 10.9567 5.20063 4.04366 0.52
558 11 12.7612 4.59918 20.2351 0.06
591 9 20.369 7.1167 -0.228709 0.52
344 11 17.729 4.58102 0.913591 0.06
597 11 17.7119 7.04012 18.9995 0.06
593 19 19.1305 7.81748 -0.494609 -0.35
367 11 16.3823 8.15855 1.12336 0.06
480 11 16.3382 7.34335 6.53478 0.06
670 11 0.22922 10.2968 0.658585 0.06
669 11 0.329654 10.6142 2.41462 0.06
665 2 0.577032 10.9734 1.40304 0.22
664 19 1.93392 10.8966 1.85403 -0.35
661 9 2.41376 12.193 1.58595 0.52
663 19 1.52319 13.1552 1.0827 -0.35
666 2 0.302553 12.3846 1.00316 0.22
668 11 0.0539519 12.4552 -0.0804452 0.06
667 11 20.7663 12.7993 1.6416 0.06
662 20 3.58266 12.5308 1.75987 -0.5
357 11 1.59785 10.1062 17.8643 0.06
380 11 4.50338 14.2335 19.9379 0.06
381 11 6.06386 13.8372 -0.539909 0.06
377 1 5.51463 13.9267 19.7353 0.22
718 11 6.31532 8.63577 1.9964 0.06
36 11 7.16742 12.5928 2.39154 0.06
26 20 9.4376 11.0286 3.04896 -0.5
25 9 8.78239 11.1842 4.09869 0.52
227 11 10.3121 14.9222 3.39477 0.06
222 1 10.5902 14.3938 2.48842 0.22
30 1 6.90838 12.4452 3.46537 0.22
34 11 5.78337 12.6438 3.4558 0.06
28 19 7.39242 11.1876 4.00387 -0.35
35 11 7.30528 13.2783 4.1011 0.06
130 11 7.82752 12.3251 0.323745 0.06
372 11 12.1227 11.3625 2.99997 0.06
370 11 13.3627 11.3121 1.59765 0.06
366 1 12.7145 10.7062 2.31858 0.22
371 11 11.9615 10.1425 1.76833 0.06
226 11 11.652 14.2265 2.52247 0.06
737 26 14.853 14.098 3.91807 -0.39
228 11 10.0953 13.4297 2.41978 0.06
33 11 11.1097 10.7015 4.8056 0.06
460 19 16.4884 12.8802 0.0985655 -0.35
467 11 14.983 14.2494 0.00286065 0.06
31 11 11.2444 12.5425 4.99747 0.06
462 1 15.9948 14.2141 0.279668 0.22
466 11 16.4754 14.8533 -0.454827 0.06
266 20 20.1708 12.2775 5.08715 -0.5
272 11 18.03 11.723 1.75324 0.06
273 11 17.0041 12.6694 2.88646 0.06
271 11 18.6328 13.1599 2.56612 0.06
269 1 18.0046 12.3144 2.68601 0.22
267 19 18.4467 11.487 3.79919 -0.35
265 9 18.9582 12.2324 4.9011 0.52
490 11 0.798006 15.5448 1.86269 0.06
419 11 20.3025 17.113 19.286 0.06
486 1 1.56666 15.7551 2.57782 0.22
491 11 2.52843 15.8406 2.06594 0.06
492 11 1.69189 14.9047 3.23625 0.06
484 19 1.19815 16.9027 3.32213 -0.35
481 9 1.49444 18.0831 2.60273 0.52
482 20 1.25731 18.2034 1.37166 -0.5
483 19 1.63402 19.1826 3.40658 -0.35
487 11 3.4056 18.4572 4.15715 0.06
485 1 3.06123 19.3181 3.61706 0.22
431 11 4.81395 18.4194 -0.102585 0.06
295 11 20.3282 18.3881 4.24449 0.06
296 11 19.9764 16.5788 4.2164 0.06
768 26 5.38315 14.9379 1.45569 -0.39
770 26 4.88161 16.9864 2.20705 -0.39
766 26 5.69929 15.4474 3.57468 -0.39
764 27 6.12889 16.0821 2.23335 1.34
765 26 6.62514 16.7228 0.91358 -0.39
769 26 7.37371 15.1634 2.2835 -0.39
429 11 9.4971 20.1947 19.6892 0.06
767 26 6.82783 17.2298 3.01476 -0.39
700 11 6.05938 19.5479 3.59181 0.06
225 11 9.42051 17.7187 0.797188 0.06
220 19 10.2513 15.2588 1.38996 -0.35
523 11 9.32504 16.6221 4.68789 0.06
223 11 9.56631 18.5109 2.38229 0.06
500 11 13.5406 19.8599 3.95543 0.06
501 11 11.8232 19.5158 3.95579 0.06
736 27 14.6778 15.5797 4.39384 1.34
741 26 13.1114 15.3727 4.42577 -0.39
740 26 14.4968 15.9787 2.88012 -0.39
738 26 14.4914 17.1017 4.80174 -0.39
728 11 12.845 19.0892 0.250158 0.06
217 9 11.295 16.1832 1.22644 0.52
218 20 12.3048 15.7796 0.708139 -0.5
224 11 10.4597 19.0924 0.974621 0.06
221 1 10.091 18.2331 1.47996 0.22
219 19 11.2387 17.4483 1.8866 -0.35
727 11 13.9159 18.3855 1.4345 0.06
723 19 14.432 20.0077 0.14182 -0.35
726 2 13.8891 18.7892 0.409731 0.22
742 26 16.2143 15.8207 4.19905 -0.39
417 11 16.6399 17.3185 1.48383 0.06
409 9 19.1196 16.7637 1.03746 0.52
410 20 19.2689 15.5855 1.21515 -0.5
413 1 17.3587 18.0441 1.84335 0.22
415 11 16.7929 18.2915 2.75915 0.06
416 11 17.2582 18.9973 1.26564 0.06
411 19 18.709 17.6573 2.08255 -0.35
293 1 19.8739 17.509 4.81641 0.22
297 11 18.8343 17.791 4.96734 0.06
412 19 19.2813 17.371 -0.204664 -0.35
21 11 20.7788 19.7357 0.298168 0.06
689 11 0.314293 6.12395 5.76323 0.06
78 1 0.904341 1.03334 5.99354 0.22
84 11 0.368499 0.608074 6.83374 0.06
83 11 0.730602 2.10297 6.06608 0.06
82 11 1.97364 0.822556 6.16439 0.06
510 1 -0.181943 3.38617 8.58217 0.22
506 20 2.33918 1.57995 8.75137 -0.5
508 19 1.1558 3.30298 8.12552 -0.35
505 9 1.95173 2.66976 9.10665 0.52
188 11 5.56367 -0.723122 7.31211 0.06
681 9 3.09126 4.51765 5.39151 0.52
682 20 3.74179 3.43712 5.26282 -0.5
187 11 4.90419 0.864039 7.15752 0.06
513 11 4.01798 3.87057 8.54521 0.06
515 11 -0.48423 2.44982 9.06305 0.06
677 11 2.16279 -0.273972 10.4716 0.06
503 11 9.89825 0.47931 6.88347 0.06
498 1 10.278 1.17092 6.1468 0.22
185 1 5.25732 0.0646304 7.92437 0.22
189 11 4.47014 -0.311138 8.56916 0.06
183 19 6.37225 0.451713 8.71461 -0.35
181 9 7.00917 1.74631 8.51203 0.52
184 19 8.42498 1.87585 8.58586 -0.35
504 11 11.3007 1.32748 6.53268 0.06
259 11 8.93419 4.75029 8.29104 0.06
257 1 9.10662 4.9167 9.38829 0.22
260 11 8.3553 4.30107 9.95247 0.06
186 1 9.07276 1.00147 9.50936 0.22
502 11 9.76546 2.16069 6.24368 0.06
496 19 10.1599 0.577585 4.88591 -0.35
495 19 12.4713 0.397187 4.12119 -0.35
255 19 10.3914 4.56241 9.87481 -0.35
547 11 13.5227 3.02779 7.09839 0.06
546 2 14.4969 3.19411 6.5967 0.22
548 11 14.9675 2.25234 6.5867 0.06
190 11 10.0755 0.856501 9.40583 0.06
253 9 11.3648 3.99126 9.05676 0.52
256 19 11.8999 2.75174 9.39774 -0.35
334 11 17.7299 0.387541 4.44537 0.06
330 1 18.2475 0.491152 5.43832 0.22
336 11 19.0277 -0.277645 5.58785 0.06
335 11 18.7573 1.44947 5.29932 0.06
328 19 17.4058 0.498265 6.53794 -0.35
325 9 18.0373 0.935296 7.72521 0.52
326 20 19.24 0.767479 7.78253 -0.5
327 19 17.3525 1.67969 8.71853 -0.35
514 11 20.4067 3.56843 7.66964 0.06
543 19 14.7391 3.69833 5.35238 -0.35
329 1 17.0897 0.826793 9.86104 0.22
545 2 15.1143 4.22325 7.47079 0.22
550 11 16.09 3.90161 7.91642 0.06
333 11 16.6175 -0.0673745 9.51927 0.06
685 2 1.36125 5.9523 5.48205 0.22
688 11 2.91812 6.88237 6.70487 0.06
686 2 2.28914 6.0478 6.7306 0.22
687 11 1.84121 6.03694 7.73657 0.06
683 19 3.4484 5.30966 6.48302 -0.35
157 9 -0.457995 8.10663 9.22294 0.52
158 20 -0.178364 6.93775 8.93178 -0.5
3 19 2.87989 9.14312 5.68411 -0.35
165 11 0.764872 9.88489 8.04311 0.06
7 11 4.43245 8.72669 4.51711 0.06
5 1 3.53297 9.36172 4.43837 0.22
2 20 3.99412 9.30024 7.74113 -0.5
441 11 5.67735 5.8764 7.14855 0.06
437 1 5.73296 6.62017 7.95122 0.22
440 11 6.31668 7.45008 7.59462 0.06
439 11 4.69733 6.8808 7.96631 0.06
447 19 9.86763 4.50799 4.59455 -0.35
70 11 7.50479 9.73479 7.424 0.06
66 1 8.06987 9.70623 8.29858 0.22
435 19 6.16864 6.11363 9.17546 -0.35
433 9 6.06042 6.97074 10.2569 0.52
71 11 8.42626 8.68377 8.46001 0.06
261 11 8.85327 5.94123 9.52872 0.06
72 11 7.37401 10.0311 9.06875 0.06
434 20 6.99214 7.70075 10.5384 -0.5
254 20 12.0418 4.80123 8.45842 -0.5
456 11 12.1906 6.91075 6.63551 0.06
454 11 11.8543 7.75539 5.07852 0.06
549 11 14.5208 4.71868 8.21719 0.06
448 19 12.0195 5.73069 4.90419 -0.35
455 11 10.5277 6.82549 6.01772 0.06
450 1 11.5848 6.84554 5.71949 0.22
61 9 10.0119 10.5489 9.3991 0.52
64 19 9.24798 10.5256 8.18631 -0.35
63 19 11.061 9.63331 9.63213 -0.35
470 20 14.2679 8.83611 6.80976 -0.5
68 11 12.5399 10.8978 8.8249 0.06
159 19 20.1818 8.95463 8.29886 -0.35
542 20 17.0052 4.17903 4.68624 -0.5
541 9 16.0355 4.24874 5.47284 0.52
544 19 16.2853 4.67287 6.74704 -0.35
474 1 16.856 8.18993 6.09351 0.22
479 11 17.936 7.97853 6.10829 0.06
472 19 16.5351 9.43002 6.77928 -0.35
287 11 16.9679 6.68389 8.72224 0.06
478 11 16.6199 8.24767 5.00475 0.06
469 9 15.1083 9.70638 6.97686 0.52
286 11 16.8632 8.26933 9.35719 0.06
288 11 15.4684 7.23631 9.37964 0.06
282 1 16.5397 7.25816 9.52091 0.22
163 11 0.334528 8.75277 6.76643 0.06
161 1 -0.0328322 9.50005 7.48214 0.22
1 9 3.52502 9.86358 6.74373 0.52
630 11 2.12094 14.0328 7.03851 0.06
11 11 5.00183 12.2518 7.64154 0.06
4 19 3.43613 11.2949 6.65082 -0.35
6 1 4.60955 12.0233 6.62862 0.22
10 11 4.42467 12.9604 6.06973 0.06
164 11 -0.506023 10.2582 6.90296 0.06
93 11 2.06877 10.5846 9.81561 0.06
12 11 5.43176 11.5847 6.05139 0.06
387 19 6.76738 14.0231 9.20878 -0.35
388 19 8.42864 15.5107 8.15143 -0.35
385 9 7.21387 14.7171 8.08125 0.52
389 1 6.38094 14.9047 10.2093 0.22
392 11 5.3743 14.6801 10.6599 0.06
386 20 6.74512 14.4498 7.02943 -0.5
390 1 9.53078 14.8028 7.56925 0.22
395 11 10.2991 15.5663 7.32924 0.06
32 11 10.9675 11.4762 6.32045 0.06
27 19 9.33835 11.7229 5.2689 -0.35
29 1 10.7412 11.6412 5.31694 0.22
475 11 16.0149 12.0525 6.29605 0.06
394 11 9.24771 14.4475 6.58001 0.06
69 11 12.9938 10.1746 10.3771 0.06
396 11 9.84556 13.9926 8.26203 0.06
65 1 12.4305 9.99652 9.42688 0.22
67 11 12.9746 9.18453 8.94537 0.06
42 1 14.6492 14.9104 8.94658 0.22
274 11 18.7884 14.9373 4.95644 0.06
276 11 19.1083 14.5155 6.63013 0.06
471 19 14.7189 10.994 7.35168 -0.35
268 19 18.0477 13.1395 5.42589 -0.35
473 1 14.9234 11.9399 6.35355 0.22
477 11 14.3966 12.8543 6.61632 0.06
476 11 14.5582 11.6483 5.38324 0.06
135 19 19.2623 12.1906 8.2479 -0.35
133 9 20.3613 12.7309 8.98463 0.52
136 19 20.5312 14.1291 8.80802 -0.35
137 1 18.3206 11.5868 9.01151 0.22
141 11 18.6783 10.6384 9.40284 0.06
270 1 18.3923 14.4623 5.83535 0.22
275 11 17.5051 15.0154 6.17755 0.06
40 19 14.4978 13.5585 9.41673 -0.35
140 11 17.414 11.3237 8.4281 0.06
627 11 2.96184 16.8495 6.29572 0.06
629 11 0.985918 15.3328 6.46396 0.06
628 11 3.44002 15.4113 5.59401 0.06
291 19 20.5324 17.2724 6.07403 -0.35
626 2 3.16085 15.8204 6.57246 0.22
625 2 1.81887 15.0847 7.11894 0.22
624 19 1.82049 15.208 8.541 -0.35
622 20 2.87673 16.8774 9.78496 -0.5
621 9 2.83697 16.1944 8.76962 0.52
623 19 3.67672 16.5357 7.6723 -0.35
289 9 -0.251769 18.4835 6.69788 0.52
290 20 0.953791 18.7396 6.83602 -0.5
393 11 7.09054 14.8393 11.0261 0.06
391 11 6.24336 15.9477 9.8504 0.06
528 11 5.5119 17.8121 6.4354 0.06
526 11 6.77182 16.9345 6.28439 0.06
520 19 7.06037 19.029 6.12309 -0.35
527 11 6.46518 17.854 7.85422 0.06
522 1 6.47981 17.8824 6.75412 0.22
519 19 9.08783 18.8027 4.98259 -0.35
521 1 9.80211 17.5356 5.0185 0.22
517 9 8.45276 18.9746 6.18843 0.52
518 20 9.16995 18.9815 7.20277 -0.5
525 11 10.0188 17.1121 5.98621 0.06
192 11 8.67438 0.0041191 9.39219 0.06
739 26 14.8633 15.2407 5.90191 -0.39
524 11 10.8076 17.5237 4.54628 0.06
537 11 11.5734 18.9948 6.30487 0.06
535 11 12.8452 17.8607 6.38212 0.06
536 11 11.7955 17.993 7.74217 0.06
533 1 12.2983 18.5685 6.95134 0.22
531 19 13.0936 19.5704 7.55806 -0.35
46 11 13.9276 15.11 8.16394 0.06
529 9 14.3544 19.1604 7.97608 0.52
530 20 14.3857 18.6777 9.11521 -0.5
144 11 19.6616 15.0124 10.4302 0.06
300 11 0.0605858 20.0092 8.98081 0.06
299 11 -0.351544 18.3718 9.37508 0.06
538 11 16.7106 18.4483 6.25507 0.06
539 11 17.4993 18.9255 7.77851 0.06
532 19 15.5064 19.648 7.41199 -0.35
534 1 16.5616 18.6718 7.29229 0.22
540 11 16.4 17.6869 7.78236 0.06
292 19 20.1017 19.1356 7.48391 -0.35
138 1 19.4955 14.8799 9.40557 0.22
298 11 19.6304 19.5049 9.35299 0.06
294 1 20.5155 19.2599 8.83936 0.22
142 11 19.2925 15.8161 8.79503 0.06
507 19 2.66675 3.41951 10.086 -0.35
516 11 -0.300997 4.19949 9.29828 0.06
509 1 3.6709 4.20103 9.53743 0.22
512 11 4.59396 3.98389 10.108 0.06
678 11 3.6939 -0.550524 10.966 0.06
676 2 2.67137 -0.540801 11.3598 0.22
673 19 2.45316 0.03177 12.6046 -0.35
321 11 2.80417 2.42524 13.2573 0.06
317 1 2.85105 3.50052 13.3408 0.22
316 19 5.55995 2.23727 13.1036 -0.35
319 11 2.82811 3.81346 14.3962 0.06
146 20 0.198956 2.26403 15.0699 -0.5
313 9 5.21925 3.58513 13.4032 0.52
315 19 4.10104 4.04507 12.7152 -0.35
320 11 1.88777 3.81946 12.8779 0.06
323 11 4.73793 1.87783 11.1219 0.06
318 1 5.67475 2.08884 11.6939 0.22
322 11 6.28311 1.17439 11.5043 0.06
182 20 6.30866 2.78323 8.29151 -0.5
324 11 6.17487 2.94211 11.146 0.06
191 11 8.89298 1.38439 10.4899 0.06
744 26 7.55641 1.80059 15.6929 -0.39
264 11 13.1147 3.72785 10.9064 0.06
263 11 13.0025 2.02507 11.0425 0.06
258 1 12.4532 2.89367 10.7541 0.22
262 11 11.6181 3.02823 11.465 0.06
608 11 13.437 3.1041 13.2777 0.06
603 19 14.9231 2.02042 12.724 -0.35
604 19 15.6318 1.51184 14.9536 -0.35
170 20 12.0464 0.888294 13.133 -0.5
331 11 18.0174 0.539867 10.339 0.06
332 11 16.5128 1.35524 10.619 0.06
601 9 15.7322 1.2304 13.5674 0.52
602 20 16.6553 0.571103 13.0547 -0.5
283 11 18.6636 3.43215 10.6396 0.06
153 11 19.4534 -0.11516 13.6314 0.06
149 1 19.6108 -0.532686 14.5883 0.22
152 11 18.6329 -0.733716 15.0557 0.06
511 11 3.41111 5.21835 9.58989 0.06
641 9 0.868555 7.18074 15.0168 0.52
649 11 3.87086 7.79646 15.0759 0.06
643 19 1.03053 8.33211 14.2505 -0.35
647 11 2.32761 8.71917 13.6644 0.06
646 2 2.21684 8.97046 14.6943 0.22
438 1 4.42397 7.67771 11.805 0.22
443 11 4.37995 7.45508 12.8602 0.06
442 11 3.44836 7.76822 11.4296 0.06
167 11 20.1422 7.32193 11.5542 0.06
402 1 8.43908 5.42279 12.7959 0.22
408 11 8.12364 4.41581 12.5829 0.06
314 20 5.78302 4.42579 14.1381 -0.5
400 19 9.43146 5.49454 13.8475 -0.35
444 11 4.95633 8.624 11.7342 0.06
436 19 5.07846 6.62585 11.1758 -0.35
407 11 8.78656 5.80838 11.8705 0.06
406 11 7.52403 6.02301 13.049 0.06
205 9 8.61709 9.27304 14.9826 0.52
208 19 8.44072 8.81014 13.6901 -0.35
398 20 11.013 6.90959 14.5471 -0.5
397 9 10.6069 6.18101 13.6425 0.52
399 19 11.4607 5.59436 12.6324 -0.35
404 11 11.9443 6.21198 10.6893 0.06
401 1 12.0164 6.57105 11.7212 0.22
405 11 11.4753 7.46803 11.6383 0.06
403 11 13.087 6.80894 11.8721 0.06
102 1 11.89 10.8759 13.1546 0.22
108 11 11.8809 11.2888 12.1114 0.06
106 11 10.9018 10.7679 13.6306 0.06
160 19 -0.0777136 8.66567 10.3889 -0.35
162 1 20.2591 8.39676 11.3838 0.22
166 11 19.2998 8.84107 11.0773 0.06
285 11 17.5628 3.40096 12.0873 0.06
281 1 17.9407 4.00408 11.2475 0.22
284 11 18.5319 4.83428 11.5912 0.06
279 19 16.9738 4.46414 10.3763 -0.35
98 20 12.5881 8.87717 15.3186 -0.5
580 11 17.9477 8.04777 16.5957 0.06
642 20 0.150617 6.28409 14.6237 -0.5
168 11 20.5406 8.7769 12.3755 0.06
280 19 16.8822 6.81653 10.8307 -0.35
277 9 16.2762 5.53998 10.9459 0.52
278 20 15.1568 5.43548 11.3909 -0.5
579 11 16.9929 8.48549 15.1937 0.06
575 2 16.9982 7.87304 16.0696 0.22
89 1 2.93343 11.1305 10.2446 0.22
115 11 1.19316 10.7487 12.8798 0.06
116 11 -0.29445 10.9859 13.8406 0.06
113 1 0.343358 11.4083 13.0274 0.22
117 11 -0.262557 11.5684 12.1077 0.06
111 19 0.900944 12.6258 13.5667 -0.35
109 9 0.0675172 13.752 13.324 0.52
95 11 3.17089 13.6001 13.7861 0.06
96 11 4.66945 12.9834 14.1806 0.06
112 19 0.338077 14.5687 12.1576 -0.35
87 19 3.14499 10.6162 11.5758 -0.35
92 11 3.84594 10.9581 9.6042 0.06
216 11 8.64323 9.54702 11.7837 0.06
86 20 4.9739 10.6728 12.8356 -0.5
91 11 2.70124 12.2089 10.2883 0.06
210 1 8.20734 9.82125 12.7428 0.22
215 11 8.63696 10.8052 12.9135 0.06
85 9 4.1387 11.3523 12.2311 0.52
88 19 4.17009 12.8208 12.1615 -0.35
637 11 9.67655 13.8117 10.8568 0.06
214 11 7.13061 9.93956 12.5346 0.06
90 1 4.18716 13.5129 13.363 0.22
763 26 8.82411 14.9562 14.1853 -0.39
94 11 4.58374 14.5045 13.2707 0.06
760 26 8.90921 12.945 15.1824 -0.39
47 11 14.3282 15.6377 9.71815 0.06
638 11 11.3209 13.9741 10.4087 0.06
636 2 10.5683 14.3998 11.0722 0.22
62 20 9.6819 11.4115 10.223 -0.5
639 11 10.2603 13.5156 13.0967 0.06
635 2 11.0084 14.0353 12.4772 0.22
640 11 11.9063 13.506 12.6891 0.06
107 11 12.3884 11.6137 13.7851 0.06
634 19 11.7167 15.1671 13.006 -0.35
100 19 12.5045 9.66513 13.0762 -0.35
97 9 13.1929 9.20845 14.2685 0.52
134 20 -0.108298 11.9776 9.50947 -0.5
103 11 16.0037 9.83278 13.0991 0.06
104 11 14.9101 11.0741 13.4966 0.06
38 20 15.2254 12.1409 10.9566 -0.5
139 11 17.9595 12.1427 9.85597 0.06
37 9 15.252 13.2982 10.5995 0.52
101 1 15.3774 10.1576 13.8949 0.22
39 19 16.4597 13.9671 10.7786 -0.35
43 11 17.9366 14.5966 12.1769 0.06
41 1 16.9984 14.0994 12.0808 0.22
44 11 16.3625 14.6948 12.7797 0.06
99 19 14.5692 9.03887 14.2583 -0.35
45 11 16.9779 13.0647 12.4568 0.06
110 20 20.2103 13.8464 13.8614 -0.5
710 11 18.8334 15.8735 15.9436 0.06
680 11 2.92024 18.5982 11.4694 0.06
118 11 1.55476 15.931 13.1325 0.06
671 9 1.61495 20.469 13.281 0.52
672 20 1.78289 20.2853 14.4691 -0.5
675 2 2.16549 19.3378 11.6407 0.22
679 11 1.34538 19.0848 11.0031 0.06
674 19 1.0881 19.5085 12.4457 -0.35
120 11 -0.178276 16.3533 13.0623 0.06
119 11 0.824117 16.5102 11.7347 0.06
114 1 0.627938 15.8667 12.5365 0.22
613 19 4.75545 19.6873 14.5754 -0.35
616 2 4.56145 18.255 14.2586 0.22
618 11 4.98839 18.6108 13.3357 0.06
652 20 6.4086 18.429 10.5219 -0.5
651 9 7.36183 18.4946 11.2637 0.52
654 19 8.20901 17.3932 11.4233 -0.35
653 19 7.39007 19.4596 12.2721 -0.35
657 11 9.17956 19.4856 13.6951 0.06
658 11 7.51464 18.9528 13.6412 0.06
655 2 8.75766 17.46 12.7058 0.22
656 2 8.46533 18.9493 13.1034 0.22
660 11 7.97758 16.8985 13.2966 0.06
659 11 9.72131 17.1017 13.0497 0.06
611 9 5.62195 19.7562 15.6302 0.52
614 19 6.11692 18.4855 16.0341 -0.35
615 2 5.43115 17.4839 15.2799 0.22
620 11 5.96495 16.5914 14.9758 0.06
179 11 11.8932 19.1395 10.767 0.06
180 11 12.1919 -0.369216 10.8538 0.06
48 11 15.6599 15.1085 8.57848 0.06
631 9 12.0443 15.8745 11.8258 0.52
632 20 12.9698 16.6597 11.758 -0.5
633 19 11.3934 15.4589 10.6337 -0.35
178 11 13.3094 19.7665 11.7352 0.06
174 1 12.2695 19.9052 11.4385 0.22
172 19 11.4417 19.9854 12.6114 -0.35
169 9 11.8595 -0.283084 13.5292 0.52
173 1 13.298 20.1192 15.4183 0.22
171 19 12.0552 20.5477 14.8922 -0.35
176 11 13.9303 -0.34104 15.7426 0.06
568 11 15.6902 17.0662 12.7832 0.06
570 11 16.3833 19.0426 13.3382 0.06
569 11 16.1083 19.6195 11.6599 0.06
143 11 18.5287 14.3233 9.31397 0.06
567 11 15.2415 17.5874 11.2199 0.06
565 2 16.6395 18.8991 12.2824 0.22
562 20 19.2373 17.3176 11.1828 -0.5
564 19 17.8077 19.1029 11.6608 -0.35
561 9 18.0786 17.8064 11.2522 0.52
563 19 16.9545 16.9571 11.041 -0.35
566 2 16.0778 17.5594 11.9026 0.22
704 19 17.8935 17.5681 16.0421 -0.35
151 11 20.1229 19.7758 14.4429 0.06
155 11 20.0282 4.09501 15.8862 0.06
244 19 3.03776 2.92158 16.7563 -0.35
242 20 2.63431 0.669867 16.6036 -0.5
241 9 2.88228 1.62979 17.3311 0.52
245 1 2.59193 0.723389 19.6564 0.22
243 19 3.37767 1.38498 18.6373 -0.35
246 1 2.69474 3.92985 17.7559 0.22
251 11 2.49865 4.87143 17.2986 0.06
252 11 1.73647 3.69858 18.171 0.06
250 11 3.42569 4.13689 18.5613 0.06
247 11 1.55593 0.75201 19.3913 0.06
14 20 19.0928 1.62587 20.2478 -0.5
154 11 18.3614 3.78058 16.3097 0.06
428 11 8.49879 20.4623 -0.138439 0.06
733 31 5.97356 0.0457486 17.9896 1
749 26 5.91752 3.10333 16.5396 -0.39
743 27 7.38202 2.72194 16.9685 1.34
747 26 6.79477 1.5236 17.7716 -0.39
745 26 7.33528 3.60432 18.2017 -0.39
746 26 7.90068 3.99312 16.171 -0.39
748 26 8.88032 2.29799 17.3448 -0.39
49 9 11.6125 1.56698 20.4243 0.52
51 19 12.6292 1.362 19.5191 -0.35
56 11 12.2579 -0.629634 18.9756 0.06
607 11 14.7056 4.14488 13.3086 0.06
606 2 14.4836 3.09927 13.489 0.22
605 2 14.8371 2.70966 14.9694 0.22
610 11 14.1695 3.3914 15.5778 0.06
57 11 11.3287 0.623852 17.9668 0.06
53 1 12.346 0.379711 18.4516 0.22
560 11 12.0714 3.54291 18.0901 0.06
559 11 13.7998 3.64826 17.8595 0.06
609 11 15.8201 2.96124 15.24 0.06
55 11 13.1613 0.258658 17.7072 0.06
722 20 15.2096 20.5349 19.2782 -0.5
15 19 -0.360515 0.155047 20.4967 -0.35
147 19 20.5272 0.26331 15.2592 -0.35
145 9 20.4058 1.63174 14.9976 0.52
22 11 18.3626 19.6893 17.7684 0.06
16 19 18.667 -0.562018 19.5827 -0.35
13 9 19.5374 0.485173 20.1163 0.52
18 1 18.6952 -0.573078 18.174 0.22
23 11 18.0781 0.158348 17.7077 0.06
148 19 19.1801 2.21167 15.3191 -0.35
156 11 18.835 4.12082 14.6716 0.06
150 1 19.1193 3.57421 15.543 0.22
24 11 19.7213 20.7768 17.7706 0.06
644 19 1.83436 6.96286 15.8964 -0.35
645 2 2.88448 7.92197 15.5726 0.22
648 11 2.40355 10.0231 14.9286 0.06
650 11 3.17146 8.4591 16.4969 0.06
356 11 1.39782 10.7433 19.6027 0.06
353 1 1.17727 9.9421 18.8689 0.22
201 11 4.357 8.70483 19.1487 0.06
207 19 7.48253 9.30403 15.8636 -0.35
734 31 6.3463 4.75383 15.7163 1
197 1 5.49768 8.68934 19.0449 0.22
200 11 5.97016 9.65246 18.991 0.06
195 19 5.94126 8.01121 17.8666 -0.35
206 20 9.70983 9.15506 15.582 -0.5
193 9 6.26775 6.6676 17.8091 0.52
194 20 5.91039 5.96634 16.8433 -0.5
196 19 7.29206 6.28731 18.7011 -0.35
202 11 8.86902 7.81276 19.0959 0.06
203 11 9.31982 6.08389 18.6452 0.06
198 1 8.61286 6.91198 18.5088 0.22
204 11 8.76665 7.21288 17.4664 0.06
199 11 6.00578 8.15403 19.8703 0.06
557 11 14.1027 5.4045 19.3631 0.06
555 2 12.8815 4.2606 17.9837 0.22
732 31 11.1818 8.28101 15.8825 1
556 2 13.0599 5.10138 19.3235 0.22
554 19 12.7559 5.26442 17.0356 -0.35
551 9 12.0923 6.28432 17.7442 0.52
553 19 12.385 6.28744 19.1325 -0.35
552 20 11.6511 7.30029 17.2433 -0.5
464 11 14.4121 10.1071 19.7967 0.06
599 11 19.4867 4.92445 19.6129 0.06
595 2 19.6116 5.97396 19.2566 0.22
594 19 -0.482954 6.1014 20.0721 -0.35
596 2 18.586 7.06805 19.6482 0.22
574 19 17.0812 6.51685 16.3023 -0.35
600 11 20.0774 6.01832 18.2665 0.06
577 11 15.0264 8.62983 16.5497 0.06
571 9 16.0313 6.29388 17.1617 0.52
572 20 16.2714 5.44142 18.004 -0.5
573 19 15.2173 7.384 17.4809 -0.35
576 2 15.9607 8.50388 16.9879 0.22
578 11 16.2498 9.46412 17.4406 0.06
598 11 18.9813 8.12028 19.3303 0.06
350 20 19.9634 10.3079 17.0892 -0.5
351 19 -0.254339 9.87726 19.0693 -0.35
355 11 1.53146 9.0421 19.3515 0.06
382 11 2.67986 13.9125 17.0705 0.06
383 11 3.98966 14.8363 17.7279 0.06
378 1 3.74531 14.1225 16.9294 0.22
384 11 3.94427 14.5977 15.9939 0.06
376 19 4.51093 12.9642 16.9438 -0.35
373 9 4.52005 12.3715 18.2319 0.52
374 20 3.63847 11.4299 18.4914 -0.5
358 11 0.0712957 12.9428 16.6882 0.06
379 11 6.01753 14.6534 19.1483 0.06
213 11 7.54503 11.0447 16.8011 0.06
211 11 6.86179 11.0333 15.0919 0.06
375 19 5.6252 12.659 19.1012 -0.35
131 11 8.87738 13.6454 -0.222307 0.06
209 1 6.90336 10.5319 16.0476 0.22
212 11 5.83484 10.5515 16.4008 0.06
757 27 8.41671 14.3902 15.589 1.34
124 19 9.56384 11.6396 -0.0560401 -0.35
126 1 8.59411 12.5848 -0.359661 0.22
132 11 8.10939 12.4116 19.9129 0.06
758 26 6.95607 13.976 15.1293 -0.39
762 26 8.07998 13.9091 17.0142 -0.39
759 26 9.89305 14.8222 16.004 -0.39
129 11 9.59299 11.4228 17.522 0.06
236 11 8.37784 16.3604 18.3627 0.06
584 19 13.5291 14.1327 15.7606 -0.35
123 19 10.6085 10.8616 19.1477 -0.35
463 11 14.3324 11.4814 18.7309 0.06
121 9 10.6656 11.6901 20.3035 0.52
461 1 14.7533 11.1502 19.675 0.22
465 11 14.2947 11.8764 20.4072 0.06
587 11 12.2362 15.0349 18.2706 0.06
122 20 11.7829 11.8876 -0.530552 -0.5
128 11 11.3289 11.6868 17.347 0.06
125 1 10.503 11.7385 18.0284 0.22
237 11 8.99196 14.9304 19.0921 0.06
127 11 10.4082 12.8035 18.2719 0.06
586 2 13.2203 15.1845 17.8563 0.22
583 19 13.4933 13.7803 18.0328 -0.35
581 9 13.5438 13.1855 16.7978 0.52
582 20 13.7093 11.9709 16.5244 -0.5
468 11 16.197 14.4998 1.23712 0.06
105 11 15.9616 10.487 14.7655 0.06
349 9 20.304 10.7778 18.178 0.52
352 19 -0.610818 12.1468 18.4059 -0.35
459 19 16.1679 11.1192 19.7146 -0.35
457 9 16.7228 12.3935 20.005 0.52
359 11 19.6927 12.5215 16.4722 0.06
708 11 17.026 15.0854 17.3393 0.06
458 20 17.504 12.9596 19.2119 -0.5
360 11 19.9802 13.8954 17.4684 0.06
354 1 20.4249 12.9123 17.2335 0.22
420 11 0.0818471 16.9095 20.6289 0.06
617 11 3.66965 17.6993 14.0336 0.06
248 11 2.8445 -0.328797 19.6391 0.06
426 1 4.80343 18.1109 20.12 0.22
432 11 3.7974 17.9434 19.751 0.06
430 11 5.32961 17.1677 20.2151 0.06
731 31 2.25517 20.4778 16.0298 1
753 26 0.394073 17.4918 17.5894 -0.39
756 26 1.751 17.9795 15.8304 -0.39
750 27 1.65305 18.3409 17.3195 1.34
752 26 2.57235 17.0763 17.6404 -0.39
751 26 0.712454 19.5096 16.9131 -0.39
755 26 1.61104 18.8148 18.8346 -0.39
754 26 2.96703 19.2616 17.0529 -0.39
427 11 8.79692 0.523845 20.171 0.06
425 1 8.61264 -0.472793 20.0524 0.22
612 20 5.48264 20.6839 16.4211 -0.5
619 11 4.75985 17.0482 16.0518 0.06
424 19 5.47561 19.1495 19.3191 -0.35
421 9 6.78066 19.317 19.7499 0.52
423 19 7.39429 -0.751858 19.3343 -0.35
761 26 7.8462 15.7984 15.9732 -0.39
238 11 9.61375 19.4831 16.3207 0.06
422 20 7.4891 18.3276 19.7225 -0.5
234 1 9.74973 18.4719 16.6365 0.22
239 11 9.95507 17.7194 15.893 0.06
240 11 8.77294 18.3039 17.0867 0.06
235 11 9.08622 16.4535 20.0371 0.06
233 1 9.17808 16.0068 19.0539 0.22
589 11 12.4327 15.9 16.077 0.06
585 2 13.3091 15.3306 16.3866 0.22
590 11 14.2083 15.7422 15.9963 0.06
175 11 13.8701 19.6284 14.668 0.06
588 11 13.8343 15.8685 18.4242 0.06
721 9 15.12 19.6954 20.168 0.52
177 11 13.0519 19.3553 16.1658 0.06
231 19 10.4695 16.4441 18.5831 -0.35
232 19 10.8767 18.5326 17.497 -0.35
229 9 10.6315 17.8575 18.7139 0.52
230 20 10.9685 18.4017 19.7081 -0.5
730 11 13.4996 17.3179 19.9885 0.06
725 2 14.3341 17.6983 -0.644395 0.22
724 19 15.3918 18.3437 19.9778 -0.35
414 1 20.3033 16.7343 20.2773 0.22
702 20 15.6999 17.5214 15.442 -0.5
709 11 19.4878 16.713 17.1839 0.06
705 2 18.5568 16.5368 16.7103 0.22
418 11 20.1997 15.6851 20.1281 0.06
707 11 18.1851 15.7226 18.5925 0.06
706 2 17.5547 15.9409 17.7645 0.22
703 19 16.3081 16.4469 17.4389 -0.35
729 11 14.586 16.7895 -0.0862795 0.06
701 9 16.5221 17.2775 16.3309 0.52
ITEM: TIMESTEP
400
ITEM: NUMBER OF ATOMS
770
ITEM: BOX BOUNDS pp pp pp
-6.4028958381725865e-01 2.0640289583817363e+01
-6.4028958381725865e-01 2.0640289583817363e+01
-6.4028958381725865e-01 2.0640289583817363e+01
ITEM: ATOMS id type x y z c_charge
74 20 2.09807 0.870559 3.36981 -0.5
73 9 0.896179 0.950076 3.68341 0.52
75 19 0.0772807 1.73718 2.88624 -0.35
77 1 -0.121431 3.07604 3.40352 0.22
81 11 0.343149 3.8423 2.81813 0.06
684 19 2.20297 5.16586 4.60908 -0.35
76 19 0.475846 0.157555 4.76925 -0.35
309 11 4.25855 2.90832 1.48392 0.06
249 11 2.21865 1.88908 20.2489 0.06
308 11 2.60388 2.47453 1.58665 0.06
305 1 3.25028 3.37707 1.53669 0.22
79 11 20.1201 3.32909 3.51927 0.06
489 11 3.11104 19.966 4.74082 0.06
488 11 3.45214 20.0805 2.99008 0.06
19 11 0.978136 -0.120078 0.566882 0.06
303 19 3.06194 4.17087 0.381727 -0.35
692 20 6.46905 1.41208 0.772452 -0.5
691 9 5.97687 0.808685 1.78356 0.52
694 19 6.23204 -0.664753 1.78996 -0.35
693 19 6.05056 1.41942 3.0574 -0.35
54 1 9.92387 2.89312 0.133534 0.22
60 11 9.76396 2.4402 1.09876 0.06
696 2 6.04384 0.296088 3.93131 0.22
453 11 9.05458 4.37147 2.63323 0.06
698 11 5.12158 0.167847 4.50829 0.06
695 2 6.32498 20.3188 3.22679 0.22
58 11 9.54914 3.92427 0.277759 0.06
59 11 9.23548 2.29621 -0.590653 0.06
449 1 9.05352 4.06685 3.66942 0.22
451 11 8.91809 3.04715 3.6279 0.06
699 11 7.37934 20.1202 3.0388 0.06
697 11 6.85665 0.425996 4.59761 0.06
307 11 3.1646 4.0223 2.43162 0.06
52 19 11.1749 2.82087 -0.389642 -0.35
348 11 14.4392 1.93993 0.350328 0.06
50 20 11.6799 0.604034 0.205465 -0.5
342 1 14.149 2.31951 1.34111 0.22
347 11 13.0543 2.50453 1.49092 0.06
338 20 13.6899 5.19657 1.35185 -0.5
337 9 14.736 4.60556 1.18259 0.52
346 11 14.5002 1.45546 1.93804 0.06
340 19 14.9572 3.40669 1.74746 -0.35
339 19 15.8668 5.31318 0.747847 -0.35
493 9 11.3302 0.990196 3.95024 0.52
497 1 12.7483 20.4043 3.71179 0.22
494 20 11.1837 2.00695 3.26074 -0.5
499 11 12.5785 20.329 2.61389 0.06
343 11 17.9045 5.08435 0.695445 0.06
345 11 16.9635 4.57368 -0.731974 0.06
341 1 17.0233 4.57202 0.313899 0.22
17 1 -0.086051 -0.290123 0.402928 0.22
20 11 20.7445 0.10138 1.28949 0.06
80 11 0.270014 3.20008 4.38153 0.06
690 11 1.75984 6.85048 4.91837 0.06
306 1 2.96403 7.56465 0.290604 0.22
311 11 3.72241 7.96295 0.975137 0.06
312 11 2.68465 8.38103 -0.393039 0.06
592 20 -0.269268 7.4463 0.693244 -0.5
8 11 2.71941 9.25944 3.5972 0.06
9 11 3.35659 10.6817 4.41486 0.06
301 9 3.75978 5.41815 0.386554 0.52
304 19 3.35449 6.38521 -0.458986 -0.35
310 11 2.05486 7.45775 0.783433 0.06
452 11 8.0001 4.48693 3.93013 0.06
302 20 4.73041 5.59768 1.11781 -0.5
714 19 8.91924 7.49437 3.3048 -0.35
716 2 6.65806 7.80214 2.95027 0.22
713 19 6.82458 7.42863 4.29729 -0.35
711 9 8.19855 7.4831 4.49994 0.52
719 11 7.85784 6.38621 2.02258 0.06
720 11 8.03126 8.07308 1.31186 0.06
715 2 7.97697 7.47293 2.25639 0.22
717 11 5.79514 7.68788 2.25338 0.06
712 20 8.6159 7.64986 5.64589 -0.5
446 20 11.1789 5.42212 2.83733 -0.5
363 19 14.4686 8.92644 1.11694 -0.35
368 11 16.3717 8.17711 0.630765 0.06
735 31 12.5363 6.21138 2.14919 1
361 9 13.964 8.73023 2.40093 0.52
362 20 13.3549 7.65385 2.41345 -0.5
364 19 13.4158 9.68533 3.26282 -0.35
365 1 15.9004 9.01169 1.12699 0.22
369 11 16.1837 9.88116 0.539448 0.06
445 9 11.0331 5.34403 4.05691 0.52
558 11 13.0374 4.10633 20.0871 0.06
591 9 20.4611 7.24048 -0.378065 0.52
344 11 17.0922 3.47935 0.530073 0.06
597 11 18.1301 6.93136 20.1662 0.06
593 19 19.1814 7.82191 -0.632974 -0.35
367 11 16.3496 8.9485 2.09178 0.06
480 11 16.2946 7.45911 5.86485 0.06
670 11 0.795506 9.97892 1.18126 0.06
669 11 -0.338958 10.7979 2.28596 0.06
665 2 0.472644 10.9563 1.60118 0.22
664 19 1.80245 10.8196 2.0435 -0.35
661 9 2.36484 12.0267 1.63293 0.52
663 19 1.51118 12.8916 0.824526 -0.35
666 2 0.291083 12.1957 0.685432 0.22
668 11 -0.300527 11.8305 -0.111884 0.06
667 11 -0.332424 12.9735 1.14217 0.06
662 20 3.54305 12.2628 1.86094 -0.5
357 11 0.845097 9.29758 17.6206 0.06
380 11 4.68611 14.2359 20.4261 0.06
381 11 6.36837 14.3946 20.4168 0.06
377 1 5.57407 14.1115 19.7698 0.22
718 11 6.57355 8.83663 3.20969 0.06
36 11 7.45279 12.8187 2.57904 0.06
26 20 9.19733 10.7789 3.19641 -0.5
25 9 8.60143 11.2093 4.1832 0.52
227 11 11.1137 15.1112 3.24862 0.06
222 1 10.524 14.6765 2.4167 0.22
30 1 6.71145 12.3525 3.25398 0.22
34 11 5.99506 11.9452 2.59639 0.06
28 19 7.22054 11.3796 4.13258 -0.35
35 11 6.24798 13.0873 3.88744 0.06
130 11 7.45676 12.5423 0.0390629 0.06
372 11 12.4594 11.4774 3.11743 0.06
370 11 13.0926 10.8501 1.6704 0.06
366 1 12.6051 10.6107 2.54472 0.22
371 11 11.6176 10.2153 2.30575 0.06
226 11 11.0178 13.7044 2.15128 0.06
737 26 14.8706 14.2262 3.9862 -0.39
228 11 9.57328 14.3503 2.84625 0.06
33 11 11.149 10.6551 5.31434 0.06
460 19 17.0455 13.0003 -0.0632141 -0.35
467 11 15.161 14.0227 0.148189 0.06
31 11 10.964 12.1508 4.52982 0.06
462 1 16.2486 14.192 0.169103 0.22
466 11 16.3084 15.0004 20.7566 0.06
266 20 20.0132 12.362 4.94239 -0.5
272 11 17.9335 11.2199 1.75417 0.06
273 11 16.9653 12.3345 2.81652 0.06
271 11 18.6187 12.7827 2.15634 0.06
269 1 17.954 11.9665 2.52961 0.22
267 19 18.501 11.3182 3.65632 -0.35
265 9 18.8412 12.2389 4.66883 0.52
490 11 0.952156 15.5357 1.58048 0.06
419 11 -0.355701 17.8378 20.1379 0.06
486 1 1.63119 15.5871 2.43967 0.22
491 11 2.65296 15.5294 2.09383 0.06
492 11 1.52256 14.7058 3.0691 0.06
484 19 1.32985 16.7202 3.21547 -0.35
481 9 1.65847 17.9987 2.6888 0.52
482 20 1.25304 18.1914 1.55714 -0.5
483 19 1.80732 19.0889 3.50256 -0.35
487 11 3.84293 18.5327 3.75626 0.06
485 1 3.1406 19.4082 3.79427 0.22
431 11 4.59146 18.6859 0.17297 0.06
295 11 20.381 18.2071 4.29597 0.06
296 11 20.3429 16.4762 4.23055 0.06
768 26 5.52118 14.7701 1.48488 -0.39
770 26 4.84197 16.8051 2.13002 -0.39
766 26 5.9107 15.6395 3.54514 -0.39
764 27 6.16657 16.0679 2.07894 1.34
765 26 6.4321 16.5448 0.680402 -0.39
769 26 7.52445 15.3636 2.08535 -0.39
429 11 9.19597 20.0029 20.1912 0.06
767 26 6.89623 17.2875 2.66432 -0.39
700 11 5.80861 19.4408 3.6078 0.06
225 11 9.14803 17.6909 0.883261 0.06
220 19 10.286 15.4733 1.29957 -0.35
523 11 8.78456 16.9295 4.22473 0.06
223 11 9.51247 18.7923 2.15866 0.06
500 11 13.8058 20.1085 3.90404 0.06
501 11 12.119 19.755 4.28935 0.06
736 27 14.7097 15.7086 4.3392 1.34
741 26 13.1843 15.4494 4.54544 -0.39
740 26 14.4575 15.9683 2.82178 -0.39
738 26 14.5385 17.2937 4.6311 -0.39
728 11 12.9913 19.2683 0.363943 0.06
217 9 11.3601 16.4085 1.12741 0.52
218 20 12.3895 16.071 0.525927 -0.5
224 11 10.0661 19.1158 0.490546 0.06
221 1 9.97399 18.3208 1.26977 0.22
219 19 11.2355 17.7624 1.5818 -0.35
727 11 14.3379 18.6342 1.30456 0.06
723 19 14.6165 20.2594 -0.0949156 -0.35
726 2 14.0579 19.0981 0.376017 0.22
742 26 16.245 15.9126 4.06365 -0.39
417 11 16.615 17.4275 1.6599 0.06
409 9 19.0597 16.7403 1.01625 0.52
410 20 18.7637 15.5104 1.15856 -0.5
413 1 17.3624 18.2317 1.70762 0.22
415 11 16.9562 18.8505 2.47205 0.06
416 11 17.4298 18.8463 0.841516 0.06
411 19 18.6236 17.6926 2.01691 -0.35
293 1 20.0906 17.3314 4.81888 0.22
297 11 19.0115 17.4446 4.83688 0.06
412 19 19.2402 17.2329 -0.256179 -0.35
21 11 -0.304629 19.8939 0.477293 0.06
689 11 0.550027 6.10927 5.72071 0.06
78 1 0.815767 0.714251 6.0728 0.22
84 11 0.685067 -0.023228 6.88711 0.06
83 11 0.218287 1.61204 6.28916 0.06
82 11 1.88892 0.967373 6.0448 0.06
510 1 -0.35149 3.37503 8.44106 0.22
506 20 2.28043 1.59125 8.64252 -0.5
508 19 1.04926 3.51875 8.17007 -0.35
505 9 1.91976 2.7503 8.93763 0.52
188 11 5.22992 -0.363687 7.14244 0.06
681 9 3.25975 4.4875 5.30123 0.52
682 20 3.49211 3.3026 5.08369 -0.5
187 11 4.76284 1.23068 7.53282 0.06
513 11 4.15062 3.77863 8.72172 0.06
515 11 20.671 2.73576 9.28026 0.06
677 11 2.36511 0.348215 10.7413 0.06
503 11 10.8307 0.436624 6.84602 0.06
498 1 10.703 1.1814 6.07929 0.22
185 1 5.10785 0.392314 8.00107 0.22
189 11 4.29835 0.0339067 8.63755 0.06
183 19 6.19748 0.590671 8.89435 -0.35
181 9 6.86832 1.79629 8.46308 0.52
184 19 8.1851 2.03055 8.81021 -0.35
504 11 11.5738 1.79161 6.18158 0.06
259 11 9.11549 4.50077 7.949 0.06
257 1 9.17807 4.86283 8.93773 0.22
260 11 8.27465 4.68225 9.43127 0.06
186 1 8.73964 0.975567 9.60721 0.22
502 11 9.94652 1.8511 6.36733 0.06
496 19 10.3289 0.606449 4.84546 -0.35
495 19 12.5909 0.404385 4.19743 -0.35
255 19 10.2058 4.42614 9.76093 -0.35
547 11 13.6471 3.98719 6.16549 0.06
546 2 14.3382 3.35348 6.6825 0.22
548 11 13.7371 2.57388 7.26213 0.06
190 11 9.88054 0.896982 9.63121 0.06
253 9 11.3354 3.98881 9.00445 0.52
256 19 11.8942 2.776 9.35416 -0.35
334 11 17.2346 -0.196094 4.65768 0.06
330 1 17.9409 0.272359 5.27297 0.22
336 11 18.9013 -0.16332 5.08043 0.06
335 11 17.9305 1.24742 4.8178 0.06
328 19 17.4998 0.128871 6.64913 -0.35
325 9 18.1694 0.980046 7.60604 0.52
326 20 19.3795 0.802667 7.8716 -0.5
327 19 17.2838 1.43057 8.62228 -0.35
514 11 20.4786 3.04327 7.56498 0.06
543 19 15.0748 3.05829 5.47277 -0.35
329 1 17.1507 0.490678 9.66885 0.22
545 2 15.3163 4.04668 7.66148 0.22
550 11 15.3028 3.69492 8.66661 0.06
333 11 16.4875 -0.363667 9.38281 0.06
685 2 1.60467 5.97706 5.52034 0.22
688 11 3.25985 6.6787 6.91926 0.06
686 2 2.41326 5.96017 6.82188 0.22
687 11 1.84965 6.10909 7.7238 0.06
683 19 3.44967 5.02681 6.65404 -0.35
157 9 -0.411142 8.15083 9.07205 0.52
158 20 -0.273022 6.94971 8.88058 -0.5
3 19 2.93966 9.19316 5.7096 -0.35
165 11 0.489784 10.2998 7.52849 0.06
7 11 4.44655 9.32031 4.20172 0.06
5 1 3.4296 9.58823 4.41352 0.22
2 20 3.73212 9.16857 7.81472 -0.5
441 11 6.08107 6.09867 7.17106 0.06
437 1 5.94601 6.72804 8.0114 0.22
440 11 6.49684 7.63634 7.80122 0.06
439 11 4.8876 6.89332 7.91933 0.06
447 19 10.0351 4.583 4.53748 -0.35
70 11 7.70938 9.4322 7.5633 0.06
66 1 8.32852 9.48948 8.50098 0.22
435 19 6.25129 6.1002 9.27319 -0.35
433 9 6.2383 6.92642 10.402 0.52
71 11 8.89128 8.58459 8.69372 0.06
261 11 9.22635 5.96685 8.77991 0.06
72 11 7.56658 9.70509 9.25998 0.06
434 20 7.21072 7.6691 10.5741 -0.5
254 20 11.8608 4.70998 8.13127 -0.5
456 11 12.418 7.27337 6.25352 0.06
454 11 10.9594 7.55267 5.30914 0.06
549 11 15.1291 5.15191 7.70944 0.06
448 19 12.0296 5.74138 4.96233 -0.35
455 11 11.0111 6.29221 6.6212 0.06
450 1 11.5546 6.77686 5.79731 0.22
61 9 9.91548 10.7066 9.4689 0.52
64 19 9.10407 10.6239 8.30758 -0.35
63 19 10.8578 9.72329 9.63309 -0.35
470 20 14.2052 8.73293 6.90675 -0.5
68 11 12.2427 10.6096 8.29361 0.06
159 19 20.2068 8.96169 8.07717 -0.35
542 20 16.9884 4.2039 4.73274 -0.5
541 9 16.1043 4.05295 5.52661 0.52
544 19 16.3218 4.65663 6.7761 -0.35
474 1 16.65 8.48613 5.69785 0.22
479 11 17.7113 8.41192 5.55413 0.06
472 19 16.4461 9.27771 6.81982 -0.35
287 11 17.2659 6.71724 8.67786 0.06
478 11 16.2695 8.86001 4.7775 0.06
469 9 15.0718 9.61693 7.05549 0.52
286 11 17.7511 8.18038 9.36975 0.06
288 11 16.0187 7.79125 9.2038 0.06
282 1 16.991 7.41151 9.47166 0.22
163 11 0.146803 9.06847 6.37669 0.06
161 1 -0.318243 9.67625 7.10221 0.22
1 9 3.45266 9.82388 6.82932 0.52
630 11 2.09795 14.3102 7.41697 0.06
11 11 4.95358 12.1309 7.71825 0.06
4 19 3.25942 11.1899 6.93203 -0.35
6 1 4.52412 11.8627 6.75703 0.22
10 11 4.31722 12.7746 6.23335 0.06
164 11 20.2936 10.3011 6.516 0.06
93 11 2.15074 10.9444 9.94867 0.06
12 11 5.31736 11.4328 6.17189 0.06
387 19 6.61182 14.0794 9.20213 -0.35
388 19 8.43876 15.3299 8.13919 -0.35
385 9 7.11578 14.7499 8.13031 0.52
389 1 6.30532 15.0291 10.2284 0.22
392 11 5.70473 14.626 11.0033 0.06
386 20 6.36721 14.8288 7.1269 -0.5
390 1 9.42407 14.705 7.28635 0.22
395 11 10.081 15.4763 6.98567 0.06
32 11 11.0423 12.2263 6.20635 0.06
27 19 9.23282 11.4196 5.46096 -0.35
29 1 10.6544 11.5608 5.38388 0.22
475 11 15.5421 12.4517 6.15169 0.06
394 11 9.0694 14.2681 6.34887 0.06
69 11 12.3947 11.1504 9.96215 0.06
396 11 9.94275 13.9789 7.876 0.06
65 1 12.1062 10.3093 9.36352 0.22
67 11 12.8814 9.53297 9.57342 0.06
42 1 14.5741 14.9631 9.11863 0.22
274 11 18.3674 15.0987 5.086 0.06
276 11 19.4183 14.3456 6.26924 0.06
471 19 14.7138 10.9114 7.42338 -0.35
268 19 17.8844 13.0244 5.29835 -0.35
473 1 14.6193 11.8652 6.30342 0.22
477 11 13.734 12.4714 6.43561 0.06
476 11 14.4009 11.2958 5.38068 0.06
135 19 19.1984 11.9538 8.3594 -0.35
133 9 20.2822 12.5577 9.02081 0.52
136 19 20.6079 13.8917 8.7809 -0.35
137 1 18.3417 11.3294 9.33624 0.22
141 11 18.4237 10.2351 9.4145 0.06
270 1 18.4098 14.2488 5.78697 0.22
275 11 17.7873 14.4911 6.64235 0.06
40 19 14.5461 13.6142 9.45058 -0.35
140 11 17.3509 11.518 8.99415 0.06
627 11 3.05283 16.6454 5.85128 0.06
629 11 1.33843 15.6901 6.51061 0.06
628 11 3.96909 15.2893 6.28497 0.06
291 19 -0.619566 17.153 6.08555 -0.35
626 2 3.31302 16.0391 6.73899 0.22
625 2 2.00356 15.3797 7.30378 0.22
624 19 2.05998 15.2279 8.69421 -0.35
622 20 3.01278 16.8078 10.0576 -0.5
621 9 3.09583 16.1551 9.00038 0.52
623 19 3.9064 16.5881 7.86111 -0.35
289 9 -0.214454 18.416 6.57542 0.52
290 20 0.990945 18.6755 6.69802 -0.5
393 11 7.23873 15.2569 10.7515 0.06
391 11 5.77695 15.9043 9.87504 0.06
528 11 5.13077 18.1866 6.45837 0.06
526 11 6.40229 17.1289 6.18862 0.06
520 19 6.90606 19.1666 5.92186 -0.35
527 11 6.52727 18.25 7.60004 0.06
522 1 6.24472 18.1364 6.54973 0.22
519 19 9.13343 18.7334 4.78496 -0.35
521 1 9.6478 17.4673 4.59583 0.22
517 9 8.31983 18.8533 5.97188 0.52
518 20 8.83402 18.8973 7.09315 -0.5
525 11 9.95911 16.9223 5.48841 0.06
192 11 8.44664 -0.0473353 9.37091 0.06
739 26 14.977 15.4077 5.85609 -0.39
524 11 10.4002 17.5128 3.82785 0.06
537 11 11.2762 19.1883 6.81141 0.06
535 11 12.4285 18.0715 6.13643 0.06
536 11 11.8436 17.8723 7.86004 0.06
533 1 12.1666 18.5864 7.11374 0.22
531 19 12.9932 19.6328 7.50544 -0.35
46 11 13.6951 15.1616 8.50714 0.06
529 9 14.2322 19.2683 8.13685 0.52
530 20 14.2759 19.0675 9.29911 -0.5
144 11 19.5753 14.3157 10.556 0.06
300 11 -0.358842 19.9794 8.85482 0.06
299 11 -0.76482 18.301 9.15398 0.06
538 11 17.0023 18.7455 6.4727 0.06
539 11 16.8188 18.5006 8.28891 0.06
532 19 15.3225 19.478 7.26717 -0.35
534 1 16.3208 18.5076 7.31655 0.22
540 11 16.0122 17.4938 7.2172 0.06
292 19 20.0796 19.0633 7.2287 -0.35
138 1 19.6924 14.7105 9.48856 0.22
298 11 19.1034 19.4851 9.0517 0.06
294 1 20.1567 19.2064 8.66399 0.22
142 11 20.1194 15.6904 9.54663 0.06
507 19 2.51299 3.29935 10.0364 -0.35
516 11 20.5576 4.37374 8.65381 0.06
509 1 3.61165 4.10479 9.58369 0.22
512 11 4.43402 4.15616 10.2179 0.06
678 11 3.45713 -0.864455 10.3374 0.06
676 2 2.76332 -0.634282 11.1217 0.22
673 19 2.68858 -0.0987178 12.4939 -0.35
321 11 2.66085 2.1072 13.7754 0.06
317 1 2.61369 3.18068 13.5012 0.22
316 19 5.77127 2.38547 13.1969 -0.35
319 11 2.13789 3.79907 14.2031 0.06
146 20 0.150847 2.09044 14.9777 -0.5
313 9 5.04849 3.54187 13.644 0.52
315 19 3.74804 3.74719 13.0363 -0.35
320 11 2.0642 3.18158 12.6041 0.06
323 11 4.87897 1.96812 11.3102 0.06
318 1 5.83786 1.95837 11.7953 0.22
322 11 6.15238 0.931186 11.677 0.06
182 20 6.20796 2.7882 8.4567 -0.5
324 11 6.45632 2.67246 11.2666 0.06
191 11 8.48476 1.24358 10.6341 0.06
744 26 7.5658 1.85126 15.9258 -0.39
264 11 12.892 3.9441 10.7104 0.06
263 11 13.4361 2.27238 10.467 0.06
258 1 12.558 2.91133 10.5451 0.22
262 11 11.8794 2.57358 11.3158 0.06
608 11 13.8548 2.81913 13.0635 0.06
603 19 15.201 2.09113 12.7096 -0.35
604 19 15.7412 1.43706 14.9514 -0.35
170 20 12.1495 0.787112 13.301 -0.5
331 11 18.0864 0.0492817 10.0643 0.06
332 11 16.7733 1.04726 10.5366 0.06
601 9 15.8575 1.17641 13.583 0.52
602 20 16.8252 0.550044 13.1722 -0.5
283 11 18.8028 3.33906 11.0948 0.06
153 11 19.5219 -0.0914832 13.3245 0.06
149 1 19.6988 -0.540479 14.3275 0.22
152 11 18.7227 20.6674 14.7377 0.06
511 11 3.25396 5.15612 9.37911 0.06
641 9 0.993792 7.19008 14.719 0.52
649 11 3.69088 7.61703 15.1067 0.06
643 19 1.0418 8.45585 14.0694 -0.35
647 11 3.09564 9.39115 13.7462 0.06
646 2 2.28739 8.97765 14.3948 0.22
438 1 4.81144 7.6416 12.0365 0.22
443 11 5.29813 7.97652 12.9557 0.06
442 11 3.73573 7.36601 12.306 0.06
167 11 -0.0586616 7.28418 11.7538 0.06
402 1 8.5784 5.41241 12.8378 0.22
408 11 7.88579 4.57646 12.6252 0.06
314 20 5.59993 4.46408 14.3399 -0.5
400 19 9.43106 5.10324 13.8982 -0.35
444 11 4.74687 8.5698 11.4441 0.06
436 19 5.47597 6.48546 11.54 -0.35
407 11 8.99572 5.73887 11.8376 0.06
406 11 7.96717 6.19191 13.2347 0.06
205 9 8.65052 9.16753 14.8455 0.52
208 19 8.57108 8.65536 13.5691 -0.35
398 20 11.1163 6.46505 14.7056 -0.5
397 9 10.6897 5.67294 13.8189 0.52
399 19 11.4341 5.42341 12.6378 -0.35
404 11 12.2671 6.37207 11.0041 0.06
401 1 11.8202 6.57294 11.9609 0.22
405 11 10.9583 7.31755 11.8071 0.06
403 11 12.5846 6.96429 12.612 0.06
102 1 11.9156 10.9697 13.2632 0.22
108 11 12.1847 11.442 12.3769 0.06
106 11 10.8767 11.0496 13.4793 0.06
160 19 -0.161628 8.80124 10.2734 -0.35
162 1 20.5759 8.09072 11.4207 0.22
166 11 19.4949 7.84671 11.344 0.06
285 11 17.3798 2.84099 11.9135 0.06
281 1 17.8922 3.72031 11.5572 0.22
284 11 18.1445 4.36422 12.4237 0.06
279 19 16.989 4.32146 10.5691 -0.35
98 20 12.2588 9.26069 15.4243 -0.5
580 11 18.0036 8.43967 16.3626 0.06
642 20 -0.00630136 6.51805 14.6857 -0.5
168 11 -0.568582 8.7949 12.234 0.06
280 19 17.0781 6.80977 10.7521 -0.35
277 9 16.3919 5.57677 10.8665 0.52
278 20 15.2115 5.65782 11.2417 -0.5
579 11 16.9042 8.20451 15.166 0.06
575 2 17.1727 7.8069 16.1466 0.22
89 1 2.82883 11.5452 10.5333 0.22
115 11 0.803419 10.961 12.8302 0.06
116 11 -0.422698 11.0514 14.1428 0.06
113 1 0.043193 11.5793 13.3174 0.22
117 11 -0.777121 11.6949 12.6012 0.06
111 19 0.567997 12.8418 13.7117 -0.35
109 9 -0.205432 13.9738 13.4196 0.52
95 11 3.06489 13.8772 13.3037 0.06
96 11 3.63598 12.6517 14.2668 0.06
112 19 0.229086 14.7041 12.293 -0.35
87 19 3.15574 10.8957 11.7758 -0.35
92 11 3.69242 11.7406 9.97622 0.06
216 11 9.66701 9.66715 12.0864 0.06
86 20 4.95168 10.6956 13.3008 -0.5
91 11 2.32992 12.4849 10.7302 0.06
210 1 8.67681 9.69107 12.5729 0.22
215 11 8.61539 10.7361 12.957 0.06
85 9 4.38649 11.3637 12.4044 0.52
88 19 4.6827 12.777 12.3919 -0.35
637 11 10.0997 14.5984 10.6044 0.06
214 11 7.93419 9.67546 11.7735 0.06
90 1 3.9742 13.3562 13.516 0.22
763 26 8.5283 15.0547 14.1685 -0.39
94 11 4.5768 14.1205 14.0388 0.06
760 26 8.96206 13.1629 15.2238 -0.39
47 11 14.4821 15.6585 9.91722 0.06
638 11 11.2882 13.3325 10.1845 0.06
636 2 11.1211 14.2612 10.7539 0.22
62 20 9.73657 11.5266 10.3138 -0.5
639 11 10.6315 13.5284 12.8487 0.06
635 2 11.3745 14.0738 12.2631 0.22
640 11 12.3577 13.581 12.4059 0.06
107 11 12.2605 11.5476 14.1075 0.06
634 19 11.9241 15.258 12.8028 -0.35
100 19 12.3576 9.57479 13.1818 -0.35
97 9 12.9029 9.2208 14.4038 0.52
134 20 -0.28207 11.8469 9.70757 -0.5
103 11 15.463 9.46037 12.7862 0.06
104 11 14.5942 10.7808 13.3165 0.06
38 20 15.264 12.1695 11.0522 -0.5
139 11 18.3566 11.7951 10.3497 0.06
37 9 15.491 13.2119 10.4653 0.52
101 1 15.0505 9.89092 13.737 0.22
39 19 16.5836 14.0316 10.8558 -0.35
43 11 17.6087 14.8933 12.4281 0.06
41 1 16.7819 14.1508 12.2924 0.22
44 11 16.0651 14.6636 12.8872 0.06
99 19 14.2312 8.91513 14.3625 -0.35
45 11 16.961 13.1731 12.7687 0.06
110 20 20.0805 14.2762 14.091 -0.5
710 11 19.0971 15.7525 16.2679 0.06
680 11 1.95572 18.6258 11.7094 0.06
118 11 1.49926 16.243 12.7973 0.06
671 9 1.80215 20.4403 13.1888 0.52
672 20 1.92252 20.3795 14.4567 -0.5
675 2 1.64193 19.5286 11.1025 0.22
679 11 1.64341 19.0574 10.083 0.06
674 19 1.11184 19.4975 12.3981 -0.35
120 11 -0.171478 16.4679 13.4851 0.06
119 11 0.228999 16.8269 11.7776 0.06
114 1 0.428972 16.084 12.6143 0.22
613 19 4.46557 19.8205 14.9745 -0.35
616 2 4.45973 18.4656 14.5824 0.22
618 11 4.76406 18.828 13.5729 0.06
652 20 6.46797 18.5356 10.3402 -0.5
651 9 7.35253 18.604 11.1896 0.52
654 19 8.05707 17.4698 11.6162 -0.35
653 19 7.4193 19.6773 12.0993 -0.35
657 11 9.24943 19.8048 13.4429 0.06
658 11 7.45242 19.5037 13.3707 0.06
655 2 8.8084 17.7296 12.7871 0.22
656 2 8.43507 19.2016 12.9914 0.22
660 11 8.14128 17.1735 13.3754 0.06
659 11 9.84268 17.7218 13.182 0.06
611 9 5.57254 19.8627 15.9 0.52
614 19 6.30075 18.6571 16.0884 -0.35
615 2 5.61489 17.717 15.2654 0.22
620 11 5.85895 16.8771 14.6236 0.06
179 11 11.9963 19.0118 11.0929 0.06
180 11 12.2787 -0.598072 11.0259 0.06
48 11 15.4444 15.0958 8.48703 0.06
631 9 12.1618 16.0557 11.6815 0.52
632 20 13.0598 16.8994 11.6735 -0.5
633 19 11.7287 15.5421 10.4335 -0.35
178 11 13.542 19.6856 11.8165 0.06
174 1 12.4706 19.8411 11.6322 0.22
172 19 11.7403 19.787 12.833 -0.35
169 9 11.8993 -0.372156 13.6721 0.52
173 1 13.5433 20.3553 15.1912 0.22
171 19 12.0881 20.5823 15.0117 -0.35
176 11 13.9894 0.0395675 15.5866 0.06
568 11 15.4183 16.9402 12.7187 0.06
570 11 16.3963 19.3011 13.0146 0.06
569 11 15.8121 19.5526 11.3264 0.06
143 11 18.7021 14.8631 9.09708 0.06
567 11 15.45 17.1365 11.016 0.06
565 2 16.4302 18.9368 11.9973 0.22
562 20 19.2633 17.493 11.1108 -0.5
564 19 17.7872 19.1341 11.5701 -0.35
561 9 18.1367 17.881 11.0684 0.52
563 19 17.1124 16.8634 11.0321 -0.35
566 2 16.059 17.3404 11.9152 0.22
704 19 17.7705 17.7402 16.1848 -0.35
151 11 19.9471 19.6759 14.228 0.06
155 11 19.6301 4.21493 15.7546 0.06
244 19 2.86719 3.06298 16.7169 -0.35
242 20 3.02936 0.712393 16.6886 -0.5
241 9 3.11512 1.7642 17.3466 0.52
245 1 2.43237 1.10295 19.4659 0.22
243 19 3.48459 1.5876 18.6935 -0.35
246 1 2.44813 4.06888 17.5537 0.22
251 11 2.4417 5.08119 17.1159 0.06
252 11 1.46063 3.92345 18.0466 0.06
250 11 3.21646 4.13907 18.2953 0.06
247 11 1.45794 0.919018 18.9452 0.06
14 20 18.6319 1.23542 20.427 -0.5
154 11 18.2947 4.00733 14.764 0.06
428 11 8.00326 -0.355815 -0.0972113 0.06
733 31 6.50367 -0.0319909 18.1164 1
749 26 5.99748 3.2007 16.7219 -0.39
743 27 7.46548 2.81835 17.189 1.34
747 26 7.03443 1.55803 17.9642 -0.39
745 26 7.28712 3.65227 18.4068 -0.39
746 26 7.92794 4.02144 16.2696 -0.39
748 26 8.94682 2.47326 17.6345 -0.39
49 9 11.6928 1.48892 20.6698 0.52
51 19 12.534 1.47017 19.5298 -0.35
56 11 13.0601 -0.417869 18.7952 0.06
607 11 14.6994 4.2869 13.4828 0.06
606 2 14.7771 3.20119 13.5384 0.22
605 2 14.9786 2.68668 14.982 0.22
610 11 14.042 2.54603 15.4379 0.06
57 11 11.3617 -0.0440104 18.7928 0.06
53 1 12.329 0.34415 18.7616 0.22
560 11 12.2174 3.77228 17.7009 0.06
559 11 13.8644 3.4823 17.9978 0.06
609 11 15.6631 3.41963 15.4941 0.06
55 11 12.4132 0.778876 17.7803 0.06
722 20 15.7045 -0.558064 19.1829 -0.5
15 19 -0.532129 0.314554 20.4315 -0.35
147 19 20.5224 0.103706 15.2956 -0.35
145 9 20.4262 1.48981 15.2581 0.52
22 11 18.8991 19.5431 17.7537 0.06
16 19 18.8227 20.3767 19.6712 -0.35
13 9 19.3452 0.22644 20.3427 0.52
18 1 19.0305 20.4938 18.2481 0.22
23 11 18.288 -0.0927427 17.7538 0.06
148 19 19.1874 2.15802 15.3332 -0.35
156 11 19.9387 3.80364 14.1436 0.06
150 1 19.2567 3.54417 14.9938 0.22
24 11 20.0343 -0.451834 17.9702 0.06
644 19 1.97087 6.95841 15.6 -0.35
645 2 2.78134 8.03489 15.4863 0.22
648 11 1.60733 9.71197 14.8333 0.06
650 11 3.07501 8.71439 16.2619 0.06
356 11 1.72646 10.1982 18.9155 0.06
353 1 0.947515 9.49586 18.6965 0.22
201 11 4.48281 9.18318 18.4633 0.06
207 19 7.41091 9.48596 15.5496 -0.35
734 31 6.27968 4.70834 15.9213 1
197 1 5.35346 8.75317 18.8299 0.22
200 11 6.08539 9.47265 19.3036 0.06
195 19 5.94636 8.11685 17.6734 -0.35
206 20 9.65321 8.95418 15.5249 -0.5
193 9 6.46202 6.84483 17.8823 0.52
194 20 6.24139 5.94292 17.0698 -0.5
196 19 7.41412 6.7638 18.9396 -0.35
202 11 9.23398 6.81422 19.2756 0.06
203 11 8.89503 5.73144 17.8882 0.06
198 1 8.66219 6.69472 18.3704 0.22
204 11 8.96269 7.56153 17.7971 0.06
199 11 5.0703 8.00076 19.4975 0.06
557 11 13.9369 5.50144 19.6579 0.06
555 2 13.1553 4.30004 17.9546 0.22
732 31 11.169 7.8847 15.758 1
556 2 13.005 4.95075 19.406 0.22
554 19 12.5925 5.20121 17.0698 -0.35
551 9 12.2535 6.30107 17.8495 0.52
553 19 12.1815 6.09045 19.2813 -0.35
552 20 11.5545 7.17776 17.2924 -0.5
464 11 14.5824 10.0092 19.7576 0.06
599 11 19.4901 5.02067 19.4619 0.06
595 2 19.916 5.98634 19.2146 0.22
594 19 -0.528364 6.00965 20.3004 -0.35
596 2 18.8614 7.1853 19.3956 0.22
574 19 16.9816 6.43752 16.1676 -0.35
600 11 20.5808 5.98928 18.3461 0.06
577 11 14.9892 8.3253 16.8269 0.06
571 9 16.2574 6.23459 17.3498 0.52
572 20 16.1882 5.19108 17.9671 -0.5
573 19 15.498 7.29543 17.7484 -0.35
576 2 16.0925 8.38066 17.1239 0.22
578 11 16.1082 9.45219 17.2423 0.06
598 11 18.3802 7.34358 18.5138 0.06
350 20 19.6686 10.2203 17.1481 -0.5
351 19 -0.364249 9.99712 19.0006 -0.35
355 11 1.16638 8.52357 19.1283 0.06
382 11 2.8002 14.028 16.1979 0.06
383 11 2.88376 14.2726 17.8133 0.06
378 1 3.5452 14.2059 16.9655 0.22
384 11 3.95805 15.2194 16.7753 0.06
376 19 4.58457 13.1547 17.1122 -0.35
373 9 4.60305 12.4902 18.3736 0.52
374 20 3.87819 11.5221 18.5276 -0.5
358 11 -0.74941 12.8315 16.0475 0.06
379 11 5.45708 14.9381 19.0357 0.06
213 11 7.92347 11.3385 16.4771 0.06
211 11 7.15754 11.5433 14.8155 0.06
375 19 5.66167 12.7762 19.2726 -0.35
131 11 9.01783 13.458 -0.214504 0.06
209 1 7.27261 10.9057 15.7379 0.22
212 11 6.30767 11.1869 16.1456 0.06
757 27 8.35225 14.4923 15.6448 1.34
124 19 9.43297 11.4596 -0.0881987 -0.35
126 1 8.49854 12.5241 -0.398657 0.22
132 11 8.29289 12.6118 19.8136 0.06
758 26 6.93794 13.9493 15.1176 -0.39
762 26 8.06227 13.8077 16.9446 -0.39
759 26 9.77941 14.9477 16.1792 -0.39
129 11 10.0621 10.7484 17.1522 0.06
236 11 8.34767 16.3024 18.7704 0.06
584 19 13.8118 14.1459 15.7403 -0.35
123 19 10.2953 10.6882 19.09 -0.35
463 11 14.4305 11.605 19.099 0.06
121 9 10.4513 11.4235 20.2906 0.52
461 1 14.8485 11.0536 19.9101 0.22
465 11 14.4132 11.5156 20.7676 0.06
587 11 12.2859 14.6842 18.0387 0.06
122 20 11.5342 11.9 -0.558059 -0.5
128 11 11.7297 11.1453 17.6804 0.06
125 1 10.6613 11.28 17.89 0.22
237 11 9.13376 14.8241 18.9839 0.06
127 11 10.5043 12.3569 17.7622 0.06
586 2 13.252 15.1589 17.7672 0.22
583 19 13.3875 13.7622 17.9832 -0.35
581 9 13.7602 13.1934 16.8227 0.52
582 20 14.0265 11.9945 16.6573 -0.5
468 11 16.5074 14.5416 1.21607 0.06
105 11 15.809 10.3392 14.3638 0.06
349 9 20.2843 10.8623 18.0057 0.52
352 19 20.2902 12.2717 18.1619 -0.35
459 19 16.2834 11.1061 19.9515 -0.35
457 9 16.7666 12.4323 19.9839 0.52
359 11 19.0669 13.463 16.8069 0.06
708 11 17.315 14.9758 17.1837 0.06
458 20 17.1645 13.1 19.0271 -0.5
360 11 20.6278 14.0352 17.4326 0.06
354 1 20.0857 13.2003 17.0005 0.22
420 11 -0.0566014 16.4872 -0.121858 0.06
617 11 3.72427 17.6808 14.2835 0.06
248 11 2.68002 0.15914 19.9956 0.06
426 1 4.48291 18.5255 20.3658 0.22
432 11 3.5036 18.6799 19.9181 0.06
430 11 4.81958 17.5073 20.2352 0.06
731 31 2.0341 -0.352857 15.8775 1
753 26 0.367219 17.5729 17.4387 -0.39
756 26 1.65454 17.8159 15.8102 -0.39
750 27 1.67573 18.3692 17.2868 1.34
752 26 2.48426 17.133 17.8181 -0.39
751 26 0.980362 19.6892 16.7686 -0.39
755 26 1.50211 18.9596 18.7471 -0.39
754 26 3.03605 19.2443 17.1622 -0.39
427 11 8.78034 0.48382 19.8465 0.06
425 1 8.4009 -0.575562 20.1808 0.22
612 20 5.90649 -0.463567 16.6768 -0.5
619 11 5.426 17.168 16.1482 0.06
424 19 5.30193 19.3786 19.6274 -0.35
421 9 6.70659 19.1479 19.7019 0.52
423 19 7.48653 20.2166 19.1672 -0.35
761 26 7.80096 15.8986 16.1017 -0.39
238 11 9.97218 19.7722 16.2611 0.06
422 20 7.23028 18.0132 19.8781 -0.5
234 1 9.85961 18.7028 16.5578 0.22
239 11 9.92217 17.9343 15.7598 0.06
240 11 8.85416 18.714 17.0094 0.06
235 11 9.29316 15.8893 20.323 0.06
233 1 9.21891 15.8856 19.242 0.22
589 11 13.0775 16.3916 15.9976 0.06
585 2 13.3086 15.3524 16.1764 0.22
590 11 14.3537 15.3262 15.8012 0.06
175 11 14.1662 20.1697 14.2576 0.06
588 11 13.3643 16.0443 18.4374 0.06
721 9 15.4331 19.891 20.0469 0.52
177 11 13.6806 19.5592 15.9138 0.06
231 19 10.4092 16.3005 18.5884 -0.35
232 19 10.9298 18.3538 17.476 -0.35
229 9 10.5465 17.6932 18.6741 0.52
230 20 10.9241 18.2734 19.7294 -0.5
730 11 13.3561 17.7227 20.192 0.06
725 2 14.2937 18.1222 20.5471 0.22
724 19 15.2483 18.6096 19.6262 -0.35
414 1 20.4722 16.9142 20.4751 0.22
702 20 15.6305 17.4887 15.3381 -0.5
709 11 19.1984 17.2149 17.2962 0.06
705 2 18.4636 16.5751 16.7347 0.22
418 11 20.3058 16.3126 19.5449 0.06
707 11 17.7976 16.0166 18.6849 0.06
706 2 17.4191 15.949 17.6551 0.22
703 19 16.117 16.5657 17.4037 -0.35
729 11 14.9124 17.2872 -0.44122 0.06
701 9 16.3581 17.4408 16.3452 0.52
ITEM: TIMESTEP
450
ITEM: NUMBER OF ATOMS
770
ITEM: BOX BOUNDS pp pp pp
-6.5509546791926709e-01 2.0655095467919367e+01
-6.5509546791926709e-01 2.0655095467919367e+01
-6.5509546791926709e-01 2.0655095467919367e+01
ITEM: ATOMS id type x y z c_charge
74 20 2.19992 0.798631 3.32689 -0.5
73 9 1.04123 0.758272 3.65544 0.52
75 19 -0.00972803 1.46598 3.0096 -0.35
77 1 -0.194698 2.80345 3.44501 0.22
81 11 -0.29351 3.37766 2.51003 0.06
684 19 2.3265 5.09405 4.63461 -0.35
76 19 0.56179 -0.0969744 4.70824 -0.35
309 11 4.15147 3.33045 1.9543 0.06
249 11 1.86496 2.14062 19.8255 0.06
308 11 2.8473 2.44432 1.36217 0.06
305 1 3.16659 3.44887 1.53407 0.22
79 11 20.1643 2.90483 3.99773 0.06
489 11 3.04678 19.556 4.93811 0.06
488 11 3.64606 19.7489 3.26872 0.06
19 11 0.863503 -0.0118511 0.50418 0.06
303 19 3.06982 4.05301 0.240446 -0.35
692 20 6.623 1.40189 0.536108 -0.5
691 9 6.3224 0.832325 1.55692 0.52
694 19 6.29803 -0.638656 1.52971 -0.35
693 19 5.94174 1.38261 2.8058 -0.35
54 1 9.67894 2.89092 0.0924031 0.22
60 11 9.30286 2.122 0.788404 0.06
696 2 5.94965 0.334245 3.78636 0.22
453 11 8.64689 4.8451 2.93606 0.06
698 11 4.91666 0.698033 3.84656 0.06
695 2 6.1746 20.3163 2.98026 0.22
58 11 9.29028 3.80273 0.621665 0.06
59 11 9.1195 2.72913 20.5664 0.06
449 1 9.02338 4.16284 3.72222 0.22
451 11 9.19343 3.1446 3.17098 0.06
699 11 7.21549 20.0238 2.85038 0.06
697 11 6.14853 0.0116728 4.83771 0.06
307 11 2.47297 3.99721 2.16554 0.06
52 19 11.1454 2.77652 -0.0951137 -0.35
348 11 14.7448 1.78682 0.436908 0.06
50 20 11.6848 0.587479 0.292627 -0.5
342 1 14.4361 2.25831 1.3558 0.22
347 11 13.3615 2.48156 1.35962 0.06
338 20 13.7039 4.87436 0.894307 -0.5
337 9 14.8684 4.53133 1.09918 0.52
346 11 14.4917 1.55243 2.1279 0.06
340 19 15.1025 3.39334 1.81781 -0.35
339 19 15.9162 5.40236 0.72344 -0.35
493 9 11.5913 1.10713 4.02131 0.52
497 1 12.8829 20.4304 3.56591 0.22
494 20 11.4085 1.86401 3.06179 -0.5
499 11 12.4894 20.441 2.56492 0.06
343 11 17.3692 4.0895 1.23057 0.06
345 11 17.8446 5.39526 -0.0445574 0.06
341 1 17.0333 4.64907 0.332828 0.22
17 1 -0.14236 -0.337104 0.217738 0.22
20 11 20.5511 -0.291906 1.13541 0.06
80 11 0.663544 3.21461 4.03743 0.06
690 11 1.42856 7.0053 5.15093 0.06
306 1 3.00789 7.70661 0.365701 0.22
311 11 3.91841 8.25966 0.0342496 0.06
312 11 2.09509 8.30524 0.2339 0.06
592 20 -0.587494 7.51691 0.925561 -0.5
8 11 3.28326 8.97726 3.98312 0.06
9 11 2.74794 10.661 4.24872 0.06
301 9 3.73692 5.3623 0.271007 0.52
304 19 2.97926 6.41166 -0.277492 -0.35
310 11 2.98984 7.66071 1.49023 0.06
452 11 8.23177 3.9815 4.34771 0.06
302 20 4.64497 5.60098 1.05292 -0.5
714 19 8.78473 7.66901 3.31365 -0.35
716 2 6.47203 7.74546 3.22544 0.22
713 19 6.82616 7.39588 4.54657 -0.35
711 9 8.20889 7.4595 4.51358 0.52
719 11 7.72812 6.73141 1.76877 0.06
720 11 7.82021 8.5219 1.87439 0.06
715 2 7.73982 7.60714 2.40156 0.22
717 11 5.66024 7.1384 2.89841 0.06
712 20 8.8199 7.47974 5.5483 -0.5
446 20 11.3607 5.40841 2.84643 -0.5
363 19 14.4195 8.8204 1.00309 -0.35
368 11 15.8175 7.882 2.36298 0.06
735 31 12.7446 5.82162 2.06972 1
361 9 13.5322 8.7162 2.10054 0.52
362 20 13.2332 7.64477 2.42481 -0.5
364 19 13.4179 9.72444 3.10953 -0.35
365 1 15.7007 8.47613 1.42577 0.22
369 11 16.0818 7.97056 0.548574 0.06
445 9 11.1896 5.23204 4.08531 0.52
558 11 13.0555 4.13471 20.1234 0.06
591 9 20.1884 7.06049 -0.0799108 0.52
344 11 16.8219 4.04886 -0.561899 0.06
597 11 18.1483 6.99657 18.9685 0.06
593 19 19.2542 7.84027 20.5575 -0.35
367 11 16.2132 9.39231 1.73586 0.06
480 11 16.2492 7.77118 5.33552 0.06
670 11 0.196198 9.89181 1.32512 0.06
669 11 20.5558 10.88 2.24828 0.06
665 2 0.19901 10.9019 1.69764 0.22
664 19 1.48695 10.7258 2.19609 -0.35
661 9 2.2696 11.7361 1.6231 0.52
663 19 1.58666 12.5095 0.624427 -0.35
666 2 0.294187 12.0151 0.518512 0.22
668 11 -0.302654 11.7351 -0.396754 0.06
667 11 -0.33692 12.8262 0.872251 0.06
662 20 3.41043 12.0322 2.02005 -0.5
357 11 0.265927 8.92992 17.3158 0.06
380 11 4.9172 14.6776 20.3622 0.06
381 11 6.65063 14.6176 20.1548 0.06
377 1 5.67458 14.3449 19.6916 0.22
718 11 6.06111 8.7787 3.16777 0.06
36 11 7.28978 13.0666 2.96538 0.06
26 20 8.93529 10.6605 3.31171 -0.5
25 9 8.38287 11.1061 4.31563 0.52
227 11 11.7888 14.6988 2.46272 0.06
222 1 10.7531 14.6573 2.20072 0.22
30 1 6.67387 12.2197 3.09675 0.22
34 11 6.94007 11.6106 2.21853 0.06
28 19 7.00356 11.4052 4.2486 -0.35
35 11 5.56978 12.3852 3.05568 0.06
130 11 7.48494 12.1768 0.120969 0.06
372 11 12.7943 11.6368 3.17137 0.06
370 11 12.4929 10.9072 1.51052 0.06
366 1 12.5366 10.687 2.64755 0.22
371 11 11.5171 10.5327 2.96465 0.06
226 11 10.6391 13.6488 1.83992 0.06
737 26 14.8952 14.2308 4.06264 -0.39
228 11 10.198 14.6666 3.14383 0.06
33 11 11.0043 10.6113 4.98773 0.06
460 19 17.2128 13.1784 -0.396005 -0.35
467 11 15.2558 13.9685 -0.258175 0.06
31 11 10.5907 12.3884 4.91106 0.06
462 1 16.2977 14.0651 0.120994 0.22
466 11 16.5014 15.1509 -0.160085 0.06
266 20 19.9984 12.1901 4.69253 -0.5
272 11 18.2303 11.0828 1.62695 0.06
273 11 16.8269 11.8978 2.46878 0.06
271 11 18.342 12.712 2.08135 0.06
269 1 17.9147 11.7787 2.42122 0.22
267 19 18.3346 11.2447 3.66412 -0.35
265 9 18.8316 12.2635 4.44932 0.52
490 11 0.927091 15.3569 1.62633 0.06
419 11 -0.304691 17.8863 0.0471104 0.06
486 1 1.81188 15.4999 2.25898 0.22
491 11 2.7204 15.4663 1.62603 0.06
492 11 1.9632 14.6267 2.92427 0.06
484 19 1.6726 16.5816 3.18297 -0.35
481 9 1.56782 17.9019 2.71344 0.52
482 20 1.31342 18.106 1.59624 -0.5
483 19 1.7446 18.8778 3.66196 -0.35
487 11 3.60506 18.1721 4.06055 0.06
485 1 3.12007 19.1017 3.96843 0.22
431 11 5.25412 18.6072 0.239263 0.06
295 11 20.4538 18.1114 4.13622 0.06
296 11 20.0627 16.3926 4.10855 0.06
768 26 5.53603 14.7001 1.82834 -0.39
770 26 4.87079 16.7223 2.11565 -0.39
766 26 6.22871 15.7221 3.5408 -0.39
764 27 6.23461 16.06 2.03546 1.34
765 26 6.27031 16.3163 0.560579 -0.39
769 26 7.6499 15.4832 1.94908 -0.39
429 11 9.18458 20.0991 19.8609 0.06
767 26 6.88529 17.4354 2.26505 -0.39
700 11 5.67943 19.3586 3.16616 0.06
225 11 9.5465 18.0933 0.209857 0.06
220 19 10.3823 15.6461 1.24441 -0.35
523 11 8.62987 16.688 3.85518 0.06
223 11 9.19471 18.4017 1.75003 0.06
500 11 13.8703 20.0234 3.51533 0.06
501 11 12.2707 19.7501 4.19279 0.06
736 27 14.7114 15.769 4.23895 1.34
741 26 13.2064 15.5835 4.60874 -0.39
740 26 14.3973 15.9492 2.73601 -0.39
738 26 14.5631 17.3245 4.50293 -0.39
728 11 13.3523 20.2387 -0.247167 0.06
217 9 11.3797 16.632 1.01621 0.52
218 20 12.4048 16.3737 0.336524 -0.5
224 11 10.1264 19.5721 0.841942 0.06
221 1 9.99593 18.5583 1.06651 0.22
219 19 11.1798 17.9179 1.55854 -0.35
727 11 13.6397 18.939 1.01148 0.06
723 19 15.1129 20.4547 -0.254541 -0.35
726 2 14.0579 19.4957 0.137132 0.22
742 26 16.2428 15.9797 3.9913 -0.39
417 11 16.5179 17.7085 1.96221 0.06
409 9 18.837 16.7104 0.86833 0.52
410 20 18.6272 15.5643 1.18255 -0.5
413 1 17.3455 18.3859 1.73317 0.22
415 11 17.2689 19.1977 2.496 0.06
416 11 17.3101 18.9355 0.746643 0.06
411 19 18.6354 17.7245 1.83661 -0.35
293 1 20.1493 17.2718 4.76737 0.22
297 11 19.1239 17.5672 4.9971 0.06
412 19 19.1367 17.0576 -0.448456 -0.35
21 11 -0.154596 19.9728 -0.13536 0.06
689 11 0.706568 5.5354 5.6166 0.06
78 1 0.900852 0.421299 5.94227 0.22
84 11 0.587715 -0.334045 6.64384 0.06
83 11 0.248929 1.24754 6.15616 0.06
82 11 1.94146 0.624365 6.03297 0.06
510 1 -0.494024 3.53949 8.4868 0.22
506 20 1.93534 1.54111 8.50711 -0.5
508 19 0.886984 3.601 8.18569 -0.35
505 9 1.81644 2.70182 8.82678 0.52
188 11 5.34942 0.19046 6.98549 0.06
681 9 3.10299 4.30715 5.40683 0.52
682 20 3.35632 3.16659 4.99693 -0.5
187 11 4.26299 1.43552 7.53255 0.06
513 11 4.04553 4.14366 8.97936 0.06
515 11 20.4571 2.62901 8.98154 0.06
677 11 2.85312 -0.231204 10.0889 0.06
503 11 11.4295 0.583502 6.87354 0.06
498 1 10.7389 1.24675 6.28476 0.22
185 1 4.86681 0.495918 7.865 0.22
189 11 4.22561 -0.33541 8.13143 0.06
183 19 5.81494 0.807995 8.90267 -0.35
181 9 6.7279 1.92803 8.70032 0.52
184 19 8.10535 1.68675 8.79224 -0.35
504 11 11.0794 2.31347 6.33553 0.06
259 11 9.27986 4.04529 7.56911 0.06
257 1 9.13803 4.69708 8.49138 0.22
260 11 8.07128 4.60503 8.86691 0.06
186 1 8.57513 0.800047 9.76019 0.22
502 11 9.7185 1.22764 6.75229 0.06
496 19 10.539 0.771638 4.94033 -0.35
495 19 12.8486 0.491019 4.11358 -0.35
255 19 10.1128 4.38008 9.4827 -0.35
547 11 13.6041 3.94642 6.11112 0.06
546 2 14.4301 3.34031 6.53057 0.22
548 11 14.0999 2.38806 6.82368 0.06
190 11 9.4544 1.28334 10.1107 0.06
253 9 11.4467 4.12388 8.94428 0.52
256 19 11.9623 2.85718 9.21161 -0.35
334 11 17.1604 -0.40445 4.6488 0.06
330 1 17.6832 0.217145 5.41154 0.22
336 11 18.6986 0.501195 5.08808 0.06
335 11 17.0716 1.11917 5.39691 0.06
328 19 17.7907 -0.307722 6.67464 -0.35
325 9 18.2785 0.696974 7.54907 0.52
326 20 19.4707 0.957734 7.64852 -0.5
327 19 17.3728 1.25528 8.45145 -0.35
514 11 20.1776 3.5311 7.53131 0.06
543 19 15.3722 2.76687 5.60494 -0.35
329 1 17.0226 0.390586 9.51721 0.22
545 2 15.1851 4.16484 7.60496 0.22
550 11 15.0561 3.53064 8.52276 0.06
333 11 16.6762 -0.544479 9.14015 0.06
685 2 1.68624 5.98991 5.50479 0.22
688 11 3.15322 6.88552 6.76289 0.06
686 2 2.54929 6.0211 6.79038 0.22
687 11 2.05914 6.02331 7.76902 0.06
683 19 3.39148 4.84878 6.69917 -0.35
157 9 -0.373556 8.2162 8.8408 0.52
158 20 -0.153305 6.98848 8.68368 -0.5
3 19 2.78987 9.21924 5.75981 -0.35
165 11 0.156103 10.3885 7.46661 0.06
7 11 4.39224 10.0951 4.71983 0.06
5 1 3.31245 9.81778 4.62262 0.22
2 20 3.4685 9.10117 7.829 -0.5
441 11 6.15936 5.9936 7.31902 0.06
437 1 6.11632 6.67126 8.21745 0.22
440 11 6.97897 7.34631 8.09011 0.06
439 11 5.14199 7.13698 8.08758 0.06
447 19 10.059 4.58478 4.64122 -0.35
70 11 8.0267 9.60436 7.12609 0.06
66 1 8.33987 9.63895 8.14176 0.22
435 19 6.23715 5.92629 9.38416 -0.35
433 9 6.53104 6.71215 10.4819 0.52
71 11 8.89683 8.69385 8.37953 0.06
261 11 9.20932 5.67675 8.08888 0.06
72 11 7.37868 9.636 8.65924 0.06
434 20 7.50795 7.49433 10.3843 -0.5
254 20 11.8321 4.58698 7.90756 -0.5
456 11 12.4053 6.80413 6.67752 0.06
454 11 11.8289 7.70298 5.45412 0.06
549 11 14.835 5.11962 7.93861 0.06
448 19 12.2201 5.80115 4.90273 -0.35
455 11 10.7895 6.69924 6.33531 0.06
450 1 11.7376 6.73543 5.83951 0.22
61 9 9.97647 10.8078 9.65212 0.52
64 19 9.18932 10.7728 8.44672 -0.35
63 19 11.0647 10.029 9.85468 -0.35
470 20 14.0834 8.7445 7.14589 -0.5
68 11 12.1962 9.9275 8.16012 0.06
159 19 20.1178 8.79869 7.83834 -0.35
542 20 17.0972 3.90401 4.74682 -0.5
541 9 16.3982 3.72254 5.75672 0.52
544 19 16.3297 4.62893 6.93075 -0.35
474 1 16.59 8.77986 5.48784 0.22
479 11 17.6806 8.79033 5.28209 0.06
472 19 16.2719 9.22517 6.80176 -0.35
287 11 17.3408 6.47771 8.48142 0.06
478 11 16.174 9.37904 4.65212 0.06
469 9 14.9149 9.59705 6.9762 0.52
286 11 18.1947 7.81191 9.22744 0.06
288 11 16.4126 7.81376 9.28529 0.06
282 1 17.3303 7.16142 9.35647 0.22
163 11 0.287362 8.96687 6.35284 0.06
161 1 -0.435102 9.58215 6.98229 0.22
1 9 3.30775 9.83683 6.86457 0.52
630 11 2.72605 14.433 7.4877 0.06
11 11 4.8141 11.7518 8.16097 0.06
4 19 3.23806 11.2398 7.03708 -0.35
6 1 4.46507 11.9498 7.15315 0.22
10 11 4.33514 13.0197 6.91701 0.06
164 11 20.182 10.0072 6.21121 0.06
93 11 3.13347 11.3421 9.84891 0.06
12 11 5.1634 11.5041 6.41405 0.06
387 19 6.53676 14.0917 9.19166 -0.35
388 19 8.31612 15.1295 8.06756 -0.35
385 9 7.00124 14.6406 7.98862 0.52
389 1 6.37216 15.0642 10.2223 0.22
392 11 5.45412 14.8694 10.7894 0.06
386 20 6.35082 15.1571 7.10657 -0.5
390 1 9.14962 14.3864 7.24265 0.22
395 11 10.2292 14.6087 7.39919 0.06
32 11 10.8388 11.7523 6.43591 0.06
27 19 9.023 11.1521 5.63053 -0.35
29 1 10.3938 11.4714 5.50443 0.22
475 11 15.2516 12.4333 6.18928 0.06
394 11 9.01997 14.6943 6.2085 0.06
69 11 12.4041 11.4326 9.02106 0.06
396 11 8.95087 13.3017 7.33992 0.06
65 1 12.261 10.3347 9.13094 0.22
67 11 13.1127 9.9631 9.61175 0.06
42 1 14.765 14.9808 9.0821 0.22
274 11 18.5621 14.6875 5.03679 0.06
276 11 18.8801 14.1195 6.60777 0.06
471 19 14.8254 10.9191 7.38251 -0.35
268 19 17.9862 12.7341 5.37646 -0.35
473 1 14.4383 11.7601 6.30905 0.22
477 11 13.5078 12.2926 6.57479 0.06
476 11 14.249 11.3668 5.31953 0.06
135 19 18.9661 11.7705 8.58751 -0.35
133 9 20.1315 12.4027 9.06639 0.52
136 19 20.5684 13.6735 8.69623 -0.35
137 1 18.1368 11.0893 9.54868 0.22
141 11 18.6869 10.2048 9.79389 0.06
270 1 18.1912 14.0545 5.81893 0.22
275 11 17.2824 14.4748 6.2385 0.06
40 19 14.6377 13.6037 9.48036 -0.35
140 11 17.1626 10.78 9.09206 0.06
627 11 2.9824 17.1743 6.35773 0.06
629 11 1.43834 15.3176 6.62974 0.06
628 11 4.12004 15.9322 6.50136 0.06
291 19 -0.425387 16.9241 5.89653 -0.35
626 2 3.26447 16.3667 7.02282 0.22
625 2 2.1442 15.3704 7.46522 0.22
624 19 2.26005 15.2864 8.88257 -0.35
622 20 3.24458 16.757 10.412 -0.5
621 9 3.24161 16.2174 9.28479 0.52
623 19 3.96524 16.7747 8.22231 -0.35
289 9 -0.0967196 18.1889 6.57975 0.52
290 20 1.02665 18.5594 6.59018 -0.5
393 11 7.1468 15.0103 10.9744 0.06
391 11 6.19763 16.0701 9.83502 0.06
528 11 4.8413 18.7108 6.30636 0.06
526 11 5.58945 17.6486 5.40132 0.06
520 19 6.86378 19.2672 5.73665 -0.35
527 11 6.10138 17.7887 7.19417 0.06
522 1 5.84819 18.3169 6.23862 0.22
519 19 8.98177 18.7568 4.73188 -0.35
521 1 9.30176 17.3415 4.42191 0.22
517 9 8.21231 18.8174 5.91302 0.52
518 20 8.73134 18.8658 7.01967 -0.5
525 11 9.53708 16.8463 5.37392 0.06
192 11 9.00829 -0.0674002 9.2188 0.06
739 26 15.0466 15.4444 5.73435 -0.39
524 11 10.277 17.4377 3.92815 0.06
537 11 11.4128 18.7644 6.4741 0.06
535 11 12.7929 17.847 6.78914 0.06
536 11 11.6496 18.0318 8.10239 0.06
533 1 12.1365 18.5324 7.23117 0.22
531 19 12.8356 19.678 7.73267 -0.35
46 11 13.9097 15.3692 8.52883 0.06
529 9 14.1423 19.5159 8.12925 0.52
530 20 14.3563 19.3611 9.37799 -0.5
144 11 19.2933 14.3725 10.2408 0.06
300 11 20.5294 20.2866 8.50198 0.06
299 11 20.5247 18.5383 8.86421 0.06
538 11 16.9262 18.4783 6.93636 0.06
539 11 16.0843 17.9111 8.43499 0.06
532 19 15.1085 19.3913 7.19945 -0.35
534 1 15.9693 18.2763 7.40795 0.22
540 11 15.6419 17.3357 6.96245 0.06
292 19 20.1567 19.043 6.91979 -0.35
138 1 20.0282 14.6368 9.54882 0.22
298 11 19.0427 19.28 8.54141 0.06
294 1 20.0338 19.3379 8.30717 0.22
142 11 -0.545586 15.2447 10.0567 0.06
507 19 2.35097 3.19468 10.019 -0.35
516 11 20.5329 4.33944 9.18333 0.06
509 1 3.41354 4.11854 9.8666 0.22
512 11 4.15029 3.86674 10.7119 0.06
678 11 3.59862 19.6388 10.6495 0.06
676 2 2.85464 20.4368 10.9214 0.22
673 19 3.02916 -0.289596 12.2452 -0.35
321 11 3.08814 2.28125 14.508 0.06
317 1 2.71957 2.9906 13.7907 0.22
316 19 5.66871 2.54143 13.6738 -0.35
319 11 1.98665 3.71513 14.3226 0.06
146 20 0.34637 1.78355 15.0275 -0.5
313 9 4.96665 3.65658 13.8139 0.52
315 19 3.74727 3.75092 13.0941 -0.35
320 11 2.10047 2.28377 13.1711 0.06
323 11 4.77786 1.68272 11.9408 0.06
318 1 5.73319 2.07702 12.3091 0.22
322 11 6.35461 1.17462 12.3895 0.06
182 20 6.30908 3.09657 8.67496 -0.5
324 11 6.12698 2.88135 11.6825 0.06
191 11 7.95868 0.610322 10.6686 0.06
744 26 7.73687 1.85322 16.2613 -0.39
264 11 13.4891 3.57334 10.6107 0.06
263 11 13.3703 1.83091 10.4123 0.06
258 1 12.7507 2.76261 10.4516 0.22
262 11 12.1363 2.68551 11.3731 0.06
608 11 13.6635 3.20353 13.5238 0.06
603 19 15.4013 2.35549 12.7007 -0.35
604 19 15.9283 1.56416 14.8808 -0.35
170 20 12.1811 0.695176 13.4515 -0.5
331 11 17.8523 0.13577 10.1542 0.06
332 11 16.3444 0.833505 10.2418 0.06
601 9 16.0996 1.39533 13.4876 0.52
602 20 16.8978 0.600382 13.0218 -0.5
283 11 18.842 4.52103 11.4839 0.06
153 11 19.8637 0.109852 13.3983 0.06
149 1 19.6291 -0.531837 14.2536 0.22
152 11 18.5037 -0.562027 14.321 0.06
511 11 3.03375 5.06624 10.0996 0.06
641 9 1.03706 7.25443 14.5851 0.52
649 11 3.79203 7.62528 15.0659 0.06
643 19 1.12033 8.49959 13.8744 -0.35
647 11 2.64192 8.83909 13.3949 0.06
646 2 2.24759 9.09382 14.3683 0.22
438 1 5.20505 7.56424 12.2768 0.22
443 11 5.83709 8.45207 12.0602 0.06
442 11 4.98391 7.46898 13.2958 0.06
167 11 0.63327 7.62893 11.4532 0.06
402 1 8.57071 5.31392 13.0115 0.22
408 11 8.01955 4.49302 12.5967 0.06
314 20 5.29618 4.45265 14.6899 -0.5
400 19 9.51116 4.80882 13.9796 -0.35
444 11 4.27747 7.74685 11.7236 0.06
436 19 5.7913 6.39144 11.7203 -0.35
407 11 9.06232 5.60877 12.1388 0.06
406 11 7.86752 6.11656 13.31 0.06
205 9 8.63759 8.93352 14.7626 0.52
208 19 8.64773 8.52829 13.4596 -0.35
398 20 10.991 6.33443 14.7698 -0.5
397 9 10.7476 5.46922 13.9448 0.52
399 19 11.611 5.247 12.825 -0.35
404 11 12.1706 6.2549 11.0757 0.06
401 1 11.8696 6.50409 12.1124 0.22
405 11 11.0067 7.04375 11.9801 0.06
403 11 12.6721 7.10774 12.5687 0.06
102 1 11.7867 11.0769 13.3497 0.22
108 11 11.4231 11.0275 12.2862 0.06
106 11 10.9963 11.3649 14.0666 0.06
160 19 -0.244387 8.8711 10.0829 -0.35
162 1 -0.377607 7.89551 11.1017 0.22
166 11 20.3726 7.04906 10.7998 0.06
285 11 18.074 2.92751 11.6791 0.06
281 1 17.88 4.02353 11.5905 0.22
284 11 17.5082 4.27769 12.593 0.06
279 19 17.0344 4.32365 10.5137 -0.35
98 20 12.1813 8.93774 15.5476 -0.5
580 11 17.5738 8.69177 15.7474 0.06
642 20 -0.0465592 6.64392 14.5807 -0.5
168 11 20.3717 8.18199 11.9842 0.06
280 19 17.4314 6.63824 10.6464 -0.35
277 9 16.518 5.58415 10.7873 0.52
278 20 15.3634 5.74505 11.1481 -0.5
579 11 16.2557 7.72383 15.2593 0.06
575 2 16.9881 7.78989 16.0605 0.22
89 1 2.99003 11.9088 10.7836 0.22
115 11 0.204858 11.2726 12.9303 0.06
116 11 20.321 11.3528 14.1791 0.06
113 1 -0.475908 11.9486 13.4385 0.22
117 11 20.0433 12.09 12.7149 0.06
111 19 0.229165 13.0354 13.9746 -0.35
109 9 -0.330176 14.3061 13.6778 0.52
95 11 3.61365 14.4028 12.9821 0.06
96 11 3.06345 12.9016 13.7686 0.06
112 19 0.0231336 14.8957 12.4301 -0.35
87 19 3.25331 11.1104 11.9871 -0.35
92 11 3.64214 12.8364 10.6615 0.06
216 11 9.92294 9.45707 12.1777 0.06
86 20 5.08594 10.5807 13.3722 -0.5
91 11 1.96733 12.2994 10.6767 0.06
210 1 8.91697 9.59399 12.5635 0.22
215 11 8.79657 10.5661 13.0373 0.06
85 9 4.56233 11.4317 12.6259 0.52
88 19 4.94273 12.8434 12.7914 -0.35
637 11 10.4782 14.0554 10.1308 0.06
214 11 8.17686 9.53626 11.7712 0.06
90 1 3.9618 13.5293 13.5535 0.22
763 26 8.64749 15.1469 14.2868 -0.39
94 11 4.43261 13.999 14.3941 0.06
760 26 9.00974 13.2991 15.0979 -0.39
47 11 14.6129 15.5296 10.0234 0.06
638 11 12.1862 13.6174 10.3898 0.06
636 2 11.4172 14.3332 10.6299 0.22
62 20 9.76459 11.6853 10.5123 -0.5
639 11 10.4574 13.7489 12.3456 0.06
635 2 11.2806 14.4161 12.1723 0.22
640 11 12.1311 14.0142 12.7454 0.06
107 11 12.6601 11.743 13.5184 0.06
634 19 12.1987 15.3471 12.6359 -0.35
100 19 11.996 9.71058 13.516 -0.35
97 9 12.825 9.417 14.6026 0.52
134 20 -0.503866 11.8767 9.97243 -0.5
103 11 15.3255 9.2354 12.7191 0.06
104 11 14.7523 10.7445 13.4788 0.06
38 20 15.3062 12.0889 11.0276 -0.5
139 11 18.0259 11.7423 10.3976 0.06
37 9 15.3981 13.2332 10.5968 0.52
101 1 15.0419 9.69617 13.6278 0.22
39 19 16.5044 13.9316 10.9355 -0.35
43 11 17.1887 14.8743 12.5846 0.06
41 1 16.6362 14.0367 12.3116 0.22
44 11 15.7699 14.3309 12.9192 0.06
99 19 14.087 8.83725 14.3117 -0.35
45 11 16.9412 13.1092 12.7326 0.06
110 20 19.9647 14.6162 14.3378 -0.5
710 11 18.9322 16.0997 16.4307 0.06
680 11 1.44599 18.7468 10.5581 0.06
118 11 1.4228 16.2121 13.2736 0.06
671 9 1.98069 20.5062 13.071 0.52
672 20 1.8083 -0.471207 14.1903 -0.5
675 2 1.44916 19.7211 10.9706 0.22
679 11 0.613266 20.4067 10.7556 0.06
674 19 1.23244 19.4986 12.3378 -0.35
120 11 -0.299132 16.7806 13.0446 0.06
119 11 0.824844 16.6132 11.7315 0.06
114 1 0.525487 16.2106 12.6654 0.22
613 19 4.7155 20.0204 15.0917 -0.35
616 2 4.6289 18.741 14.6077 0.22
618 11 5.11109 18.9264 13.6699 0.06
652 20 6.33495 18.6467 10.2681 -0.5
651 9 7.27065 18.8126 11.0694 0.52
654 19 7.90929 17.7313 11.6431 -0.35
653 19 7.49711 20.0112 11.83 -0.35
657 11 8.92977 20.3724 13.0379 0.06
658 11 7.48229 19.6896 13.7911 0.06
655 2 8.68456 18.1737 12.7596 0.22
656 2 8.17486 19.6204 12.9642 0.22
660 11 7.99747 17.5423 13.3609 0.06
659 11 9.69973 18.0694 13.1055 0.06
611 9 5.90479 19.9497 15.9169 0.52
614 19 6.60887 18.6671 15.941 -0.35
615 2 5.64744 17.8444 15.3677 0.22
620 11 6.58181 17.6429 14.8299 0.06
179 11 12.1638 19.4165 10.6956 0.06
180 11 12.7552 -0.351614 11.2037 0.06
48 11 15.7023 15.2749 8.57583 0.06
631 9 12.3982 16.2131 11.5265 0.52
632 20 13.2129 17.1506 11.5154 -0.5
633 19 11.9897 15.5731 10.2706 -0.35
178 11 13.5361 19.5994 11.8187 0.06
174 1 12.5473 19.9228 11.5585 0.22
172 19 11.7172 19.994 12.7637 -0.35
169 9 12.3698 -0.453139 13.7101 0.52
173 1 13.7469 20.2913 15.5739 0.22
171 19 12.4515 20.5102 15.094 -0.35
176 11 13.9863 -0.277364 16.251 0.06
568 11 15.563 17.0711 12.5331 0.06
570 11 16.4082 19.191 13.1401 0.06
569 11 16.1211 19.7158 11.3546 0.06
143 11 19.524 15.4307 8.97795 0.06
567 11 15.4906 17.4947 10.8245 0.06
565 2 16.4412 18.9658 12.0565 0.22
562 20 19.4788 17.7062 11.0728 -0.5
564 19 17.7179 19.2772 11.4827 -0.35
561 9 18.2428 17.9632 11.2586 0.52
563 19 17.2167 16.9235 11.1295 -0.35
566 2 16.0817 17.5439 11.7015 0.22
704 19 17.693 17.7688 16.0566 -0.35
151 11 19.9492 19.7656 13.9769 0.06
155 11 19.9371 4.1203 15.3123 0.06
244 19 2.92806 3.15875 16.698 -0.35
242 20 3.05694 0.810249 16.6222 -0.5
241 9 3.17097 1.8674 17.273 0.52
245 1 2.4573 1.35802 19.3907 0.22
243 19 3.585 1.88188 18.6355 -0.35
246 1 2.38217 4.0788 17.6968 0.22
251 11 2.05503 4.97895 17.2189 0.06
252 11 1.44967 3.73591 18.0972 0.06
250 11 3.0253 4.457 18.5254 0.06
247 11 1.74482 0.751503 18.8293 0.06
14 20 18.3328 0.766305 -0.486756 -0.5
154 11 18.3196 3.854 14.8644 0.06
428 11 8.00031 -0.465699 -0.342152 0.06
733 31 6.06851 0.295758 18.2872 1
749 26 6.06248 3.01309 17.0312 -0.39
743 27 7.5678 2.80438 17.4531 1.34
747 26 7.10639 1.63962 18.3566 -0.39
745 26 7.35594 3.7605 18.6361 -0.39
746 26 7.89372 3.97268 16.4871 -0.39
748 26 9.05857 2.51699 17.8005 -0.39
49 9 11.4928 1.48626 -0.572512 0.52
51 19 12.2753 1.44522 19.5425 -0.35
56 11 13.2281 -0.149675 18.6714 0.06
607 11 15.1701 4.13429 13.5326 0.06
606 2 14.7335 3.13417 13.6869 0.22
605 2 15.0792 2.66472 15.0753 0.22
610 11 14.4693 1.75134 15.355 0.06
57 11 11.6634 20.6317 19.2291 0.06
53 1 12.2001 0.217597 18.8192 0.22
560 11 12.5208 3.55614 17.8776 0.06
559 11 14.209 3.79403 17.9479 0.06
609 11 14.9946 3.49762 15.7401 0.06
55 11 11.8342 0.228078 17.7883 0.06
722 20 16.1254 -0.349591 19.0885 -0.5
15 19 20.6118 0.467094 20.559 -0.35
147 19 20.2109 0.0011179 15.3937 -0.35
145 9 20.4844 1.39522 15.275 0.52
22 11 18.9957 19.4304 17.7525 0.06
16 19 19.0904 20.2076 19.6532 -0.35
13 9 19.2708 0.105773 20.3654 0.52
18 1 19.2743 20.3528 18.2715 0.22
23 11 18.5983 -0.195133 17.9655 0.06
148 19 19.319 2.17836 15.2048 -0.35
156 11 19.666 3.55016 13.708 0.06
150 1 19.3224 3.47386 14.6998 0.22
24 11 20.2945 -0.675183 18.0329 0.06
644 19 2.10945 6.88714 15.3682 -0.35
645 2 2.8453 8.06921 15.4371 0.22
648 11 2.49441 10.1299 14.5648 0.06
650 11 3.12366 8.67175 16.3162 0.06
356 11 1.47642 9.79314 18.4711 0.06
353 1 0.493743 9.33214 18.2886 0.22
201 11 4.0787 9.09188 18.3796 0.06
207 19 7.39297 9.41405 15.301 -0.35
734 31 6.42837 4.7969 15.9389 1
197 1 5.15223 8.81247 18.6694 0.22
200 11 5.65546 9.71305 18.8492 0.06
195 19 5.72406 8.20994 17.503 -0.35
206 20 9.34036 8.32451 15.5916 -0.5
193 9 6.54216 7.11597 17.6711 0.52
194 20 6.35622 6.05896 17.0447 -0.5
196 19 7.4006 7.09186 18.8064 -0.35
202 11 9.1456 5.69954 18.8643 0.06
203 11 8.85053 6.628 17.4642 0.06
198 1 8.76345 6.6772 18.5255 0.22
204 11 9.53702 7.40223 18.8156 0.06
199 11 5.11087 8.35266 19.7089 0.06
557 11 14.0246 5.50815 19.6073 0.06
555 2 13.2644 4.32483 18.0086 0.22
732 31 10.996 7.70013 15.8916 1
556 2 13.0989 4.96211 19.3931 0.22
554 19 12.6363 5.16914 17.0811 -0.35
551 9 12.0075 6.12969 17.9013 0.52
553 19 12.2365 6.07227 19.329 -0.35
552 20 11.5475 7.1728 17.425 -0.5
464 11 14.4372 10.2727 19.6026 0.06
599 11 19.4082 5.13528 18.9285 0.06
595 2 20.0159 5.97323 19.2671 0.22
594 19 -0.501312 6.13782 20.3422 -0.35
596 2 19.1627 7.28913 19.2688 0.22
574 19 17.129 6.3928 16.2738 -0.35
600 11 -0.464536 6.11352 18.5765 0.06
577 11 15.5644 9.10751 16.9997 0.06
571 9 16.2151 6.11445 17.312 0.52
572 20 16.2761 5.03041 17.8888 -0.5
573 19 15.8567 7.23231 18.0432 -0.35
576 2 16.169 8.30125 17.2628 0.22
578 11 16.7486 8.81691 18.0547 0.06
598 11 19.6338 8.11141 18.6587 0.06
350 20 19.5081 10.2893 17.1524 -0.5
351 19 -0.402362 10.2605 18.9006 -0.35
355 11 0.552629 8.4981 18.9977 0.06
382 11 3.21645 14.5696 16.303 0.06
383 11 2.46901 13.6342 17.6002 0.06
378 1 3.41092 14.1691 17.3005 0.22
384 11 3.63762 15.0116 17.9225 0.06
376 19 4.52041 13.4018 17.2158 -0.35
373 9 4.66653 12.6635 18.441 0.52
374 20 4.02097 11.6762 18.6181 -0.5
358 11 19.2253 12.5167 15.9998 0.06
379 11 5.63391 14.9648 18.803 0.06
213 11 8.19673 11.0477 16.1211 0.06
211 11 7.30731 11.2832 14.6173 0.06
375 19 5.6905 12.993 19.3962 -0.35
131 11 8.86023 13.2149 0.407975 0.06
209 1 7.37129 10.7278 15.4944 0.22
212 11 6.46378 11.08 15.9496 0.06
757 27 8.35762 14.5491 15.6792 1.34
124 19 9.12679 11.2756 -0.239534 -0.35
126 1 8.42272 12.4776 -0.270695 0.22
132 11 8.15551 12.9403 20.0987 0.06
758 26 6.91377 14.0301 15.2352 -0.39
762 26 8.16694 13.8913 17.0258 -0.39
759 26 9.80446 15.0231 16.1192 -0.39
129 11 10.7474 10.6649 17.0008 0.06
236 11 8.43834 15.7612 18.6866 0.06
584 19 14.0523 14.0934 15.6002 -0.35
123 19 10.1956 10.3786 19.0629 -0.35
463 11 14.417 11.9946 19.4995 0.06
121 9 10.3003 11.1384 20.2974 0.52
461 1 14.8463 11.1539 20.0664 0.22
465 11 14.4651 11.3835 -0.240896 0.06
587 11 12.5137 14.3998 18.12 0.06
122 20 11.3607 11.5989 20.6384 -0.5
128 11 11.9672 11.1184 18.2447 0.06
125 1 10.9025 11.0654 18.0004 0.22
237 11 9.41489 14.8894 19.8847 0.06
127 11 10.6788 12.1272 17.9534 0.06
586 2 13.2888 14.9816 17.6312 0.22
583 19 13.4271 13.6276 17.8578 -0.35
581 9 14.0497 13.1866 16.7368 0.52
582 20 14.2112 11.9936 16.5415 -0.5
468 11 16.3609 13.9146 1.19803 0.06
105 11 15.8813 9.69882 14.3472 0.06
349 9 20.199 10.9323 17.9183 0.52
352 19 19.9441 12.2569 18.0957 -0.35
459 19 16.2927 11.0939 20.0408 -0.35
457 9 16.7512 12.4088 19.8498 0.52
359 11 19.0896 13.7839 16.9597 0.06
708 11 17.0249 15.0726 16.9957 0.06
458 20 16.7477 12.9427 18.7743 -0.5
360 11 -0.539485 13.23 16.5331 0.06
354 1 19.7881 12.9293 16.8852 0.22
420 11 -0.303431 16.1975 -0.141311 0.06
617 11 3.8101 18.1853 14.2372 0.06
248 11 2.77758 0.72362 20.2151 0.06
426 1 4.52734 18.9351 -0.481675 0.22
432 11 3.71069 19.5116 -0.0781277 0.06
430 11 4.15286 17.9473 20.5288 0.06
731 31 2.10977 -0.511569 15.7726 1
753 26 0.121683 17.8068 17.2574 -0.39
756 26 1.92061 17.7295 15.9214 -0.39
750 27 1.58896 18.3712 17.3416 1.34
752 26 2.13476 17.0992 17.9972 -0.39
751 26 1.03122 19.7366 16.749 -0.39
755 26 1.32459 18.9976 18.7707 -0.39
754 26 2.97428 19.0551 17.262 -0.39
427 11 8.67084 0.452346 19.8043 0.06
425 1 8.39335 -0.50023 19.9823 0.22
612 20 6.08115 -0.648816 16.8757 -0.5
619 11 5.28193 16.7809 15.3314 0.06
424 19 5.17918 19.7081 19.7649 -0.35
421 9 6.53104 19.2846 19.5581 0.52
423 19 7.33364 20.3535 19.101 -0.35
761 26 7.59957 15.7772 16.2511 -0.39
238 11 9.87596 19.6646 16.4952 0.06
422 20 6.91975 18.1615 19.6956 -0.5
234 1 9.73786 18.6626 16.7829 0.22
239 11 9.49512 17.9637 16.0216 0.06
240 11 8.92655 18.7465 17.4799 0.06
235 11 9.02079 16.4955 20.2001 0.06
233 1 9.30123 15.829 19.3482 0.22
589 11 12.2285 15.2909 15.7383 0.06
585 2 13.2726 15.1797 16.0451 0.22
590 11 13.8841 15.9959 15.6897 0.06
175 11 14.4904 20.3926 14.8387 0.06
588 11 13.3426 15.9461 18.0616 0.06
721 9 15.5621 20.1414 19.7656 0.52
177 11 13.704 19.2909 16.0521 0.06
231 19 10.455 16.2164 18.6381 -0.35
232 19 10.9446 18.1266 17.307 -0.35
229 9 10.8228 17.5642 18.5887 0.52
230 20 10.737 18.3341 19.5636 -0.5
730 11 13.5205 18.1309 19.7611 0.06
725 2 14.3555 18.3603 20.4425 0.22
724 19 15.1247 18.9509 19.3045 -0.35
414 1 20.5721 17.0861 -0.567932 0.22
702 20 15.4719 17.7712 15.1826 -0.5
709 11 18.9056 17.1098 17.7258 0.06
705 2 18.2886 16.767 16.9463 0.22
418 11 -0.426882 17.241 19.7253 0.06
707 11 17.558 15.8061 18.5644 0.06
706 2 17.1441 15.9807 17.5753 0.22
703 19 15.8814 16.6602 17.1712 -0.35
729 11 14.5854 17.4305 -0.303825 0.06
701 9 16.2291 17.5925 16.1653 0.52
ITEM: TIMESTEP
500
ITEM: NUMBER OF ATOMS
770
ITEM: BOX BOUNDS pp pp pp
-6.6282093815070908e-01 2.0662820938150801e+01
-6.6282093815070908e-01 2.0662820938150801e+01
-6.6282093815070908e-01 2.0662820938150801e+01
ITEM: ATOMS id type x y z c_charge
74 20 2.22985 0.590341 3.07938 -0.5
73 9 1.07297 0.640306 3.54969 0.52
75 19 0.0487835 1.26968 2.93723 -0.35
77 1 -0.265329 2.53682 3.4848 0.22
81 11 20.3082 3.02941 2.8588 0.06
684 19 2.18055 4.90396 4.7019 -0.35
76 19 0.631546 -0.0828059 4.6631 -0.35
309 11 3.79941 3.28018 2.03194 0.06
249 11 1.87802 1.95893 19.7201 0.06
308 11 2.67904 2.273 1.19506 0.06
305 1 2.91152 3.31659 1.40659 0.22
79 11 20.6471 2.44159 4.49335 0.06
489 11 2.86067 19.8486 4.71346 0.06
488 11 3.42786 19.1187 3.27128 0.06
19 11 0.661546 0.372502 0.777794 0.06
303 19 3.36037 4.0716 0.238178 -0.35
692 20 6.918 1.51873 0.400867 -0.5
691 9 6.25708 0.897313 1.26226 0.52
694 19 6.43978 -0.516328 1.37649 -0.35
693 19 5.95616 1.47465 2.4575 -0.35
54 1 9.57829 2.69981 0.167004 0.22
60 11 9.12893 1.81202 0.570916 0.06
696 2 5.66482 0.505654 3.40732 0.22
453 11 8.81426 5.0752 3.38138 0.06
698 11 4.88983 0.085594 4.03087 0.06
695 2 6.36538 20.619 2.76187 0.22
58 11 9.36078 3.42016 0.886247 0.06
59 11 9.17592 2.97332 20.4387 0.06
449 1 9.17427 4.2107 3.9781 0.22
451 11 9.67507 3.62433 3.28126 0.06
699 11 7.42716 20.5107 3.02527 0.06
697 11 6.22078 1.14859 4.03934 0.06
307 11 2.09016 3.85278 1.8674 0.06
52 19 10.9381 2.76513 0.0977122 -0.35
348 11 14.6456 1.98886 0.571844 0.06
50 20 11.4392 0.460401 0.221543 -0.5
342 1 14.8179 1.99078 1.66522 0.22
347 11 14.0036 1.45019 2.08912 0.06
338 20 13.9093 4.98365 1.32672 -0.5
337 9 14.8887 4.31332 1.06806 0.52
346 11 15.7164 1.27534 1.73038 0.06
340 19 15.0712 3.32804 2.0984 -0.35
339 19 15.9706 5.20113 0.690346 -0.35
493 9 11.7659 1.1995 4.02901 0.52
497 1 12.8581 20.6212 3.52209 0.22
494 20 11.6297 1.98771 3.10961 -0.5
499 11 12.3517 20.7402 2.54864 0.06
343 11 17.2479 3.53459 0.365422 0.06
345 11 17.9871 5.01174 0.631409 0.06
341 1 17.1766 4.59625 0.221044 0.22
17 1 0.00888334 -0.285645 0.219555 0.22
20 11 20.8186 20.3642 0.911527 0.06
80 11 0.611618 3.15567 3.51819 0.06
690 11 1.48585 6.97224 5.19711 0.06
306 1 2.76143 7.67107 0.599044 0.22
311 11 3.23663 8.43205 0.0645328 0.06
312 11 1.75666 7.92921 0.857329 0.06
592 20 20.5799 7.56366 1.13841 -0.5
8 11 2.8089 9.66476 3.69398 0.06
9 11 2.90428 11.0886 4.77701 0.06
301 9 3.60857 5.48442 0.562396 0.52
304 19 2.8169 6.4355 -0.0811072 -0.35
310 11 3.0934 7.70317 1.60902 0.06
452 11 8.33269 3.62215 4.52064 0.06
302 20 4.75233 5.86109 0.901205 -0.5
714 19 8.6073 7.5904 3.38365 -0.35
716 2 6.29835 7.52526 3.28015 0.22
713 19 6.66572 7.57878 4.6841 -0.35
711 9 8.07108 7.58337 4.61414 0.52
719 11 7.58904 7.51739 1.56119 0.06
720 11 7.48985 9.09242 2.37191 0.06
715 2 7.55939 7.9887 2.54642 0.22
717 11 6.17682 6.41887 3.28763 0.06
712 20 8.78052 7.51983 5.58811 -0.5
446 20 11.4771 5.15454 2.98577 -0.5
363 19 14.3134 8.59632 0.998595 -0.35
368 11 15.6661 7.92841 2.47184 0.06
735 31 12.6232 5.68969 2.07051 1
361 9 13.3366 8.58315 1.94969 0.52
362 20 12.7625 7.5049 2.26164 -0.5
364 19 13.2968 9.61034 2.82971 -0.35
365 1 15.6807 8.33782 1.46643 0.22
369 11 16.1965 7.75979 0.69346 0.06
445 9 11.2388 5.34905 4.11714 0.52
558 11 12.965 4.20537 20.1602 0.06
591 9 20.3042 7.24298 -0.0573327 0.52
344 11 17.3571 4.84811 20.5306 0.06
597 11 18.2318 7.02845 19.2722 0.06
593 19 19.2474 7.73634 20.5523 -0.35
367 11 16.2215 9.28314 1.67393 0.06
480 11 15.9181 8.21269 4.93379 0.06
670 11 -0.873817 10.2453 1.08078 0.06
669 11 -0.548588 11.1811 2.43386 0.06
665 2 -0.0547007 10.8066 1.55058 0.22
664 19 1.14858 10.598 2.25647 -0.35
661 9 2.16865 11.3651 1.61217 0.52
663 19 1.68382 12.157 0.553433 -0.35
666 2 0.309235 11.9773 0.634486 0.22
668 11 0.112049 11.649 -0.335451 0.06
667 11 -0.209689 12.9154 0.839053 0.06
662 20 3.25788 11.7209 2.1476 -0.5
357 11 0.191956 8.74347 17.5069 0.06
380 11 5.08033 14.9381 19.6751 0.06
381 11 6.83794 14.5998 20.1123 0.06
377 1 6.02965 14.4291 19.4089 0.22
718 11 5.43632 7.73599 2.67241 0.06
36 11 7.23465 13.0058 3.13465 0.06
26 20 8.83147 10.6636 3.3023 -0.5
25 9 8.19435 11.0034 4.35019 0.52
227 11 12.0104 14.2731 1.29032 0.06
222 1 11.1577 14.6731 1.88098 0.22
30 1 6.52845 12.1035 3.09023 0.22
34 11 6.8152 11.7135 2.08909 0.06
28 19 6.81608 11.3624 4.24407 -0.35
35 11 5.50851 12.4116 3.03161 0.06
130 11 7.37512 12.0805 -0.129874 0.06
372 11 12.5604 11.4103 3.32937 0.06
370 11 12.9159 11.2266 1.63348 0.06
366 1 12.5399 10.7451 2.47711 0.22
371 11 11.4471 10.5981 2.33977 0.06
226 11 10.4091 13.9135 2.12372 0.06
737 26 14.7752 14.0899 3.92473 -0.39
228 11 11.4842 14.9773 2.85314 0.06
33 11 10.4528 10.3532 5.15664 0.06
460 19 17.1657 13.0655 -0.58208 -0.35
467 11 15.2172 13.9061 -0.430139 0.06
31 11 10.5263 11.9935 4.7721 0.06
462 1 16.2033 14.0547 -0.0978192 0.22
466 11 16.48 14.895 -0.603043 0.06
266 20 19.9091 12.1511 4.50376 -0.5
272 11 17.9423 11.3263 1.43051 0.06
273 11 16.6649 12.1144 2.40234 0.06
271 11 18.2455 12.8193 2.11289 0.06
269 1 17.7185 11.8862 2.31698 0.22
267 19 18.1383 11.1097 3.4391 -0.35
265 9 18.7146 11.8407 4.56188 0.52
490 11 1.13688 14.9191 1.82449 0.06
419 11 -0.548245 17.7044 -0.0504976 0.06
486 1 2.07496 15.396 2.01526 0.22
491 11 2.5093 15.7462 1.106 0.06
492 11 2.81027 14.7166 2.37987 0.06
484 19 1.89544 16.3061 3.06885 -0.35
481 9 1.73077 17.6114 2.73301 0.52
482 20 1.43858 17.8877 1.55331 -0.5
483 19 1.61535 18.5014 3.72228 -0.35
487 11 3.46457 18.0866 4.66879 0.06
485 1 2.87256 18.8946 4.17059 0.22
431 11 5.05478 18.6409 0.372528 0.06
295 11 20.2422 18.0392 4.09864 0.06
296 11 20.1535 16.2606 3.78314 0.06
768 26 5.68929 14.7295 1.97891 -0.39
770 26 4.92976 16.7574 2.30384 -0.39
766 26 6.49797 15.9923 3.56793 -0.39
764 27 6.30552 16.1071 2.05402 1.34
765 26 6.04509 16.2942 0.558827 -0.39
769 26 7.61795 15.351 1.78737 -0.39
429 11 9.13798 20.3147 18.9562 0.06
767 26 6.91689 17.5375 2.10895 -0.39
700 11 5.90681 19.6684 3.0149 0.06
225 11 9.6071 18.2972 0.472593 0.06
220 19 10.5341 15.7477 1.21898 -0.35
523 11 8.54521 16.7144 4.53764 0.06
223 11 9.28272 18.6006 2.17958 0.06
500 11 13.8741 20.2503 3.27622 0.06
501 11 12.364 19.8732 4.11815 0.06
736 27 14.6325 15.6755 4.14882 1.34
741 26 13.127 15.4659 4.46414 -0.39
740 26 14.3393 15.9068 2.64932 -0.39
738 26 14.5457 17.1421 4.55584 -0.39
728 11 13.4084 20.2585 -0.211628 0.06
217 9 11.4763 16.8164 0.98309 0.52
218 20 12.3779 16.6946 0.182753 -0.5
224 11 10.3286 19.7749 1.2761 0.06
221 1 10.0438 18.7041 1.39247 0.22
219 19 11.2555 18.0313 1.745 -0.35
727 11 14.5068 19.2347 0.828145 0.06
723 19 15.31 20.6181 -0.483604 -0.35
726 2 14.3166 19.6689 -0.125979 0.22
742 26 16.1593 15.8189 3.94488 -0.39
417 11 16.7014 17.7569 2.12212 0.06
409 9 18.6436 16.6885 0.723949 0.52
410 20 18.5793 15.6125 1.28676 -0.5
413 1 17.4572 18.4644 1.75006 0.22
415 11 17.6222 19.1399 2.56898 0.06
416 11 17.2791 19.0612 0.887934 0.06
411 19 18.6734 17.8158 1.60126 -0.35
293 1 20.0929 17.0245 4.55478 0.22
297 11 19.0831 17.0866 4.94047 0.06
412 19 18.974 16.921 -0.657988 -0.35
21 11 0.67352 20.4181 -0.411724 0.06
689 11 0.771676 5.46624 5.81416 0.06
78 1 1.02376 0.469153 5.96522 0.22
84 11 0.451293 0.190793 6.84862 0.06
83 11 1.06857 1.56998 6.00068 0.06
82 11 2.08346 0.13878 6.11802 0.06
510 1 -0.428852 3.72157 8.67114 0.22
506 20 1.63855 1.51551 8.52483 -0.5
508 19 0.901128 3.57719 8.20724 -0.35
505 9 1.58673 2.6748 8.9562 0.52
188 11 5.64741 0.659148 6.7829 0.06
681 9 3.11632 4.17319 5.41523 0.52
682 20 3.34918 2.99045 5.21151 -0.5
187 11 4.34301 1.69251 7.39294 0.06
513 11 3.61838 3.96473 9.05184 0.06
515 11 20.4557 2.8263 9.11802 0.06
677 11 3.09318 -0.580627 9.87919 0.06
503 11 11.9527 1.46402 6.39395 0.06
498 1 10.8985 1.3747 6.21184 0.22
185 1 4.92278 0.863807 7.65067 0.22
189 11 4.31999 -0.0687572 7.72372 0.06
183 19 5.57369 0.963895 8.89685 -0.35
181 9 6.57712 1.85865 8.83682 0.52
184 19 7.75431 1.23298 8.48131 -0.35
504 11 10.4512 2.36545 6.22457 0.06
259 11 9.23403 3.609 7.6245 0.06
257 1 9.31444 4.4873 8.20476 0.22
260 11 8.42233 4.69512 8.71737 0.06
186 1 8.492 0.935036 9.69969 0.22
502 11 10.4546 0.768219 6.99014 0.06
496 19 10.6721 0.82752 4.91532 -0.35
495 19 12.9976 0.511516 4.2327 -0.35
255 19 10.2745 4.40098 9.24919 -0.35
547 11 13.4163 3.2477 6.2113 0.06
546 2 14.4537 3.12125 6.52592 0.22
548 11 14.4629 2.35444 7.36099 0.06
190 11 9.50277 1.33677 9.69876 0.06
253 9 11.4428 3.85282 8.62307 0.52
256 19 12.0644 2.65536 9.13389 -0.35
334 11 17.6647 20.3957 4.72299 0.06
330 1 17.5577 -0.0890149 5.39885 0.22
336 11 18.0596 0.794947 4.96535 0.06
335 11 16.4794 0.0156177 5.36737 0.06
328 19 18.041 -0.528172 6.70108 -0.35
325 9 18.3777 0.680029 7.43441 0.52
326 20 19.4965 1.22188 7.39855 -0.5
327 19 17.4501 1.27306 8.32781 -0.35
514 11 20.3113 3.92931 7.8282 0.06
543 19 15.3874 2.68726 5.59423 -0.35
329 1 16.9724 0.517273 9.40478 0.22
545 2 15.024 4.43776 7.17917 0.22
550 11 15.5648 4.46226 8.10964 0.06
333 11 17.0391 -0.571254 9.28605 0.06
685 2 1.71734 5.97876 5.54742 0.22
688 11 3.62028 6.49684 6.45765 0.06
686 2 2.67549 5.93417 6.68195 0.22
687 11 2.19023 6.47697 7.49804 0.06
683 19 3.42243 4.73318 6.62596 -0.35
157 9 -0.524159 7.9421 8.60585 0.52
158 20 0.163162 6.99773 8.2182 -0.5
3 19 2.72961 9.36546 5.80913 -0.35
165 11 0.169553 10.1001 7.43182 0.06
7 11 4.25537 10.0787 4.56987 0.06
5 1 3.19287 10.0406 4.66315 0.22
2 20 3.35114 9.33254 7.97404 -0.5
441 11 5.41769 5.83864 7.50981 0.06
437 1 6.07277 6.37877 8.12496 0.22
440 11 7.04953 6.31442 7.66434 0.06
439 11 5.64065 7.37552 8.04967 0.06
447 19 10.2196 4.70032 4.79437 -0.35
70 11 7.98619 9.8462 7.8456 0.06
66 1 8.78895 9.7811 8.58668 0.22
435 19 6.01111 5.88361 9.49199 -0.35
433 9 6.6653 6.62447 10.4905 0.52
71 11 9.28744 8.85857 8.48318 0.06
261 11 9.49185 5.3782 7.54392 0.06
72 11 8.1675 9.70517 9.48318 0.06
434 20 7.74438 7.15746 10.2691 -0.5
254 20 12.1062 4.59321 7.85141 -0.5
456 11 13.0066 6.79463 6.481 0.06
454 11 11.9643 7.70264 5.35167 0.06
549 11 14.1763 5.08141 7.39679 0.06
448 19 12.4187 5.63517 4.84427 -0.35
455 11 11.3863 6.45335 6.35862 0.06
450 1 12.2325 6.66213 5.72851 0.22
61 9 10.1865 11.077 9.75241 0.52
64 19 9.61092 10.8946 8.47549 -0.35
63 19 11.166 10.1697 9.99149 -0.35
470 20 14.0445 8.80665 7.17058 -0.5
68 11 11.8926 9.88769 8.01878 0.06
159 19 20.0816 8.60876 7.58076 -0.35
542 20 17.4693 3.65951 5.02953 -0.5
541 9 16.5423 3.51325 5.89692 0.52
544 19 16.3998 4.37468 7.06747 -0.35
474 1 16.5426 9.00532 5.42436 0.22
479 11 17.5961 8.82042 5.2982 0.06
472 19 16.2626 9.085 6.79891 -0.35
287 11 18.1189 6.61436 8.3043 0.06
478 11 16.3549 9.97415 4.98506 0.06
469 9 14.9666 9.63875 7.01292 0.52
286 11 17.9145 8.2017 8.96692 0.06
288 11 16.5221 7.20303 8.60971 0.06
282 1 17.507 7.1906 8.96745 0.22
163 11 0.000866069 9.17985 5.97368 0.06
161 1 -0.507975 9.5951 6.78678 0.22
1 9 3.09553 9.9948 7.02326 0.52
630 11 2.53989 14.3077 7.46384 0.06
11 11 4.94461 11.192 8.38312 0.06
4 19 3.14988 11.3946 7.14269 -0.35
6 1 4.53069 11.7618 7.52206 0.22
10 11 4.43036 12.8016 7.77991 0.06
164 11 20.1213 10.2752 6.39131 0.06
93 11 3.7989 11.7774 10.1563 0.06
12 11 5.19608 11.7102 6.68052 0.06
387 19 6.30268 14.2463 9.15029 -0.35
388 19 8.37478 14.8705 8.00371 -0.35
385 9 6.94766 14.7781 8.02079 0.52
389 1 6.40171 14.9228 10.3817 0.22
392 11 5.51432 14.88 11.0274 0.06
386 20 6.37491 15.1243 7.00427 -0.5
390 1 8.98674 13.9668 7.14235 0.22
395 11 9.99157 13.7548 7.47422 0.06
32 11 10.7235 11.5465 6.39346 0.06
27 19 8.80506 11.2458 5.62749 -0.35
29 1 10.2033 11.2687 5.47205 0.22
475 11 15.4707 12.3966 5.9746 0.06
394 11 9.18543 14.3905 6.14897 0.06
69 11 12.4836 11.3688 8.82645 0.06
396 11 8.42133 13.0398 7.09645 0.06
65 1 12.1739 10.3563 9.00679 0.22
67 11 13.0937 9.75629 9.33923 0.06
42 1 15.125 14.7893 8.85966 0.22
274 11 18.2795 14.3947 4.77436 0.06
276 11 19.0346 14.1102 6.3816 0.06
471 19 14.6893 11.0003 7.30804 -0.35
268 19 17.9486 12.4316 5.56958 -0.35
473 1 14.5013 11.899 6.24154 0.22
477 11 13.69 12.5697 6.38219 0.06
476 11 14.2026 11.4316 5.29993 0.06
135 19 18.8399 11.7248 8.68957 -0.35
133 9 19.9784 12.3516 9.28736 0.52
136 19 20.2294 13.5772 8.62638 -0.35
137 1 18.1273 10.8854 9.63912 0.22
141 11 18.7263 10.0656 10.068 0.06
270 1 18.1558 13.8564 5.72844 0.22
275 11 17.292 14.2385 6.28102 0.06
40 19 14.5927 13.6254 9.43371 -0.35
140 11 17.392 10.4492 9.02956 0.06
627 11 3.37557 17.0735 6.95383 0.06
629 11 1.59107 15.7991 7.17383 0.06
628 11 4.09658 15.6992 6.63807 0.06
291 19 -0.252155 16.8585 5.60563 -0.35
626 2 3.56411 16.1611 7.46456 0.22
625 2 2.36277 15.3209 7.75911 0.22
624 19 2.36195 15.38 9.18087 -0.35
622 20 3.51623 16.6018 10.7957 -0.5
621 9 3.22504 16.3962 9.63443 0.52
623 19 3.7666 17.0805 8.56125 -0.35
289 9 -0.0726318 18.1082 6.35477 0.52
290 20 1.11209 18.4822 6.68914 -0.5
393 11 7.23849 14.5081 10.9856 0.06
391 11 6.51751 16.0108 10.2524 0.06
528 11 4.99457 18.8338 6.42864 0.06
526 11 5.53682 17.8065 5.22224 0.06
520 19 6.75576 19.3347 5.74314 -0.35
527 11 6.30642 17.841 6.90396 0.06
522 1 5.87733 18.3582 6.06686 0.22
519 19 8.73994 18.6178 4.63596 -0.35
521 1 9.36427 17.3701 4.73472 0.22
517 9 8.11023 18.9903 5.83525 0.52
518 20 8.59748 18.795 6.9682 -0.5
525 11 9.68929 17.0559 5.69639 0.06
192 11 8.58815 -0.0855239 9.89964 0.06
739 26 14.9338 15.5632 5.67283 -0.39
524 11 10.1526 17.2504 4.01645 0.06
537 11 11.9038 18.7648 6.30889 0.06
535 11 12.7636 17.584 7.34711 0.06
536 11 11.1419 18.271 7.81988 0.06
533 1 12.0761 18.4843 7.3574 0.22
531 19 12.5941 19.6519 7.94427 -0.35
46 11 14.5654 14.8821 7.93975 0.06
529 9 14.0208 19.5222 8.23798 0.52
530 20 14.3976 19.7562 9.35686 -0.5
144 11 19.6708 14.8796 10.2756 0.06
300 11 20.7804 19.9246 8.51227 0.06
299 11 -0.726215 18.2312 8.73347 0.06
538 11 16.3326 18.0444 6.50429 0.06
539 11 16.4964 18.4876 8.23719 0.06
532 19 14.9585 19.3899 7.18581 -0.35
534 1 15.8162 18.3031 7.41934 0.22
540 11 15.3157 17.4159 7.81327 0.06
292 19 20.2043 18.9385 6.70817 -0.35
138 1 20.4012 14.6821 9.45289 0.22
298 11 19.1635 19.0821 8.61476 0.06
294 1 20.2239 19.0654 8.16888 0.22
142 11 0.0954536 14.8898 9.78099 0.06
507 19 2.13804 3.11541 10.1626 -0.35
516 11 -0.413043 4.53312 9.41416 0.06
509 1 3.14505 4.12498 10.0229 0.22
512 11 3.90157 3.87074 10.6743 0.06
678 11 3.6495 19.5285 11.0335 0.06
676 2 2.95417 20.3178 10.914 0.22
673 19 3.35644 -0.556332 12.2141 -0.35
321 11 3.15486 1.95777 13.3422 0.06
317 1 2.72417 2.9609 13.5172 0.22
316 19 5.65353 2.63413 14.1905 -0.35
319 11 2.30365 3.04059 14.4402 0.06
146 20 0.198861 1.68504 15.2834 -0.5
313 9 4.79418 3.72519 14.3237 0.52
315 19 3.6234 4.02336 13.4969 -0.35
320 11 1.95381 3.11055 12.7802 0.06
323 11 5.2626 1.14943 12.7977 0.06
318 1 5.88098 2.03053 12.9451 0.22
322 11 6.87884 1.60111 13.0433 0.06
182 20 6.36324 3.11099 8.88871 -0.5
324 11 5.80305 2.80595 12.1656 0.06
191 11 8.14912 1.3308 10.6137 0.06
744 26 7.78337 1.7805 16.5966 -0.39
264 11 13.5415 3.58999 10.1483 0.06
263 11 13.1057 2.08758 10.8589 0.06
258 1 12.7139 2.91919 10.3075 0.22
262 11 12.047 3.45828 10.9932 0.06
608 11 13.4676 3.30662 13.9049 0.06
603 19 15.3885 2.70272 12.7644 -0.35
604 19 16.1069 1.71062 14.7227 -0.35
170 20 12.558 0.899933 13.8132 -0.5
331 11 17.4839 0.754661 10.3231 0.06
332 11 15.9827 0.839136 9.67049 0.06
601 9 16.1408 1.73505 13.3533 0.52
602 20 16.7312 0.875739 12.6786 -0.5
283 11 18.6917 4.8773 11.9176 0.06
153 11 19.3299 -0.379831 13.2984 0.06
149 1 19.4823 20.4707 14.2578 0.22
152 11 18.6077 20.0109 14.588 0.06
511 11 2.80208 5.21082 10.1634 0.06
641 9 1.06677 7.27786 14.4611 0.52
649 11 4.13955 8.19657 15.0726 0.06
643 19 1.13139 8.57705 13.8166 -0.35
647 11 2.91098 9.26463 13.3646 0.06
646 2 2.34862 9.07684 14.3108 0.22
438 1 5.6366 7.62904 12.3453 0.22
443 11 5.50335 8.43394 11.6531 0.06
442 11 6.31831 7.90051 13.1794 0.06
167 11 0.782947 7.25621 10.867 0.06
402 1 8.54773 4.95904 13.1509 0.22
408 11 7.85915 4.16103 12.8643 0.06
314 20 5.39112 4.65177 14.8254 -0.5
400 19 9.65934 4.50449 13.9103 -0.35
444 11 4.68465 7.4372 12.8342 0.06
436 19 6.22758 6.4094 11.836 -0.35
407 11 8.77338 5.55139 12.2106 0.06
406 11 8.03424 5.58727 13.8472 0.06
205 9 8.50376 8.46541 14.7835 0.52
208 19 8.71426 8.20243 13.4888 -0.35
398 20 10.9967 6.21286 14.821 -0.5
397 9 10.7509 5.41561 13.8664 0.52
399 19 11.8078 5.13283 12.9318 -0.35
404 11 12.3436 5.85803 11.0937 0.06
401 1 12.1855 6.19798 12.0879 0.22
405 11 11.3596 7.00319 11.9998 0.06
403 11 13.1062 6.6048 12.4665 0.06
102 1 11.7727 11.3788 13.8745 0.22
108 11 11.074 11.821 13.213 0.06
106 11 11.6195 11.6265 14.9139 0.06
160 19 -0.371187 8.67355 9.83728 -0.35
162 1 -0.133262 7.82385 10.9346 0.22
166 11 20.321 7.14516 11.2144 0.06
285 11 18.9291 3.50878 10.8106 0.06
281 1 18.2 4.02175 11.423 0.22
284 11 18.0383 3.3001 12.1922 0.06
279 19 17.04 4.22859 10.6412 -0.35
98 20 12.1837 8.83049 15.5737 -0.5
580 11 17.6576 8.5256 15.8547 0.06
642 20 0.0281154 6.64213 14.386 -0.5
168 11 -0.0692431 8.33077 11.8822 0.06
280 19 17.5568 6.59351 10.2998 -0.35
277 9 16.6041 5.57397 10.6619 0.52
278 20 15.494 5.83799 11.1329 -0.5
579 11 16.1161 7.85931 15.2958 0.06
575 2 16.862 7.8664 16.0856 0.22
89 1 3.19563 12.1839 10.9601 0.22
115 11 -0.120385 11.5767 12.8865 0.06
116 11 19.7788 11.6733 13.9055 0.06
113 1 20.4908 12.2751 13.3269 0.22
117 11 19.8533 12.6846 12.543 0.06
111 19 -0.116506 13.2153 14.1516 -0.35
109 9 -0.447246 14.5411 13.9009 0.52
95 11 4.16726 14.894 13.2958 0.06
96 11 3.14247 13.5522 13.6307 0.06
112 19 -0.101464 15.0941 12.6595 -0.35
87 19 3.25732 11.3357 12.0804 -0.35
92 11 3.5921 13.142 11.1542 0.06
216 11 9.41288 9.05503 11.8052 0.06
86 20 5.19407 10.5447 13.1106 -0.5
91 11 2.18424 12.3546 10.5603 0.06
210 1 8.85169 9.39795 12.6756 0.22
215 11 9.40891 10.1905 13.1835 0.06
85 9 4.49651 11.5497 12.8269 0.52
88 19 5.03785 12.9081 13.1013 -0.35
637 11 10.4132 14.5211 10.0605 0.06
214 11 7.86234 9.83561 12.3923 0.06
90 1 4.1497 13.8907 13.7116 0.22
763 26 8.46922 15.4361 14.4582 -0.39
94 11 4.41632 14.1328 14.7508 0.06
760 26 9.10116 13.3592 14.9955 -0.39
47 11 15.0614 15.7457 9.36276 0.06
638 11 11.7585 13.4309 10.4225 0.06
636 2 11.3361 14.4373 10.6317 0.22
62 20 9.71504 11.8555 10.5703 -0.5
639 11 10.0115 14.7276 12.3425 0.06
635 2 11.1227 14.7229 12.1915 0.22
640 11 11.4467 13.855 12.7263 0.06
107 11 12.7016 11.8998 13.7632 0.06
634 19 12.209 15.5742 12.5643 -0.35
100 19 11.9306 9.94348 13.5485 -0.35
97 9 12.6907 9.14524 14.5225 0.52
134 20 20.5448 11.9705 10.266 -0.5
103 11 14.6438 9.43121 12.5107 0.06
104 11 14.3877 10.6796 13.7693 0.06
38 20 15.0457 11.966 10.8711 -0.5
139 11 17.6648 11.5185 10.392 0.06
37 9 15.2894 13.1123 10.5497 0.52
101 1 14.7657 9.69109 13.6056 0.22
39 19 16.3557 13.8793 11.0944 -0.35
43 11 17.6054 14.334 12.6805 0.06
41 1 16.6121 13.8776 12.4996 0.22
44 11 16.1398 14.5948 13.1233 0.06
99 19 14.024 8.74573 14.3331 -0.35
45 11 16.4324 12.8609 12.9098 0.06
110 20 19.9516 14.9818 14.5287 -0.5
710 11 18.6028 16.5466 16.1877 0.06
680 11 1.42162 18.6764 10.5784 0.06
118 11 1.27112 16.2715 13.7342 0.06
671 9 2.2462 20.5024 12.9406 0.52
672 20 2.21587 -0.247435 14.1134 -0.5
675 2 1.50396 19.7392 10.9506 0.22
679 11 0.746039 20.5156 10.7895 0.06
674 19 1.19785 19.7788 12.3415 -0.35
120 11 0.00332874 17.169 12.812 0.06
119 11 1.47374 16.4085 12.091 0.06
114 1 0.676881 16.306 12.8223 0.22
613 19 4.91483 20.1343 14.933 -0.35
616 2 4.91084 18.8379 14.3359 0.22
618 11 4.79821 18.4494 13.2915 0.06
652 20 6.12459 18.829 10.2619 -0.5
651 9 7.10508 18.9799 11.0082 0.52
654 19 7.78763 17.9089 11.4681 -0.35
653 19 7.33218 20.1838 11.7896 -0.35
657 11 9.15999 20.6904 12.3977 0.06
658 11 8.2631 20.2308 13.7856 0.06
655 2 8.61851 18.4589 12.5381 0.22
656 2 8.33694 19.9998 12.7121 0.22
660 11 8.18716 17.9531 13.3871 0.06
659 11 9.70692 18.2815 12.5502 0.06
611 9 5.86196 19.9858 15.8766 0.52
614 19 6.68925 18.8462 15.9242 -0.35
615 2 5.72926 17.9235 15.3278 0.22
620 11 6.44617 17.2999 14.8195 0.06
179 11 11.977 19.3702 11.0835 0.06
180 11 12.3987 -0.287641 10.887 0.06
48 11 16.0917 14.5227 8.46413 0.06
631 9 12.5056 16.2528 11.3747 0.52
632 20 13.2888 17.2405 11.3334 -0.5
633 19 12.1362 15.5118 10.1765 -0.35
178 11 13.5883 19.9829 11.6757 0.06
174 1 12.4958 20.2296 11.5844 0.22
172 19 11.8372 20.3874 12.7846 -0.35
169 9 12.5494 -0.343155 13.8023 0.52
173 1 13.7242 20.2566 15.6368 0.22
171 19 12.4534 20.3471 15.0443 -0.35
176 11 14.0752 -0.129709 16.1772 0.06
568 11 15.6196 17.2899 12.4534 0.06
570 11 16.5865 19.4626 13.195 0.06
569 11 16.1382 19.9453 11.502 0.06
143 11 20.2094 15.5195 8.81636 0.06
567 11 15.7003 17.7366 10.7384 0.06
565 2 16.6262 19.1877 12.1542 0.22
562 20 19.6591 17.8865 11.0363 -0.5
564 19 17.9235 19.3757 11.5971 -0.35
561 9 18.4507 18.1181 11.2542 0.52
563 19 17.4334 17.1141 11.1489 -0.35
566 2 16.2742 17.7509 11.7136 0.22
704 19 17.6922 17.6752 15.89 -0.35
151 11 20.0993 19.5991 14.1336 0.06
155 11 20.8768 3.85258 15.0287 0.06
244 19 2.96449 3.1628 16.9079 -0.35
242 20 2.76329 0.989725 16.4124 -0.5
241 9 2.9046 1.80288 17.4011 0.52
245 1 2.71825 1.26764 19.7146 0.22
243 19 3.64935 1.53158 18.6642 -0.35
246 1 2.36934 4.21201 17.6199 0.22
251 11 2.32423 5.15028 17.0542 0.06
252 11 1.35609 3.91649 17.9655 0.06
250 11 3.04117 4.385 18.4268 0.06
247 11 2.33509 0.258188 19.5389 0.06
14 20 18.3153 0.252496 -0.175771 -0.5
154 11 19.1379 4.35266 14.975 0.06
428 11 8.77087 19.9571 -0.511702 0.06
733 31 6.01318 0.389786 18.155 1
749 26 6.15432 3.08334 17.125 -0.39
743 27 7.60264 2.8266 17.6432 1.34
747 26 6.99091 1.76021 18.613 -0.39
745 26 7.37957 3.96013 18.7247 -0.39
746 26 8.03688 3.91414 16.6934 -0.39
748 26 9.0469 2.62656 18.1319 -0.39
49 9 11.4195 1.50505 -0.45373 0.52
51 19 11.8257 1.46427 19.4707 -0.35
56 11 12.8655 0.0702768 18.3877 0.06
607 11 14.8703 4.12875 13.6619 0.06
606 2 14.5327 3.1254 13.8164 0.22
605 2 15.0507 2.50592 15.1834 0.22
610 11 14.2302 2.44221 15.8322 0.06
57 11 11.8231 -0.6144 19.6213 0.06
53 1 11.8743 0.168178 18.8559 0.22
560 11 12.2592 3.45444 17.8143 0.06
559 11 14.0228 3.4698 17.8719 0.06
609 11 15.836 3.12037 15.6635 0.06
55 11 11.149 -0.101925 18.0687 0.06
722 20 16.3195 -0.177407 18.8707 -0.5
15 19 20.5206 0.616328 20.7081 -0.35
147 19 20.153 -0.0840577 15.3327 -0.35
145 9 20.3895 1.30665 15.0681 0.52
22 11 19.4407 19.3785 17.8095 0.06
16 19 19.2868 20.1761 19.6436 -0.35
13 9 19.2755 0.00608012 20.454 0.52
18 1 19.4315 20.3819 18.2122 0.22
23 11 18.6129 -0.344335 17.7625 0.06
148 19 19.3792 2.26532 15.3419 -0.35
156 11 19.9179 3.32077 13.619 0.06
150 1 19.8376 3.51863 14.7462 0.22
24 11 20.4346 -0.523118 17.993 0.06
644 19 2.13988 6.93282 15.3442 -0.35
645 2 3.07645 8.09468 15.2783 0.22
648 11 2.46371 10.0294 14.8706 0.06
650 11 2.90243 8.41089 16.3096 0.06
356 11 1.38387 10.2046 17.5662 0.06
353 1 0.673179 9.57048 18.1141 0.22
201 11 4.04848 9.17626 18.5507 0.06
207 19 7.27416 9.09703 15.1091 -0.35
734 31 6.18223 4.67097 16.2777 1
197 1 5.06751 8.86838 18.4871 0.22
200 11 5.79967 9.68148 18.8224 0.06
195 19 5.48209 8.23631 17.3171 -0.35
206 20 9.31837 8.20128 15.6558 -0.5
193 9 6.43808 7.21336 17.5418 0.52
194 20 6.27804 6.16939 16.8616 -0.5
196 19 7.1817 7.15597 18.781 -0.35
202 11 8.73952 6.03249 18.2047 0.06
203 11 9.15032 7.78013 18.163 0.06
198 1 8.54764 6.98684 18.6886 0.22
204 11 8.85579 6.83036 19.7137 0.06
199 11 5.13578 8.22096 19.3262 0.06
557 11 14.2381 5.17345 19.5532 0.06
555 2 13.1378 4.12215 17.9653 0.22
732 31 10.9343 7.46117 15.9056 1
556 2 13.2346 4.81695 19.3335 0.22
554 19 12.7787 5.18399 17.0752 -0.35
551 9 12.0813 6.08021 17.9284 0.52
553 19 12.4072 5.99057 19.3034 -0.35
552 20 11.3993 7.03685 17.6161 -0.5
464 11 14.3742 10.0735 19.7911 0.06
599 11 19.641 5.1508 18.9144 0.06
595 2 20.1613 6.04511 19.3194 0.22
594 19 -0.4844 6.16539 20.5857 -0.35
596 2 19.2515 7.25952 19.2517 0.22
574 19 17.1007 6.43463 16.2293 -0.35
600 11 -0.190344 6.12966 18.7914 0.06
577 11 15.4816 9.21598 17.0772 0.06
571 9 16.5136 6.1254 17.4503 0.52
572 20 16.4566 4.92039 17.7663 -0.5
573 19 15.9551 7.24771 18.1627 -0.35
576 2 16.1867 8.38075 17.3401 0.22
578 11 16.857 8.87667 17.9869 0.06
598 11 19.5538 7.87029 18.4061 0.06
350 20 19.2705 10.1372 17.1462 -0.5
351 19 -0.354821 10.3415 18.682 -0.35
355 11 1.28167 9.08634 18.8713 0.06
382 11 3.30031 15.3998 17.3517 0.06
383 11 2.39619 14.0336 16.8878 0.06
378 1 3.15463 14.3283 17.5661 0.22
384 11 2.67493 14.339 18.5701 0.06
376 19 4.34208 13.4763 17.3978 -0.35
373 9 4.5739 12.8185 18.5809 0.52
374 20 3.94205 11.7409 18.7557 -0.5
358 11 18.4482 13.1781 16.6921 0.06
379 11 6.29482 14.8398 18.4411 0.06
213 11 8.26669 10.7625 16.0843 0.06
211 11 7.2667 11.24 14.6351 0.06
375 19 5.68355 13.0087 19.358 -0.35
131 11 8.96487 12.8674 0.374129 0.06
209 1 7.38303 10.5064 15.4807 0.22
212 11 6.50435 10.8971 16.0115 0.06
757 27 8.42353 14.5796 15.6599 1.34
124 19 8.97127 10.9041 -0.467359 -0.35
126 1 8.45805 12.2138 -0.339441 0.22
132 11 8.35679 12.6429 19.9796 0.06
758 26 7.01637 13.9984 15.2228 -0.39
762 26 8.34326 13.77 16.9899 -0.39
759 26 9.83602 15.1606 16.0369 -0.39
129 11 10.7415 10.3509 17.1346 0.06
236 11 8.70567 15.6927 18.6435 0.06
584 19 14.0823 13.8764 15.3711 -0.35
123 19 10.3101 10.2738 19.0772 -0.35
463 11 14.1396 11.7886 19.408 0.06
121 9 10.2144 10.98 20.2873 0.52
461 1 14.6561 11.1121 20.0844 0.22
465 11 14.3154 11.4408 -0.254322 0.06
587 11 12.0655 14.3341 17.6671 0.06
122 20 11.1795 11.2696 -0.321217 -0.5
128 11 11.9955 11.1602 18.2215 0.06
125 1 10.9418 10.9741 18.02 0.22
237 11 9.28153 15.2363 20.2128 0.06
127 11 10.479 11.9546 17.8376 0.06
586 2 13.1082 14.6523 17.4154 0.22
583 19 13.6503 13.436 17.7661 -0.35
581 9 14.1978 12.9987 16.5509 0.52
582 20 14.3446 11.8121 16.2425 -0.5
468 11 16.358 14.2191 0.93231 0.06
105 11 15.7749 9.72946 13.964 0.06
349 9 19.9364 10.8407 17.8562 0.52
352 19 19.5996 12.1479 18.0897 -0.35
459 19 16.0472 11.1032 20.163 -0.35
457 9 16.5948 12.2879 19.7681 0.52
359 11 19.6192 13.9542 17.2411 0.06
708 11 17.0364 15.146 17.0668 0.06
458 20 16.4023 12.8042 18.6684 -0.5
360 11 20.0347 12.6362 16.1162 0.06
354 1 19.4083 12.9344 16.9674 0.22
420 11 -0.483539 16.0127 -0.421341 0.06
617 11 3.87028 18.804 14.7654 0.06
248 11 3.19151 1.29244 20.6825 0.06
426 1 4.45128 19.2689 -0.269804 0.22
432 11 3.9187 20.0865 0.220904 0.06
430 11 3.7091 18.5405 -0.541956 0.06
731 31 1.82424 -0.0516833 15.6634 1
753 26 0.0291244 18.0425 17.1941 -0.39
756 26 2.03142 17.8402 15.9544 -0.39
750 27 1.54281 18.4422 17.3785 1.34
752 26 1.7253 17.1125 18.121 -0.39
751 26 1.33679 19.7463 16.5361 -0.39
755 26 1.09484 19.1846 18.6942 -0.39
754 26 2.96524 18.7847 17.7049 -0.39
427 11 8.7741 0.293179 20.2367 0.06
425 1 8.59664 -0.772278 19.8953 0.22
612 20 5.85172 -0.51297 16.8136 -0.5
619 11 5.05109 17.1863 15.686 0.06
424 19 5.07057 19.8597 19.944 -0.35
421 9 6.44402 19.5895 19.8659 0.52
423 19 7.21956 20.6283 19.4818 -0.35
761 26 7.81025 15.7961 16.3278 -0.39
238 11 9.93222 19.5704 16.4719 0.06
422 20 6.79099 18.5462 19.3011 -0.5
234 1 9.59397 18.5331 16.6962 0.22
239 11 9.16553 17.9788 15.8383 0.06
240 11 8.84594 18.7349 17.4699 0.06
235 11 8.86416 16.8049 19.973 0.06
233 1 9.35639 16.026 19.4634 0.22
589 11 12.625 14.2113 15.2441 0.06
585 2 13.17 14.9026 15.8764 0.22
590 11 12.9987 15.9512 15.6049 0.06
175 11 14.574 20.3126 14.8952 0.06
588 11 13.4277 15.5481 18.0288 0.06
721 9 15.7717 20.2686 19.5599 0.52
177 11 13.7186 19.4015 16.2607 0.06
231 19 10.6592 16.2116 18.9213 -0.35
232 19 10.7865 17.8208 17.0805 -0.35
229 9 10.8567 17.5164 18.4736 0.52
230 20 11.0166 18.3448 19.2833 -0.5
730 11 13.2412 18.4958 19.875 0.06
725 2 14.2615 18.648 20.142 0.22
724 19 14.9889 19.2058 19.0653 -0.35
414 1 20.4006 16.9705 -0.742857 0.22
702 20 15.5622 18.1004 14.9537 -0.5
709 11 18.8371 16.9287 17.8051 0.06
705 2 18.0107 16.9764 17.0327 0.22
418 11 -0.672409 17.2619 19.558 0.06
707 11 16.8746 15.8935 18.5627 0.06
706 2 16.7675 16.1312 17.4925 0.22
703 19 15.6817 16.7035 16.777 -0.35
729 11 14.6707 17.7113 -0.838129 0.06
701 9 16.2365 17.6771 15.9046 0.52
ITEM: TIMESTEP
550
ITEM: NUMBER OF ATOMS
770
ITEM: BOX BOUNDS pp pp pp
-6.6174435967274370e-01 2.0661744359672852e+01
-6.6174435967274370e-01 2.0661744359672852e+01
-6.6174435967274370e-01 2.0661744359672852e+01
ITEM: ATOMS id type x y z c_charge
74 20 2.12244 0.267091 2.86303 -0.5
73 9 1.10966 0.631867 3.53842 0.52
75 19 0.129185 1.39526 2.80993 -0.35
77 1 -0.651935 2.36754 3.51127 0.22
81 11 19.7251 2.5339 3.03813 0.06
684 19 1.98618 4.65627 4.82016 -0.35
76 19 0.761315 -0.072632 4.77684 -0.35
309 11 3.28106 3.57223 2.45076 0.06
249 11 2.19039 1.60303 19.8286 0.06
308 11 2.41869 2.68839 1.1845 0.06
305 1 2.81272 3.68141 1.44948 0.22
79 11 -0.891647 2.0946 4.52746 0.06
489 11 2.59597 19.1793 5.02867 0.06
488 11 3.61457 19.2306 3.62469 0.06
19 11 1.24346 0.175224 0.187099 0.06
303 19 3.68164 4.15821 0.421519 -0.35
692 20 6.92447 1.69269 0.301136 -0.5
691 9 6.35156 1.04083 1.15882 0.52
694 19 6.66902 -0.302585 1.42498 -0.35
693 19 5.78753 1.65743 2.18765 -0.35
54 1 9.70347 2.8148 0.70196 0.22
60 11 9.67447 2.207 1.611 0.06
696 2 5.64712 0.724245 3.20051 0.22
453 11 8.80335 4.70559 3.49739 0.06
698 11 4.62791 0.637091 3.6267 0.06
695 2 6.49164 -0.465569 2.70685 0.22
58 11 9.44663 3.84144 1.15349 0.06
59 11 9.07519 2.49246 -0.09377 0.06
449 1 9.21505 4.08171 4.28316 0.22
451 11 9.38804 3.08577 3.81275 0.06
699 11 7.20005 20.5782 3.4672 0.06
697 11 6.33503 1.34638 3.84294 0.06
307 11 1.91652 4.34887 1.49047 0.06
52 19 11.0366 2.71171 0.107643 -0.35
348 11 14.4881 2.16364 0.766415 0.06
50 20 11.32 0.417157 0.246206 -0.5
342 1 15.2417 2.07362 1.56436 0.22
347 11 14.9274 1.23312 2.25262 0.06
338 20 13.9133 4.91198 1.74378 -0.5
337 9 15.0383 4.37761 1.5764 0.52
346 11 16.0936 1.66463 1.15252 0.06
340 19 15.456 3.25868 2.36517 -0.35
339 19 16.0397 5.01229 0.71959 -0.35
493 9 11.8089 1.20551 3.97162 0.52
497 1 12.9856 20.4951 3.53929 0.22
494 20 11.7501 2.25168 3.30257 -0.5
499 11 12.7032 -0.793453 2.4778 0.06
343 11 16.5079 3.17849 -0.149049 0.06
345 11 17.8402 3.72977 0.936713 0.06
341 1 16.9694 4.07956 0.247366 0.22
17 1 0.276701 -0.316861 0.0969398 0.22
20 11 -0.121536 20.8225 1.09364 0.06
80 11 -0.165637 3.3457 3.54579 0.06
690 11 1.76522 6.72256 4.8909 0.06
306 1 2.56743 7.60576 1.00142 0.22
311 11 3.21478 8.38531 0.478914 0.06
312 11 1.54521 7.98981 1.05232 0.06
592 20 20.5555 7.6156 1.21232 -0.5
8 11 3.13792 9.38463 4.08426 0.06
9 11 2.72044 11.1032 4.48005 0.06
301 9 3.78277 5.58871 0.644483 0.52
304 19 2.68931 6.36766 0.223343 -0.35
310 11 2.76976 7.5926 2.07177 0.06
452 11 8.49377 4.02882 5.02193 0.06
302 20 4.82198 6.06292 1.05986 -0.5
714 19 8.49001 7.79497 3.41248 -0.35
716 2 6.20711 7.38316 3.38722 0.22
713 19 6.51237 7.59723 4.72926 -0.35
711 9 7.9317 7.66386 4.70108 0.52
719 11 7.90365 6.86385 2.21565 0.06
720 11 6.95574 8.17363 1.61084 0.06
715 2 7.37218 7.79264 2.51282 0.22
717 11 5.8195 6.42318 3.14353 0.06
712 20 8.57548 7.54795 5.74856 -0.5
446 20 11.4232 5.16777 3.03473 -0.5
363 19 14.142 8.53838 0.94656 -0.35
368 11 15.795 7.41188 1.4697 0.06
735 31 12.4665 5.77314 1.98552 1
361 9 13.3114 8.28216 2.01727 0.52
362 20 12.3725 7.49205 1.88097 -0.5
364 19 13.2264 9.47128 2.77302 -0.35
365 1 15.5021 8.43582 1.27521 0.22
369 11 16.0052 8.86915 0.417402 0.06
445 9 11.4366 5.00924 4.29183 0.52
558 11 12.3452 4.13404 19.9838 0.06
591 9 20.3318 7.35621 0.0571872 0.52
344 11 17.6176 4.46364 20.7535 0.06
597 11 18.1645 6.6818 19.7374 0.06
593 19 19.2799 7.82123 20.5637 -0.35
367 11 15.8285 8.87007 2.20036 0.06
480 11 15.9814 8.22172 5.16568 0.06
670 11 20.1843 10.4923 1.17412 0.06
669 11 -0.300961 11.236 2.54388 0.06
665 2 -0.189427 10.9191 1.52516 0.22
664 19 1.05353 10.4008 2.10516 -0.35
661 9 2.085 11.1267 1.5443 0.52
663 19 1.6938 11.9237 0.434927 -0.35
666 2 0.261111 12.0117 0.61213 0.22
668 11 0.34537 11.6955 -0.473822 0.06
667 11 -0.313557 12.9173 0.800852 0.06
662 20 3.07717 11.3365 2.16415 -0.5
357 11 0.988224 9.36464 17.1621 0.06
380 11 5.45739 15.0524 19.4104 0.06
381 11 7.06317 14.2698 19.6283 0.06
377 1 6.12414 14.2765 19.0878 0.22
718 11 5.31852 8.00396 3.22964 0.06
36 11 6.84971 12.7244 2.74014 0.06
26 20 8.76317 10.7531 3.10675 -0.5
25 9 8.15276 11.0093 4.13827 0.52
227 11 11.3995 14.0118 0.492143 0.06
222 1 11.2816 14.5843 1.42381 0.22
30 1 6.20076 12.17 3.3089 0.22
34 11 5.57731 11.7443 2.56919 0.06
28 19 6.73401 11.1205 4.10779 -0.35
35 11 5.41916 12.7366 3.85157 0.06
130 11 7.27263 12.0717 -0.242346 0.06
372 11 12.481 11.3216 2.9754 0.06
370 11 13.0655 11.0153 1.31739 0.06
366 1 12.5364 10.5753 2.19551 0.22
371 11 11.5033 10.4173 2.00655 0.06
226 11 10.6056 14.0757 2.15495 0.06
737 26 14.6737 13.9604 3.8933 -0.39
228 11 12.2361 14.5429 1.92809 0.06
33 11 10.3358 9.82319 5.46574 0.06
460 19 16.7895 12.9241 -0.387429 -0.35
467 11 15.1251 14.1412 -0.722562 0.06
31 11 10.6675 11.3993 4.57298 0.06
462 1 16.1844 14.2165 -0.327813 0.22
466 11 16.6534 15.042 20.3529 0.06
266 20 19.8495 11.862 4.37774 -0.5
272 11 17.2704 11.656 1.4853 0.06
273 11 16.7092 12.7557 2.86637 0.06
271 11 18.3593 12.7871 2.1599 0.06
269 1 17.5143 12.1461 2.43102 0.22
267 19 17.9055 11.128 3.36496 -0.35
265 9 18.6643 11.6212 4.47592 0.52
490 11 1.63555 14.8041 1.20145 0.06
419 11 20.5873 17.9743 -0.950997 0.06
486 1 2.53057 15.1274 1.78398 0.22
491 11 3.24883 15.6448 1.10952 0.06
492 11 3.09542 14.2926 2.23948 0.06
484 19 2.02031 15.985 2.82715 -0.35
481 9 1.76498 17.3884 2.45938 0.52
482 20 1.40592 17.6785 1.34247 -0.5
483 19 1.5873 18.3055 3.50743 -0.35
487 11 3.32448 17.721 4.43539 0.06
485 1 2.81774 18.6209 4.128 0.22
431 11 4.902 18.3309 0.0232536 0.06
295 11 20.1082 17.9029 3.95712 0.06
296 11 20.5415 16.2016 3.61217 0.06
768 26 5.55642 14.9256 2.08652 -0.39
770 26 5.06502 16.9415 2.52299 -0.39
766 26 6.74639 15.9993 3.56025 -0.39
764 27 6.37227 16.2062 2.07745 1.34
765 26 5.93985 16.337 0.584232 -0.39
769 26 7.66627 15.4904 1.634 -0.39
429 11 9.01101 20.1896 19.0097 0.06
767 26 7.1632 17.5361 2.02037 -0.39
700 11 5.85794 19.9686 2.63925 0.06
225 11 9.4989 18.0142 1.15743 0.06
220 19 10.7747 15.8922 1.10958 -0.35
523 11 8.86765 16.4321 5.39152 0.06
223 11 9.68779 19.0155 2.53458 0.06
500 11 13.9084 19.9117 3.58132 0.06
501 11 12.1961 19.9047 4.06238 0.06
736 27 14.5674 15.5251 4.13038 1.34
741 26 13.0439 15.4246 4.4508 -0.39
740 26 14.2949 15.7742 2.62532 -0.39
738 26 14.4707 17.0215 4.31848 -0.39
728 11 13.7926 20.0255 0.260711 0.06
217 9 11.7254 16.9342 1.15008 0.52
218 20 12.4052 17.1151 0.130499 -0.5
224 11 10.4221 19.5343 1.00948 0.06
221 1 10.2148 18.6831 1.65385 0.22
219 19 11.4584 18.0295 1.99483 -0.35
727 11 15.2056 19.0227 0.511601 0.06
723 19 15.3325 -0.483441 -0.752571 -0.35
726 2 14.7011 19.6782 -0.239169 0.22
742 26 16.0576 15.7348 3.85674 -0.39
417 11 16.841 17.866 2.05813 0.06
409 9 18.7892 16.6955 0.643671 0.52
410 20 18.4661 15.6434 1.25836 -0.5
413 1 17.5928 18.5363 1.70732 0.22
415 11 17.6591 19.3401 2.44497 0.06
416 11 17.386 19.0755 0.771645 0.06
411 19 18.8628 17.8557 1.43247 -0.35
293 1 20.2311 16.936 4.35465 0.22
297 11 19.2501 16.5917 4.73626 0.06
412 19 18.8165 16.7938 -0.748581 -0.35
21 11 0.362636 20.0145 -0.349979 0.06
689 11 0.844231 5.71368 6.09593 0.06
78 1 1.18954 0.536796 5.91712 0.22
84 11 0.448355 0.22906 6.67209 0.06
83 11 1.09789 1.62253 5.91952 0.06
82 11 2.15744 0.20567 6.1913 0.06
510 1 -0.377828 3.95586 8.58935 0.22
506 20 1.61973 1.49249 8.90863 -0.5
508 19 0.928533 3.48368 8.199 -0.35
505 9 1.50845 2.65543 9.18153 0.52
188 11 5.29636 0.638122 6.73356 0.06
681 9 2.98749 3.96122 5.50856 0.52
682 20 3.41305 2.87452 5.25989 -0.5
187 11 4.32544 2.00983 7.2394 0.06
513 11 4.03914 3.6486 9.51319 0.06
515 11 20.2952 3.13386 8.85811 0.06
677 11 3.22146 -0.263876 10.3439 0.06
503 11 12.0027 1.61702 6.40367 0.06
498 1 10.9186 1.41809 6.24238 0.22
185 1 4.63955 0.978691 7.486 0.22
189 11 3.73471 0.374966 7.58219 0.06
183 19 5.16046 1.18029 8.77961 -0.35
181 9 6.4641 1.74696 8.88821 0.52
184 19 7.67131 1.08579 8.43978 -0.35
504 11 10.375 2.3078 6.40928 0.06
259 11 8.94986 3.53414 7.66182 0.06
257 1 9.27852 4.4837 8.1717 0.22
260 11 8.46133 4.94246 8.75722 0.06
186 1 8.74051 1.13102 9.32887 0.22
502 11 10.5657 0.685538 6.94239 0.06
496 19 10.701 0.985763 4.87504 -0.35
495 19 13.053 0.469598 4.15147 -0.35
255 19 10.4136 4.19612 9.03917 -0.35
547 11 13.9812 3.2718 5.60339 0.06
546 2 14.5448 3.00884 6.4995 0.22
548 11 13.8524 2.64422 7.21714 0.06
190 11 9.77157 1.25281 8.93759 0.06
253 9 11.5825 3.75226 8.44903 0.52
256 19 12.1415 2.60899 9.05304 -0.35
334 11 18.2583 20.4615 4.72824 0.06
330 1 17.6252 -0.379405 5.45637 0.22
336 11 17.5128 0.646159 5.16599 0.06
335 11 16.6575 20.4615 5.36741 0.06
328 19 18.0876 -0.445841 6.79043 -0.35
325 9 18.3633 0.884676 7.21789 0.52
326 20 19.5085 1.30383 7.2949 -0.5
327 19 17.3753 1.43776 8.05632 -0.35
514 11 20.5479 4.44567 7.65678 0.06
543 19 15.5353 2.63989 5.57484 -0.35
329 1 17.139 0.706592 9.25382 0.22
545 2 15.1985 4.31984 7.14685 0.22
550 11 14.8055 4.55108 8.16429 0.06
333 11 17.2922 -0.367318 9.10788 0.06
685 2 1.77702 5.85937 5.59264 0.22
688 11 3.52525 6.70923 6.00226 0.06
686 2 2.99928 5.91575 6.46751 0.22
687 11 2.64996 6.22255 7.41553 0.06
683 19 3.55153 4.63891 6.54244 -0.35
157 9 -0.490799 7.82414 8.28332 0.52
158 20 0.159931 6.84631 7.97536 -0.5
3 19 2.48381 9.58389 5.94367 -0.35
165 11 -0.0402918 10.1781 7.52157 0.06
7 11 4.25552 10.3092 4.9311 0.06
5 1 3.14485 10.1633 4.83573 0.22
2 20 3.21164 9.38702 8.17191 -0.5
441 11 5.76697 5.45256 7.54863 0.06
437 1 6.05851 6.34187 8.14863 0.22
440 11 7.10344 6.50242 7.81639 0.06
439 11 5.43614 7.16958 7.75995 0.06
447 19 10.2786 4.77804 5.00872 -0.35
70 11 8.24503 9.44888 7.93187 0.06
66 1 8.88344 9.61648 8.79748 0.22
435 19 5.79565 6.03398 9.53953 -0.35
433 9 6.72839 6.51527 10.4744 0.52
71 11 9.67933 8.812 8.77595 0.06
261 11 9.57657 5.16775 7.40114 0.06
72 11 8.20446 9.44141 9.61591 0.06
434 20 7.84133 6.83058 10.1388 -0.5
254 20 12.2244 4.5123 7.73523 -0.5
456 11 12.8235 6.72663 6.57471 0.06
454 11 12.928 7.44844 4.89804 0.06
549 11 15.2408 5.27048 6.52401 0.06
448 19 12.5652 5.53073 4.91683 -0.35
455 11 11.2926 7.32992 5.54302 0.06
450 1 12.3496 6.86465 5.53178 0.22
61 9 10.3162 11.2346 9.884 0.52
64 19 9.48383 10.8985 8.7304 -0.35
63 19 11.463 10.5022 10.268 -0.35
470 20 13.9854 9.05638 6.95702 -0.5
68 11 12.212 9.77398 8.48306 0.06
159 19 20.1176 8.4915 7.26526 -0.35
542 20 17.8636 3.16529 5.30171 -0.5
541 9 16.7526 3.38583 5.82707 0.52
544 19 16.5567 4.30782 6.88216 -0.35
474 1 16.5781 9.04175 5.46501 0.22
479 11 17.6341 8.72167 5.46649 0.06
472 19 16.2782 9.30078 6.84977 -0.35
287 11 18.0368 6.65449 7.9918 0.06
478 11 16.4001 9.91631 4.82652 0.06
469 9 14.9463 9.79289 6.98219 0.52
286 11 16.8589 7.81601 8.69472 0.06
288 11 16.3338 6.13444 8.40596 0.06
282 1 17.2012 6.78999 8.71476 0.22
163 11 -0.183697 9.48735 5.79597 0.06
161 1 -0.707235 9.7075 6.76713 0.22
1 9 3.13386 10.0769 7.11609 0.52
630 11 2.60649 14.2374 7.62209 0.06
11 11 5.25341 11.1663 7.90536 0.06
4 19 3.33769 11.4911 7.2733 -0.35
6 1 4.62422 11.9254 7.50538 0.22
10 11 4.6235 12.7689 8.22037 0.06
164 11 19.7212 10.344 6.55077 0.06
93 11 4.09147 11.9719 10.4197 0.06
12 11 5.1122 12.2623 6.57201 0.06
387 19 6.21306 14.3814 9.04049 -0.35
388 19 8.40095 14.6337 8.21771 -0.35
385 9 7.00166 14.9766 8.14903 0.52
389 1 6.55181 14.9085 10.3111 0.22
392 11 5.91422 14.5266 11.0676 0.06
386 20 6.41179 15.0098 7.04478 -0.5
390 1 8.68816 13.5785 7.3118 0.22
395 11 9.75026 13.3627 7.38841 0.06
32 11 10.6815 11.4998 6.27806 0.06
27 19 8.75631 11.3341 5.41718 -0.35
29 1 10.1758 10.9794 5.48686 0.22
475 11 15.4735 12.2406 5.79104 0.06
394 11 8.5676 13.8386 6.27299 0.06
69 11 13.1112 11.0984 9.25158 0.06
396 11 8.12268 12.7003 7.60059 0.06
65 1 12.5378 10.1537 9.42446 0.22
67 11 13.1841 9.46229 9.85195 0.06
42 1 15.1889 14.4955 8.7409 0.22
274 11 17.6499 14.1693 4.90383 0.06
276 11 19.076 13.8398 5.86752 0.06
471 19 14.6933 11.1027 7.33375 -0.35
268 19 17.8533 12.2189 5.43623 -0.35
473 1 14.5688 11.882 6.11402 0.22
477 11 13.8049 12.6766 6.29352 0.06
476 11 14.1014 11.4006 5.25916 0.06
135 19 18.7934 11.5872 8.74139 -0.35
133 9 19.6916 12.4865 9.29083 0.52
136 19 20.0755 13.6489 8.67847 -0.35
137 1 18.0719 10.8471 9.67713 0.22
141 11 18.5262 9.87027 9.76703 0.06
270 1 18.0358 13.5832 5.74225 0.22
275 11 17.5069 13.8657 6.65844 0.06
40 19 14.4086 13.7446 9.64096 -0.35
140 11 17.0044 10.6806 9.36488 0.06
627 11 3.31579 17.089 7.40316 0.06
629 11 1.62314 15.728 8.07403 0.06
628 11 3.92565 15.8511 6.75944 0.06
291 19 -0.104926 16.8299 5.42662 -0.35
626 2 3.67914 16.1192 7.77339 0.22
625 2 2.56848 15.189 8.20561 0.22
624 19 2.45741 15.374 9.61273 -0.35
622 20 3.72266 16.5218 11.0489 -0.5
621 9 3.22403 16.442 9.91149 0.52
623 19 3.80271 17.032 8.8333 -0.35
289 9 0.0667468 18.0955 6.15239 0.52
290 20 1.14623 18.2563 6.69076 -0.5
393 11 7.52172 14.6285 10.6618 0.06
391 11 6.37404 15.9612 10.4104 0.06
528 11 4.78007 18.7471 6.0731 0.06
526 11 5.75949 17.5869 5.46619 0.06
520 19 6.79739 19.4751 5.80204 -0.35
527 11 5.97435 18.0752 7.25133 0.06
522 1 5.85381 18.4166 6.20739 0.22
519 19 8.72204 18.464 4.7369 -0.35
521 1 9.48094 17.246 4.92653 0.22
517 9 8.0683 18.9217 5.91635 0.52
518 20 8.58318 19.064 7.00932 -0.5
525 11 10.4 17.2906 5.58093 0.06
192 11 8.65506 0.172088 9.89048 0.06
739 26 14.8844 15.2459 5.62607 -0.39
524 11 9.91835 16.8523 3.98556 0.06
537 11 12.3076 18.4538 6.45047 0.06
535 11 12.5404 17.6082 7.93935 0.06
536 11 10.9229 18.2117 7.58703 0.06
533 1 12.023 18.4479 7.51751 0.22
531 19 12.4327 19.6317 8.23174 -0.35
46 11 14.5853 15.2348 8.19229 0.06
529 9 13.9064 19.5787 8.31284 0.52
530 20 14.4285 20.1143 9.24517 -0.5
144 11 19.6979 15.2185 9.98414 0.06
300 11 -0.0686458 19.417 8.25318 0.06
299 11 20.48 17.8622 8.70465 0.06
538 11 15.6836 17.6275 6.51792 0.06
539 11 16.7533 18.8559 7.27803 0.06
532 19 14.6662 19.3501 7.13997 -0.35
534 1 15.7447 18.39 7.32258 0.22
540 11 15.8252 17.9895 8.33264 0.06
292 19 20.1466 18.5568 6.76426 -0.35
138 1 20.5505 14.7163 9.52399 0.22
298 11 19.5392 19.2579 8.63996 0.06
294 1 20.3248 18.7939 8.12385 0.22
142 11 -0.0930819 14.3216 10.2538 0.06
507 19 2.12684 3.14289 10.3515 -0.35
516 11 -0.187864 4.64586 9.39192 0.06
509 1 3.19987 4.06779 10.0824 0.22
512 11 3.51369 4.5935 11.0353 0.06
678 11 3.58524 19.3752 10.2259 0.06
676 2 3.14653 20.1621 10.9078 0.22
673 19 3.57465 20.5624 12.2156 -0.35
321 11 3.0608 2.58693 12.5337 0.06
317 1 2.85731 3.04933 13.4781 0.22
316 19 5.22817 2.59541 14.6505 -0.35
319 11 2.89284 2.29748 14.3665 0.06
146 20 0.318048 1.21274 15.2212 -0.5
313 9 4.72053 3.87558 14.4589 0.52
315 19 3.76719 4.16342 13.4789 -0.35
320 11 1.83632 3.48207 13.4545 0.06
323 11 5.57671 1.03617 13.325 0.06
318 1 5.94709 2.05576 13.504 0.22
322 11 7.01139 1.87066 13.5578 0.06
182 20 6.43335 2.9114 9.10431 -0.5
324 11 5.77352 2.54894 12.5336 0.06
191 11 8.62281 1.90453 10.1596 0.06
744 26 7.74751 1.81677 16.7866 -0.39
264 11 13.5593 3.79558 10.2728 0.06
263 11 13.5485 2.1308 10.5883 0.06
258 1 12.8677 2.9459 10.2746 0.22
262 11 12.3122 3.10897 11.1697 0.06
608 11 13.4686 3.4006 14.0645 0.06
603 19 15.1006 2.98441 12.8585 -0.35
604 19 16.1163 1.81333 14.5469 -0.35
170 20 12.8779 0.944078 13.8489 -0.5
331 11 17.6999 0.965172 10.1641 0.06
332 11 16.0969 0.869052 9.59629 0.06
601 9 15.9392 1.91795 13.1797 0.52
602 20 16.5509 1.26649 12.3547 -0.5
283 11 18.3521 4.61945 12.1433 0.06
153 11 18.8514 0.150488 13.7224 0.06
149 1 19.3231 20.6791 14.3443 0.22
152 11 18.4629 20.0233 14.6743 0.06
511 11 2.75556 4.81954 9.54129 0.06
641 9 1.17482 7.27051 14.3751 0.52
649 11 4.28186 7.9091 14.9547 0.06
643 19 1.13793 8.67945 13.9584 -0.35
647 11 3.2652 9.23446 13.5618 0.06
646 2 2.49982 9.00757 14.2832 0.22
438 1 5.63763 7.51538 12.1925 0.22
443 11 5.12346 7.95839 11.2929 0.06
442 11 6.11304 8.28499 12.7964 0.06
167 11 0.850099 7.17735 10.4044 0.06
402 1 8.73973 4.70266 13.3045 0.22
408 11 8.07016 3.92091 12.8968 0.06
314 20 5.3901 4.78834 14.868 -0.5
400 19 9.92952 4.23435 13.9459 -0.35
444 11 4.76621 7.17394 12.7673 0.06
436 19 6.5541 6.53175 11.8786 -0.35
407 11 8.96298 5.29497 12.4458 0.06
406 11 8.15507 5.32689 14.0276 0.06
205 9 8.56534 8.3009 14.9271 0.52
208 19 8.86865 7.99198 13.6014 -0.35
398 20 11.0586 6.10351 14.6417 -0.5
397 9 10.9156 5.21325 13.8373 0.52
399 19 11.9754 4.97507 12.9765 -0.35
404 11 12.7075 5.81013 11.1244 0.06
401 1 12.4043 6.08766 12.178 0.22
405 11 11.7475 6.88701 12.0641 0.06
403 11 13.3513 6.41025 12.6721 0.06
102 1 11.7951 11.3503 14.4499 0.22
108 11 10.7159 11.5873 14.398 0.06
106 11 12.1052 11.3996 15.4813 0.06
160 19 -0.393442 8.54377 9.5119 -0.35
162 1 -0.152551 7.64545 10.5135 0.22
166 11 20.4306 6.93999 10.6675 0.06
285 11 19.2249 4.40735 10.6286 0.06
281 1 18.3819 4.05367 11.2232 0.22
284 11 18.6046 2.98402 11.4889 0.06
279 19 17.1151 4.2228 10.6272 -0.35
98 20 11.9336 8.55873 15.1876 -0.5
580 11 17.7036 8.80907 15.9435 0.06
642 20 0.233573 6.47958 14.2208 -0.5
168 11 -0.172437 8.08059 11.5001 0.06
280 19 17.6379 6.51345 10.0406 -0.35
277 9 16.7652 5.6171 10.6626 0.52
278 20 15.6392 6.04446 10.9987 -0.5
579 11 16.2332 7.91596 15.2662 0.06
575 2 16.9383 8.00496 16.0983 0.22
89 1 3.23781 12.3552 10.947 0.22
115 11 -0.323184 11.89 12.728 0.06
116 11 19.6361 11.8499 13.9414 0.06
113 1 20.2405 12.4815 13.2765 0.22
117 11 19.5577 13.0509 12.6367 0.06
111 19 -0.39928 13.3839 14.0714 -0.35
109 9 -0.586906 14.7673 13.9412 0.52
95 11 4.59177 14.924 14.1575 0.06
96 11 3.27924 13.8709 13.7683 0.06
112 19 -0.0640377 15.4385 12.8304 -0.35
87 19 3.19753 11.9648 12.3418 -0.35
92 11 3.26038 13.4468 10.8028 0.06
216 11 9.09089 8.47613 11.6544 0.06
86 20 5.12843 10.7567 12.9344 -0.5
91 11 2.41936 11.9558 10.4096 0.06
210 1 8.9314 8.97376 12.6094 0.22
215 11 9.74801 9.71046 12.7148 0.06
85 9 4.5616 11.8588 12.855 0.52
88 19 5.24984 13.1099 13.2 -0.35
637 11 10.1648 14.5227 10.223 0.06
214 11 8.05065 9.61229 12.5439 0.06
90 1 4.37059 13.8785 14.0013 0.22
763 26 8.32795 15.5444 14.4792 -0.39
94 11 4.47983 13.5469 15.0223 0.06
760 26 9.14936 13.5469 14.7095 -0.39
47 11 15.8486 15.1811 9.2877 0.06
638 11 11.7869 13.9675 10.4576 0.06
636 2 11.124 14.7772 10.692 0.22
62 20 9.79527 11.9656 10.7114 -0.5
639 11 10.2483 15.6356 12.4188 0.06
635 2 11.0041 14.9449 12.194 0.22
640 11 10.6983 13.9354 12.5699 0.06
107 11 12.2963 12.2389 14.0842 0.06
634 19 11.9709 16.0132 12.4585 -0.35
100 19 11.9761 10.2122 13.7016 -0.35
97 9 12.6659 9.26916 14.5399 0.52
134 20 20.274 12.1354 10.3411 -0.5
103 11 14.07 10.1048 12.6583 0.06
104 11 15.2517 10.4631 13.9149 0.06
38 20 14.9831 11.8779 10.7633 -0.5
139 11 18.0636 11.3233 10.6619 0.06
37 9 15.214 13.0657 10.5592 0.52
101 1 14.6634 9.66792 13.4176 0.22
39 19 16.3257 13.6805 11.1223 -0.35
43 11 17.1721 13.7743 12.9879 0.06
41 1 16.2348 13.6044 12.5052 0.22
44 11 15.8032 14.5059 12.9796 0.06
99 19 13.9352 8.74154 14.2451 -0.35
45 11 15.7063 12.7457 12.845 0.06
110 20 20.0763 15.3682 14.7798 -0.5
710 11 18.6743 16.3259 17.0961 0.06
680 11 1.52272 18.8795 11.6309 0.06
118 11 1.55253 16.2254 13.9829 0.06
671 9 2.41773 20.593 13.0446 0.52
672 20 2.3836 -0.204523 14.094 -0.5
675 2 1.62453 19.7545 11.0511 0.22
679 11 1.15349 19.6136 10.096 0.06
674 19 1.28753 20.2377 12.2874 -0.35
120 11 0.171256 17.3585 13.481 0.06
119 11 1.44536 16.6832 12.3727 0.06
114 1 0.785489 16.4727 13.2386 0.22
613 19 5.09229 20.157 14.6915 -0.35
616 2 4.94688 18.7797 14.3407 0.22
618 11 5.20191 18.5785 13.3192 0.06
652 20 5.95729 19.1194 10.2919 -0.5
651 9 6.86753 19.0556 11.1269 0.52
654 19 7.78247 18.0072 11.2839 -0.35
653 19 7.20488 20.2857 11.8156 -0.35
657 11 9.27155 20.5421 11.9199 0.06
658 11 8.56676 20.4673 13.4397 0.06
655 2 8.66312 18.5999 12.2637 0.22
656 2 8.44463 20.0893 12.4271 0.22
660 11 8.64831 18.1387 13.2583 0.06
659 11 9.6862 18.5427 11.9087 0.06
611 9 5.76602 20.2322 15.9127 0.52
614 19 6.40866 18.956 16.1504 -0.35
615 2 5.96685 18.0966 15.1201 0.22
620 11 6.17413 17.1443 14.5914 0.06
179 11 12.2438 19.7326 11.1932 0.06
180 11 12.465 0.0743975 10.9601 0.06
48 11 15.7794 13.8924 8.04087 0.06
631 9 12.7029 16.1439 11.2912 0.52
632 20 13.2799 17.188 11.0881 -0.5
633 19 12.2113 15.4302 10.1587 -0.35
178 11 13.5723 20.5315 11.9032 0.06
174 1 12.5352 20.6037 11.7192 0.22
172 19 11.6503 20.7438 12.8394 -0.35
169 9 12.1731 -0.0400675 13.985 0.52
173 1 13.6485 20.4783 15.6549 0.22
171 19 12.4014 20.3097 14.9906 -0.35
176 11 13.7287 0.0184181 16.2212 0.06
568 11 15.607 17.6313 12.369 0.06
570 11 17.1169 19.7897 12.904 0.06
569 11 15.9728 20.1171 11.6564 0.06
143 11 -0.145422 15.5054 9.07574 0.06
567 11 16.1341 17.6673 10.8496 0.06
565 2 16.787 19.4691 11.8917 0.22
562 20 19.7524 17.9716 10.9753 -0.5
564 19 18.1943 19.4051 11.752 -0.35
561 9 18.596 18.2411 11.1828 0.52
563 19 17.5826 17.3001 11.0765 -0.35
566 2 16.501 17.8961 11.8047 0.22
704 19 17.621 17.7495 15.8491 -0.35
151 11 20.0092 20.037 13.7703 0.06
155 11 20.29 4.05493 15.7942 0.06
244 19 3.17428 3.14672 17.1091 -0.35
242 20 2.32892 1.1551 16.663 -0.5
241 9 2.96954 1.81631 17.4423 0.52
245 1 3.10363 0.958947 19.6557 0.22
243 19 3.84851 1.31195 18.4454 -0.35
246 1 2.35346 4.08768 17.8652 0.22
251 11 2.6648 5.1172 17.6297 0.06
252 11 1.32136 3.95109 17.5894 0.06
250 11 2.50797 4.01104 18.9738 0.06
247 11 2.68994 -0.0625088 19.5716 0.06
14 20 18.4825 -0.116355 0.01956 -0.5
154 11 19.0439 4.04399 14.6134 0.06
428 11 8.73315 19.7116 20.7116 0.06
733 31 6.13351 0.482955 18.3555 1
749 26 6.22161 3.38281 17.1262 -0.39
743 27 7.53861 2.96616 17.7479 1.34
747 26 6.82697 1.97228 18.7144 -0.39
745 26 7.26765 4.14375 18.7367 -0.39
746 26 8.20539 3.94877 16.7845 -0.39
748 26 8.86733 2.70295 18.4875 -0.39
49 9 11.2925 1.44001 -0.411006 0.52
51 19 11.5787 1.53317 19.5521 -0.35
56 11 12.3122 0.291585 17.9892 0.06
607 11 14.6468 4.49693 14.4408 0.06
606 2 14.563 3.45442 14.0565 0.22
605 2 15.1115 2.52144 15.128 0.22
610 11 14.2578 1.97432 15.5828 0.06
57 11 11.655 -0.497068 19.3975 0.06
53 1 11.6336 0.349004 18.8229 0.22
560 11 12.3673 3.51011 17.6258 0.06
559 11 14.0817 3.56319 17.7208 0.06
609 11 15.6345 3.06875 15.9249 0.06
55 11 10.6228 0.307051 18.4092 0.06
722 20 16.3523 -0.184184 18.4488 -0.5
15 19 20.6479 0.484638 -0.516493 -0.35
147 19 19.8532 -0.139607 15.4847 -0.35
145 9 20.4342 1.1051 15.112 0.52
22 11 19.2265 19.894 17.6207 0.06
16 19 19.4123 20.0799 19.6615 -0.35
13 9 19.4729 -0.267577 20.6348 0.52
18 1 19.4818 20.6381 18.3905 0.22
23 11 18.7778 0.140001 18.3581 0.06
148 19 19.5869 2.20852 15.2618 -0.35
156 11 20.7236 3.64336 14.2299 0.06
150 1 19.9519 3.56316 14.9162 0.22
24 11 20.4541 -0.3076 18.1277 0.06
644 19 2.15227 6.99327 15.3569 -0.35
645 2 3.1692 7.95526 15.0536 0.22
648 11 2.39439 9.94304 14.7638 0.06
650 11 2.99919 8.18974 16.1174 0.06
356 11 0.932359 11.1379 17.0824 0.06
353 1 0.854328 10.2586 17.7155 0.22
201 11 4.52959 9.87882 17.8395 0.06
207 19 7.31239 8.91323 15.2176 -0.35
734 31 6.43282 4.83209 16.1175 1
197 1 4.88263 8.99978 18.3624 0.22
200 11 5.62567 9.2702 18.9916 0.06
195 19 5.26454 8.13248 17.3154 -0.35
206 20 9.44383 8.2093 15.7814 -0.5
193 9 6.12329 7.10223 17.7553 0.52
194 20 6.36312 6.23523 16.9739 -0.5
196 19 6.8572 7.15036 19.0022 -0.35
202 11 8.5676 7.50592 17.7098 0.06
203 11 8.58257 8.19316 19.3469 0.06
198 1 8.28607 7.3701 18.7475 0.22
204 11 8.78387 6.46337 19.1499 0.06
199 11 4.01323 8.70465 18.9318 0.06
557 11 14.0558 4.47565 19.9098 0.06
555 2 13.195 4.12706 17.9191 0.22
732 31 11.0969 7.29971 15.819 1
556 2 13.1272 4.61292 19.3371 0.22
554 19 12.7538 5.13703 17.063 -0.35
551 9 12.3094 6.07244 17.922 0.52
553 19 12.5809 5.91654 19.2797 -0.35
552 20 11.3293 6.78282 17.6162 -0.5
464 11 14.0209 9.82183 20.3011 0.06
599 11 20.0527 5.10766 19.5618 0.06
595 2 20.3087 6.15532 19.4636 0.22
594 19 -0.438948 6.24107 -0.478186 -0.35
596 2 19.1771 7.10299 19.3573 0.22
574 19 17.0898 6.54955 16.1508 -0.35
600 11 -0.287919 6.24013 18.6519 0.06
577 11 15.0878 8.26108 17.2653 0.06
571 9 16.482 6.14033 17.3735 0.52
572 20 16.5711 5.0089 17.8021 -0.5
573 19 15.925 7.17786 18.1239 -0.35
576 2 16.1447 8.40728 17.3537 0.22
578 11 16.2568 9.5232 17.5633 0.06
598 11 18.9649 7.52653 18.3683 0.06
350 20 19.299 9.924 17.1975 -0.5
351 19 -0.259463 10.2875 18.6319 -0.35
355 11 1.82087 10.4102 18.2466 0.06
382 11 3.32031 15.1402 18.6172 0.06
383 11 2.84268 15.1501 16.8953 0.06
378 1 3.02311 14.4991 17.7959 0.22
384 11 2.10707 14.0176 18.0945 0.06
376 19 3.99214 13.5597 17.5238 -0.35
373 9 4.38251 12.7482 18.6853 0.52
374 20 3.77111 11.7881 19.0007 -0.5
358 11 18.0937 13.6464 17.5638 0.06
379 11 6.39175 14.464 18.0282 0.06
213 11 8.20017 10.2868 16.343 0.06
211 11 7.59323 10.8797 14.6803 0.06
375 19 5.67701 12.9829 19.2748 -0.35
131 11 8.92326 12.2046 0.484372 0.06
209 1 7.45288 10.2299 15.5308 0.22
212 11 6.46398 10.5252 15.8713 0.06
757 27 8.48987 14.6088 15.623 1.34
124 19 8.85169 10.6178 -0.65564 -0.35
126 1 8.34448 12.0011 -0.437835 0.22
132 11 8.59434 12.7248 20.102 0.06
758 26 7.04892 14.1036 15.3338 -0.39
762 26 8.6635 13.6547 16.8618 -0.39
759 26 9.87162 15.1894 16.0015 -0.39
129 11 10.6026 10.5732 17.232 0.06
236 11 8.59495 16.2376 18.9811 0.06
584 19 13.9812 13.6378 15.0313 -0.35
123 19 10.6291 10.0343 19.0885 -0.35
463 11 13.9422 10.8305 19.0253 0.06
121 9 10.2033 10.5138 20.3243 0.52
461 1 14.3033 10.805 20.0398 0.22
465 11 13.7498 11.5907 -0.793054 0.06
587 11 11.737 13.9009 17.2536 0.06
122 20 11.0561 11.0292 -0.269423 -0.5
128 11 11.8159 11.4689 18.2561 0.06
125 1 10.785 11.088 18.1654 0.22
237 11 9.41687 15.2002 20.0996 0.06
127 11 10.1086 11.9382 18.2335 0.06
586 2 12.7258 14.2475 17.0821 0.22
583 19 13.7169 13.2302 17.4364 -0.35
581 9 14.216 12.7927 16.2022 0.52
582 20 14.3817 11.612 15.9639 -0.5
468 11 16.2984 14.5088 0.757041 0.06
105 11 15.4649 9.10054 12.917 0.06
349 9 19.831 10.7599 17.9682 0.52
352 19 19.2354 12.0163 18.2975 -0.35
459 19 15.7507 10.8992 20.1085 -0.35
457 9 16.2698 12.16 19.8358 0.52
359 11 19.6153 13.8502 17.1841 0.06
708 11 16.7306 15.3578 17.8925 0.06
458 20 16.3459 12.5658 18.6934 -0.5
360 11 18.7986 12.4391 16.3056 0.06
354 1 18.976 12.9824 17.2299 0.22
420 11 -0.471619 16.3193 -0.505652 0.06
617 11 3.96652 18.5841 14.6452 0.06
248 11 3.68877 1.02625 20.6073 0.06
426 1 4.33016 19.1887 -0.333479 0.22
432 11 3.87857 19.7832 0.459066 0.06
430 11 3.4969 18.6033 -0.733764 0.06
731 31 1.80451 -0.0676121 15.6118 1
753 26 0.204996 18.3298 16.7682 -0.39
756 26 2.02685 17.5503 16.1724 -0.39
750 27 1.592 18.5141 17.3904 1.34
752 26 1.44418 17.2236 18.2101 -0.39
751 26 1.76616 19.8331 16.6286 -0.39
755 26 1.03166 19.2845 18.6385 -0.39
754 26 3.00478 18.725 17.8552 -0.39
427 11 9.05489 -0.0348304 20.4516 0.06
425 1 8.57017 20.4492 19.957 0.22
612 20 5.64793 -0.20298 16.7182 -0.5
619 11 5.74118 17.8527 16.198 0.06
424 19 4.94785 20.0395 20.0643 -0.35
421 9 6.27207 19.6674 19.8147 0.52
423 19 7.16262 -0.605536 19.7337 -0.35
761 26 7.96073 15.7141 16.4976 -0.39
238 11 9.70414 19.3507 16.9223 0.06
422 20 6.57321 18.7024 19.1655 -0.5
234 1 9.57731 18.3404 16.5853 0.22
239 11 9.38134 18.2029 15.528 0.06
240 11 8.64618 18.0639 17.1064 0.06
235 11 9.29907 16.8006 20.5674 0.06
233 1 9.41214 16.1738 19.6592 0.22
589 11 12.2202 14.6903 14.9902 0.06
585 2 13.1265 14.6526 15.6144 0.22
590 11 13.5551 15.6635 15.5849 0.06
175 11 14.4762 20.6767 15.0196 0.06
588 11 12.9563 14.9915 17.7765 0.06
721 9 15.5975 20.5039 19.2173 0.52
177 11 13.887 19.5892 16.3307 0.06
231 19 10.6657 16.3179 19.0993 -0.35
232 19 10.6706 17.4865 16.9539 -0.35
229 9 10.6885 17.4472 18.331 0.52
230 20 11.007 18.5438 18.8773 -0.5
730 11 13.2496 18.5687 19.7809 0.06
725 2 14.3225 18.7685 19.8392 0.22
724 19 15.0114 19.3208 18.8215 -0.35
414 1 20.2134 16.9511 20.2074 0.22
702 20 15.6877 18.1134 14.67 -0.5
709 11 18.1796 17.7894 17.421 0.06
705 2 17.834 16.9455 16.9043 0.22
418 11 20.2992 16.6618 19.1571 0.06
707 11 16.2127 16.84 18.2815 0.06
706 2 16.4952 16.2807 17.3843 0.22
703 19 15.5631 16.7038 16.4592 -0.35
729 11 14.75 17.7394 19.8516 0.06
701 9 16.2677 17.5336 15.588 0.52
ITEM: TIMESTEP
600
ITEM: NUMBER OF ATOMS
770
ITEM: BOX BOUNDS pp pp pp
-6.6292199452242073e-01 2.0662921994522527e+01
-6.6292199452242073e-01 2.0662921994522527e+01
-6.6292199452242073e-01 2.0662921994522527e+01
ITEM: ATOMS id type x y z c_charge
74 20 1.97307 0.242422 2.94123 -0.5
73 9 1.04556 0.739196 3.4964 0.52
75 19 0.110548 1.58478 2.84891 -0.35
77 1 20.3822 2.02481 3.71102 0.22
81 11 19.4903 2.37048 3.12143 0.06
684 19 1.81999 4.39759 4.93262 -0.35
76 19 0.570386 -0.0193529 4.58986 -0.35
309 11 2.83468 4.36641 2.61145 0.06
249 11 2.54608 1.52665 19.761 0.06
308 11 2.89062 2.82771 1.87263 0.06
305 1 2.74612 3.89398 1.64603 0.22
79 11 19.971 1.29845 4.4316 0.06
489 11 2.78955 19.1433 4.49536 0.06
488 11 3.63134 18.7033 3.19648 0.06
19 11 1.35292 0.0742813 0.578364 0.06
303 19 3.75562 4.23399 0.780809 -0.35
692 20 6.88532 1.7238 0.266982 -0.5
691 9 6.44001 1.1974 1.23023 0.52
694 19 6.88867 -0.0587087 1.54919 -0.35
693 19 5.58845 1.72703 2.12765 -0.35
54 1 10.0044 3.09368 1.08396 0.22
60 11 9.62405 2.33674 1.77041 0.06
696 2 5.71159 0.898431 3.31505 0.22
453 11 8.95027 4.57034 3.53698 0.06
698 11 4.73438 0.942372 2.85884 0.06
695 2 6.36303 -0.42901 2.7813 0.22
58 11 10.1979 3.87451 1.67358 0.06
59 11 9.40446 3.31997 0.238998 0.06
449 1 9.23409 4.21472 4.54383 0.22
451 11 9.4813 3.17236 4.30261 0.06
699 11 7.28452 20.7216 3.35242 0.06
697 11 5.61601 1.11796 4.35077 0.06
307 11 1.71073 4.00631 1.30003 0.06
52 19 11.2507 2.73374 0.474361 -0.35
348 11 14.2997 2.00644 1.43585 0.06
50 20 11.2653 0.464367 0.25057 -0.5
342 1 15.1169 1.83071 2.1079 0.22
347 11 14.9124 1.22247 2.91413 0.06
338 20 14.1618 4.90098 2.08237 -0.5
337 9 15.2206 4.2696 1.79636 0.52
346 11 15.9076 1.20517 1.57649 0.06
340 19 15.6509 3.09463 2.55174 -0.35
339 19 16.0064 4.92666 0.750156 -0.35
493 9 11.9247 1.12003 3.84078 0.52
497 1 12.8955 20.3721 3.69331 0.22
494 20 12.0388 2.2887 3.42912 -0.5
499 11 12.8778 20.432 2.61483 0.06
343 11 16.4036 3.76843 20.3579 0.06
345 11 17.3659 3.3836 0.34412 0.06
341 1 16.944 4.19941 -0.115135 0.22
17 1 0.526388 -0.604303 0.369927 0.22
20 11 0.21728 20.1849 1.2871 0.06
80 11 -0.640124 2.89138 4.31941 0.06
690 11 1.51186 6.75699 5.0129 0.06
306 1 2.57353 7.54259 1.32499 0.22
311 11 3.47135 8.09513 1.3789 0.06
312 11 1.78036 8.19197 0.984571 0.06
592 20 20.3779 7.81667 1.30208 -0.5
8 11 2.80729 9.28435 4.06603 0.06
9 11 2.47437 10.9692 4.51356 0.06
301 9 3.90036 5.66225 0.700724 0.52
304 19 2.79631 6.47371 0.421687 -0.35
310 11 2.12884 7.20476 2.29883 0.06
452 11 8.32983 4.26225 5.22699 0.06
302 20 4.91871 6.12995 1.21553 -0.5
714 19 8.3887 7.90086 3.56729 -0.35
716 2 6.09133 7.54924 3.41259 0.22
713 19 6.39059 7.44322 4.77988 -0.35
711 9 7.77685 7.82931 4.85041 0.52
719 11 7.31432 6.23709 2.39482 0.06
720 11 7.43214 7.79241 1.77008 0.06
715 2 7.41924 7.23528 2.7313 0.22
717 11 5.51504 6.65008 3.68136 0.06
712 20 8.4425 7.52749 5.859 -0.5
446 20 11.3092 5.1957 3.20783 -0.5
363 19 14.1039 8.39032 0.745895 -0.35
368 11 15.9649 7.46729 0.7998 0.06
735 31 12.6751 5.69278 2.3335 1
361 9 13.2385 8.20101 1.8328 0.52
362 20 12.63 7.18976 1.98149 -0.5
364 19 13.0514 9.21913 2.77165 -0.35
365 1 15.4627 8.39573 1.0994 0.22
369 11 15.9646 9.24688 0.628739 0.06
445 9 11.4087 4.98941 4.36261 0.52
558 11 12.0208 4.31941 19.7361 0.06
591 9 20.1631 7.39407 0.185245 0.52
344 11 17.7979 4.80272 -0.364412 0.06
597 11 18.2953 6.81166 19.1448 0.06
593 19 19.2173 7.98791 -0.626259 -0.35
367 11 15.7329 8.32285 2.19254 0.06
480 11 16.5106 7.73592 5.84045 0.06
670 11 20.1689 10.411 1.45413 0.06
669 11 -0.087455 11.3536 2.46327 0.06
665 2 -0.185836 10.8805 1.45746 0.22
664 19 1.0609 10.2773 1.83224 -0.35
661 9 2.02175 11.0202 1.30526 0.52
663 19 1.61244 11.976 0.352565 -0.35
666 2 0.163955 11.9277 0.399836 0.22
668 11 0.0434579 11.5743 -0.575582 0.06
667 11 -0.389519 12.8572 0.569556 0.06
662 20 3.10995 10.9588 1.88189 -0.5
357 11 0.666947 10.2365 16.7213 0.06
380 11 5.52962 14.9444 19.6841 0.06
381 11 7.18436 14.3818 19.2294 0.06
377 1 6.10948 14.2649 19.0197 0.22
718 11 5.41441 7.98177 2.68906 0.06
36 11 6.52481 12.6442 2.7049 0.06
26 20 8.65792 10.859 2.90807 -0.5
25 9 8.07799 11.1121 3.96713 0.52
227 11 11.0224 14.2196 0.0227486 0.06
222 1 11.3932 14.6593 0.921909 0.22
30 1 6.00649 12.1136 3.58307 0.22
34 11 4.94918 12.0245 3.19483 0.06
28 19 6.71667 10.9445 3.97992 -0.35
35 11 5.83336 12.7769 4.40528 0.06
130 11 7.32709 11.621 -0.718415 0.06
372 11 12.8696 11.3776 3.02279 0.06
370 11 12.7308 10.6752 1.36114 0.06
366 1 12.5249 10.4988 2.42512 0.22
371 11 11.4063 10.5437 2.57729 0.06
226 11 11.1421 14.1479 1.80767 0.06
737 26 14.5602 13.9031 3.71714 -0.39
228 11 12.4821 14.6095 0.841233 0.06
33 11 9.71016 9.59963 4.87357 0.06
460 19 16.1248 12.8787 -0.221685 -0.35
467 11 15.4014 14.5226 20.0132 0.06
31 11 10.7561 10.9628 4.68857 0.06
462 1 16.0696 14.2331 -0.524675 0.22
466 11 16.9762 14.6092 20.4046 0.06
266 20 19.7767 11.4203 4.46426 -0.5
272 11 16.2501 11.7519 2.17961 0.06
273 11 17.1053 13.1785 2.87494 0.06
271 11 17.745 12.1893 1.46878 0.06
269 1 17.2187 12.2039 2.41528 0.22
267 19 17.8579 11.2721 3.264 -0.35
265 9 18.5958 11.7557 4.34296 0.52
490 11 2.05466 14.8282 0.756925 0.06
419 11 20.6568 17.7784 20.2449 0.06
486 1 2.77549 15.0564 1.50727 0.22
491 11 3.5382 15.6702 1.05703 0.06
492 11 3.29889 14.1943 1.90282 0.06
484 19 2.09556 15.7943 2.54079 -0.35
481 9 1.79222 17.1813 2.04799 0.52
482 20 1.29926 17.4173 0.920235 -0.5
483 19 1.7205 18.2267 2.97933 -0.35
487 11 3.2526 17.4258 4.22497 0.06
485 1 2.85617 18.3345 3.78009 0.22
431 11 4.87524 18.8264 0.397716 0.06
295 11 20.7461 18.1058 4.04772 0.06
296 11 20.6134 16.3945 3.35083 0.06
768 26 5.67911 14.9813 2.27265 -0.39
770 26 5.36682 17.1933 2.59427 -0.39
766 26 7.02412 16.0125 3.54462 -0.39
764 27 6.52912 16.2669 2.08795 1.34
765 26 6.05534 16.4611 0.593375 -0.39
769 26 7.71464 15.398 1.5481 -0.39
429 11 8.93034 19.7771 19.5323 0.06
767 26 7.34772 17.5568 1.9587 -0.39
700 11 5.73907 20.0061 2.85111 0.06
225 11 9.60135 18.4415 2.07183 0.06
220 19 10.8732 15.9748 0.995359 -0.35
523 11 9.02258 16.6135 5.95537 0.06
223 11 10.5834 19.7558 2.28037 0.06
500 11 13.6144 19.5695 3.88179 0.06
501 11 11.9542 19.9365 3.98056 0.06
736 27 14.5142 15.3893 4.06317 1.34
741 26 13.0081 15.2524 4.37197 -0.39
740 26 14.1443 15.5714 2.56093 -0.39
738 26 14.4219 16.9258 4.28343 -0.39
728 11 14 20.6105 -0.291254 0.06
217 9 11.827 16.9998 1.214 0.52
218 20 12.5807 17.3584 0.311455 -0.5
224 11 10.5905 19.0592 0.768974 0.06
221 1 10.6019 18.7709 1.81265 0.22
219 19 11.6139 17.9205 2.22125 -0.35
727 11 14.7156 19.2506 0.441582 0.06
723 19 15.2721 -0.3504 20.2574 -0.35
726 2 14.7398 19.8201 -0.454759 0.22
742 26 15.9908 15.4882 3.64785 -0.39
417 11 17.2458 17.8821 2.16634 0.06
409 9 19.0142 16.6202 0.565893 0.52
410 20 18.527 15.6639 1.10434 -0.5
413 1 17.9458 18.5315 1.56276 0.22
415 11 18.085 19.413 2.22028 0.06
416 11 17.5212 18.9521 0.637182 0.06
411 19 19.149 17.868 1.33404 -0.35
293 1 20.4566 17.0152 4.22953 0.22
297 11 19.439 17.0109 4.53064 0.06
412 19 18.867 16.7557 20.4707 -0.35
21 11 0.984041 19.938 -0.22369 0.06
689 11 0.949021 5.24684 5.68859 0.06
78 1 1.1166 0.520211 5.84031 0.22
84 11 1.04414 -0.0909293 6.72056 0.06
83 11 0.693235 1.46883 6.13606 0.06
82 11 2.20849 0.703671 5.71655 0.06
510 1 -0.24392 3.80756 8.37324 0.22
506 20 1.70414 1.50449 9.43438 -0.5
508 19 1.12111 3.39593 8.17434 -0.35
505 9 1.61763 2.7 9.33554 0.52
188 11 5.18276 0.61124 6.97286 0.06
681 9 2.93175 3.83824 5.49148 0.52
682 20 3.45278 2.80069 5.02665 -0.5
187 11 4.0005 1.95267 7.35813 0.06
513 11 4.11631 3.39088 10.4144 0.06
515 11 20.5097 2.962 8.79402 0.06
677 11 3.49362 -0.327941 10.4487 0.06
503 11 12.0577 1.26135 6.33927 0.06
498 1 11.0314 1.08147 6.03662 0.22
185 1 4.5002 1.02328 7.75884 0.22
189 11 3.74116 0.258635 7.84293 0.06
183 19 5.17603 1.04508 8.98645 -0.35
181 9 6.43082 1.65295 8.89858 0.52
184 19 7.48828 1.0267 8.27501 -0.35
504 11 10.4099 1.95943 6.42249 0.06
259 11 9.55173 3.93795 7.34667 0.06
257 1 9.45642 4.5132 8.24522 0.22
260 11 8.51125 4.33708 8.75606 0.06
186 1 8.67988 1.18026 9.12258 0.22
502 11 10.6513 0.189911 6.61051 0.06
496 19 10.7745 0.824299 4.66515 -0.35
495 19 13.0869 0.360661 4.23178 -0.35
255 19 10.4074 4.09979 9.19545 -0.35
547 11 13.6511 3.31427 6.20461 0.06
546 2 14.74 3.06434 6.16606 0.22
548 11 14.952 2.06995 6.60233 0.06
190 11 9.3965 1.45687 8.39406 0.06
253 9 11.7185 3.91044 8.65422 0.52
256 19 12.2986 2.68347 9.02513 -0.35
334 11 18.7994 -0.540215 4.70902 0.06
330 1 17.8737 -0.425938 5.32174 0.22
336 11 17.3726 0.493658 4.94669 0.06
335 11 17.3284 19.9973 5.01173 0.06
328 19 18.1735 -0.507275 6.69848 -0.35
325 9 18.4545 0.785901 7.25101 0.52
326 20 19.6086 1.16226 7.39605 -0.5
327 19 17.4396 1.43214 7.96809 -0.35
514 11 -0.653135 4.04497 7.42479 0.06
543 19 15.8338 2.45369 5.46347 -0.35
329 1 17.1783 1.06355 9.31398 0.22
545 2 15.4657 4.0603 7.06387 0.22
550 11 16.1902 3.62341 7.76408 0.06
333 11 16.7189 0.0950763 9.37944 0.06
685 2 1.84481 5.76264 5.26663 0.22
688 11 3.66312 6.60435 5.91918 0.06
686 2 2.95806 5.87476 6.36946 0.22
687 11 2.44119 6.38774 7.22066 0.06
683 19 3.61871 4.61375 6.39001 -0.35
157 9 -0.490565 7.82864 8.02116 0.52
158 20 0.096902 6.76152 7.71411 -0.5
3 19 2.42429 9.71215 6.14515 -0.35
165 11 -0.295116 10.4049 7.47544 0.06
7 11 3.97135 10.284 4.77975 0.06
5 1 2.94631 10.0429 4.83809 0.22
2 20 3.25604 9.57502 8.30717 -0.5
441 11 6.33388 5.38895 7.81349 0.06
437 1 6.0217 6.35061 8.21822 0.22
440 11 6.8416 7.02788 8.0078 0.06
439 11 5.15057 6.72019 7.7061 0.06
447 19 10.3269 4.74503 5.1452 -0.35
70 11 9.01862 8.96482 8.0767 0.06
66 1 9.17288 9.43942 9.04736 0.22
435 19 5.77741 6.26986 9.57122 -0.35
433 9 6.82448 6.45874 10.4106 0.52
71 11 9.66984 8.73059 9.66644 0.06
261 11 9.49777 5.58476 7.98654 0.06
72 11 8.1388 9.69756 9.39773 0.06
434 20 7.96461 6.60179 10.0202 -0.5
254 20 12.059 4.43805 7.60158 -0.5
456 11 11.9294 6.89764 6.26024 0.06
454 11 13.5118 7.27628 5.34085 0.06
549 11 14.8113 4.72696 7.55018 0.06
448 19 12.5368 5.52948 4.97321 -0.35
455 11 12.0118 7.37311 4.6003 0.06
450 1 12.4534 6.86822 5.38794 0.22
61 9 10.2816 10.9844 10.2657 0.52
64 19 9.88249 10.6601 8.93757 -0.35
63 19 11.3433 10.2826 10.8092 -0.35
470 20 14.0154 9.24387 6.65362 -0.5
68 11 12.2055 9.64151 8.97219 0.06
159 19 20.1383 8.4679 7.0281 -0.35
542 20 18.0554 2.97302 5.16777 -0.5
541 9 16.9069 3.34067 5.496 0.52
544 19 16.6851 4.3269 6.42549 -0.35
474 1 16.6071 8.84349 5.70302 0.22
479 11 17.5862 9.08285 5.35718 0.06
472 19 16.2885 9.51057 6.92519 -0.35
287 11 17.6402 6.35275 7.73699 0.06
478 11 15.8989 9.15547 4.94481 0.06
469 9 14.9468 9.99218 6.84648 0.52
286 11 17.4243 7.94545 8.43541 0.06
288 11 16.1244 6.79206 8.38305 0.06
282 1 17.1706 6.88152 8.56783 0.22
163 11 -0.415934 9.89966 5.79745 0.06
161 1 20.4166 9.84873 6.76126 0.22
1 9 3.09423 10.2531 7.29667 0.52
630 11 3.33967 14.3364 8.69206 0.06
11 11 5.47402 11.0339 7.33207 0.06
4 19 3.34966 11.6829 7.4064 -0.35
6 1 4.77553 11.9281 7.4474 0.22
10 11 5.13795 12.4764 8.30277 0.06
164 11 19.4678 10.3441 6.71826 0.06
93 11 3.72584 11.4302 10.5145 0.06
12 11 5.07426 12.5301 6.59972 0.06
387 19 6.157 14.5818 9.28725 -0.35
388 19 8.34658 14.5995 8.14395 -0.35
385 9 6.91523 14.8218 8.11426 0.52
389 1 6.61813 15.1395 10.4603 0.22
392 11 6.14938 14.6859 11.3654 0.06
386 20 6.45478 15.2536 7.10462 -0.5
390 1 8.69411 13.3207 7.62239 0.22
395 11 9.7444 13.008 7.77783 0.06
32 11 10.2186 10.5102 6.29429 0.06
27 19 8.7919 11.4099 5.12646 -0.35
29 1 9.89544 10.5651 5.22731 0.22
475 11 15.2297 12.4218 5.68679 0.06
394 11 8.6056 13.4435 6.52206 0.06
69 11 12.5146 11.322 9.31935 0.06
396 11 8.03723 12.5031 7.98849 0.06
65 1 12.3551 10.3826 9.76017 0.22
67 11 13.3349 10.017 10.1594 0.06
42 1 15.028 14.3808 8.68335 0.22
274 11 17.9203 14.1505 5.14482 0.06
276 11 19.1785 13.4648 6.12865 0.06
471 19 14.7674 11.2967 7.17031 -0.35
268 19 17.7977 12.0246 5.43627 -0.35
473 1 14.2478 11.9991 6.10652 0.22
477 11 13.5522 12.7109 6.47822 0.06
476 11 13.7464 11.4244 5.29848 0.06
135 19 18.6377 11.7458 8.69861 -0.35
133 9 19.7173 12.5158 9.34263 0.52
136 19 19.8331 13.8018 8.77092 -0.35
137 1 17.9356 10.8271 9.49938 0.22
141 11 18.5533 9.95463 9.79399 0.06
270 1 18.1326 13.3598 5.84946 0.22
275 11 17.5754 13.5853 6.74014 0.06
40 19 14.3809 13.7713 9.82178 -0.35
140 11 17.1236 10.4139 8.94611 0.06
627 11 2.89854 16.8647 7.20506 0.06
629 11 1.9178 14.8099 7.73976 0.06
628 11 4.13135 15.9456 7.13946 0.06
291 19 -0.0281249 16.5855 5.31594 -0.35
626 2 3.43849 16.2765 7.90586 0.22
625 2 2.64476 15.1244 8.47236 0.22
624 19 2.47713 15.3702 9.82527 -0.35
622 20 3.75393 16.602 11.1867 -0.5
621 9 3.52924 16.2237 10.0856 0.52
623 19 4.06753 16.8356 8.97859 -0.35
289 9 0.0842246 17.5682 6.37025 0.52
290 20 1.17707 18.1116 6.47742 -0.5
393 11 7.69123 14.9658 10.6291 0.06
391 11 6.33155 16.1974 10.5486 0.06
528 11 4.79921 18.8788 6.27332 0.06
526 11 5.7627 17.6229 5.88657 0.06
520 19 6.80092 19.3412 5.94022 -0.35
527 11 5.98589 18.4578 7.50169 0.06
522 1 5.77488 18.5666 6.42401 0.22
519 19 8.90481 18.4115 4.98409 -0.35
521 1 9.34521 17.1139 5.07016 0.22
517 9 8.17242 18.8518 6.09751 0.52
518 20 8.81435 19.3351 7.01915 -0.5
525 11 10.3988 17.164 5.10657 0.06
192 11 9.00615 0.173428 9.3836 0.06
739 26 14.8999 15.192 5.5513 -0.39
524 11 9.20407 16.5198 4.18793 0.06
537 11 12.0228 18.2053 6.87873 0.06
535 11 12.4459 17.4191 8.38871 0.06
536 11 10.8916 18.2158 8.06856 0.06
533 1 11.9345 18.2955 7.94374 0.22
531 19 12.3386 19.5884 8.37154 -0.35
46 11 14.573 15.3634 8.5311 0.06
529 9 13.7973 19.8379 8.20497 0.52
530 20 14.5254 20.2798 9.19953 -0.5
144 11 19.5624 14.8565 10.4806 0.06
300 11 -0.969905 19.8582 8.01099 0.06
299 11 -0.47387 18.4132 8.75202 0.06
538 11 15.341 17.5536 6.78121 0.06
539 11 16.5226 18.7374 7.28511 0.06
532 19 14.478 19.3585 7.1058 -0.35
534 1 15.52 18.3943 7.40223 0.22
540 11 15.5111 18.1111 8.44946 0.06
292 19 20.1982 18.1951 6.77292 -0.35
138 1 20.335 14.7581 9.7296 0.22
298 11 19.1486 18.6591 8.48264 0.06
294 1 20.1644 18.834 8.0642 0.22
142 11 0.0539271 14.5913 10.0798 0.06
507 19 2.11917 3.45058 10.3968 -0.35
516 11 -0.222964 4.62839 9.11023 0.06
509 1 3.32948 3.99874 9.98408 0.22
512 11 3.38447 4.97447 10.4114 0.06
678 11 3.66208 19.3239 10.3171 0.06
676 2 3.2274 20.0381 10.9807 0.22
673 19 3.63215 20.5739 12.2172 -0.35
321 11 2.83259 2.32464 12.9823 0.06
317 1 2.4895 3.2678 13.4264 0.22
316 19 5.08176 2.62459 14.6909 -0.35
319 11 2.08497 3.1572 14.3814 0.06
146 20 0.112491 1.071 14.8996 -0.5
313 9 4.79484 3.85908 14.1913 0.52
315 19 3.59647 4.19165 13.4959 -0.35
320 11 1.69275 3.6461 12.7901 0.06
323 11 5.52397 1.04802 13.5281 0.06
318 1 5.99009 1.9219 13.9631 0.22
322 11 6.7601 1.50763 14.648 0.06
182 20 6.5559 2.81159 9.33316 -0.5
324 11 6.57056 2.386 13.1627 0.06
191 11 8.64874 1.88442 9.95632 0.06
744 26 7.76135 1.94987 16.8661 -0.39
264 11 13.4989 3.81977 10.2335 0.06
263 11 13.9948 2.19143 9.91345 0.06
258 1 13.1376 2.80044 10.0763 0.22
262 11 12.6408 2.46365 11.0405 0.06
608 11 13.7687 3.66771 14.163 0.06
603 19 14.8773 3.17031 12.9237 -0.35
604 19 15.9957 1.70799 14.3637 -0.35
170 20 12.708 1.10541 13.994 -0.5
331 11 18.0967 1.02195 9.86482 0.06
332 11 16.6613 1.87536 9.76417 0.06
601 9 15.7196 2.08927 13.0756 0.52
602 20 16.3968 1.70576 12.1312 -0.5
283 11 18.1897 3.47079 12.3586 0.06
153 11 18.0179 -0.0453323 14.2955 0.06
149 1 18.958 -0.584181 14.3811 0.22
152 11 18.7384 19.7004 14.2863 0.06
511 11 3.62075 4.20722 8.87894 0.06
641 9 1.11612 7.19562 14.5612 0.52
649 11 4.21981 7.86792 14.8822 0.06
643 19 1.15759 8.45588 13.9884 -0.35
647 11 2.36861 8.9153 13.1866 0.06
646 2 2.47755 8.95814 14.2707 0.22
438 1 5.3555 7.32132 11.9688 0.22
443 11 4.8698 7.91252 11.2261 0.06
442 11 5.38325 7.84915 12.9186 0.06
167 11 0.708581 7.16865 10.3175 0.06
402 1 8.95016 4.57981 13.3219 0.22
408 11 8.41832 3.73542 12.9827 0.06
314 20 5.43259 4.80752 14.6307 -0.5
400 19 10.0712 3.96941 13.9011 -0.35
444 11 4.57423 6.59897 12.1575 0.06
436 19 6.54984 6.58473 11.7866 -0.35
407 11 9.10728 5.10583 12.3542 0.06
406 11 8.31023 5.13206 13.9787 0.06
205 9 8.74254 8.39589 14.8994 0.52
208 19 8.79052 7.74877 13.7065 -0.35
398 20 11.1444 5.87485 14.7184 -0.5
397 9 11.111 4.92325 13.9215 0.52
399 19 12.0519 4.88378 12.8521 -0.35
404 11 12.9353 5.88359 11.4368 0.06
401 1 12.561 6.1096 12.3738 0.22
405 11 11.742 6.82714 12.0807 0.06
403 11 13.3496 6.55391 12.9359 0.06
102 1 11.2324 11.2072 14.49 0.22
108 11 10.301 10.6957 14.6448 0.06
106 11 11.6885 11.5592 15.423 0.06
160 19 -0.447588 8.44592 9.2451 -0.35
162 1 -0.282866 7.54412 10.3219 0.22
166 11 20.2974 6.70634 10.3406 0.06
285 11 18.9602 4.82457 11.5207 0.06
281 1 18.3609 3.90512 11.3467 0.22
284 11 18.9503 3.26633 10.7356 0.06
279 19 17.0791 4.23582 10.7175 -0.35
98 20 12.0069 8.51701 15.0594 -0.5
580 11 17.5901 8.75849 15.8448 0.06
642 20 0.427435 6.34912 14.0288 -0.5
168 11 -0.512086 7.90684 11.3188 0.06
280 19 17.6675 6.49648 9.85114 -0.35
277 9 16.7758 5.65172 10.6127 0.52
278 20 15.7001 6.1041 10.9389 -0.5
579 11 16.2206 7.86181 15.1785 0.06
575 2 16.8802 8.00872 16.0188 0.22
89 1 3.13358 12.2853 10.9441 0.22
115 11 -0.662415 12.0413 12.9463 0.06
116 11 19.4024 12.2178 14.0947 0.06
113 1 20.0259 12.766 13.4107 0.22
117 11 19.3848 13.2179 12.6614 0.06
111 19 -0.446865 13.6755 14.1974 -0.35
109 9 20.6213 15.0129 14.1338 0.52
95 11 5.07465 14.9538 14.6339 0.06
96 11 3.59702 14.3656 13.9527 0.06
112 19 -0.00911013 15.684 13.1317 -0.35
87 19 3.17292 12.2745 12.3773 -0.35
92 11 3.64014 13.1721 10.5922 0.06
216 11 9.33648 8.06306 11.7153 0.06
86 20 5.14349 11.0486 12.9403 -0.5
91 11 2.10328 12.1983 10.465 0.06
210 1 9.28794 8.59409 12.6716 0.22
215 11 10.2873 8.95269 12.8136 0.06
85 9 4.52915 12.1536 12.9224 0.52
88 19 5.25199 13.3589 13.2652 -0.35
637 11 10.0332 15.1095 10.2004 0.06
214 11 8.72043 9.5366 12.5177 0.06
90 1 4.55906 14.0457 14.3009 0.22
763 26 8.25082 15.6956 14.5652 -0.39
94 11 4.45843 13.506 15.2359 0.06
760 26 8.93728 13.6662 14.4702 -0.39
47 11 16.1209 14.5132 8.73112 0.06
638 11 11.3665 13.9973 10.5207 0.06
636 2 10.9518 15.0051 10.746 0.22
62 20 9.87344 12.0663 10.7463 -0.5
639 11 9.98085 16.0777 12.2736 0.06
635 2 10.848 15.3445 12.1942 0.22
640 11 10.6225 14.459 12.7375 0.06
107 11 11.0096 12.1453 13.9832 0.06
634 19 11.8873 16.3083 12.3823 -0.35
100 19 12.1959 10.3813 13.7893 -0.35
97 9 12.8167 9.33301 14.5256 0.52
134 20 20.2689 12.1691 10.3631 -0.5
103 11 14.1982 10.3793 12.5853 0.06
104 11 15.7 9.84778 13.3191 0.06
38 20 14.9841 11.6844 10.4275 -0.5
139 11 17.4321 11.162 10.4146 0.06
37 9 15.2028 12.8812 10.5855 0.52
101 1 14.735 9.46775 12.9917 0.22
39 19 16.3543 13.2817 11.3512 -0.35
43 11 16.6081 14.1459 13.2455 0.06
41 1 15.9235 13.6132 12.6256 0.22
44 11 15.2001 14.366 12.7235 0.06
99 19 14.1201 8.88212 14.1236 -0.35
45 11 15.4982 12.7245 13.136 0.06
110 20 20.1065 15.5795 15.0787 -0.5
710 11 18.6564 16.4732 17.0278 0.06
680 11 1.24963 18.9424 10.812 0.06
118 11 1.69144 16.1631 14.2093 0.06
671 9 2.46436 -0.441818 12.9293 0.52
672 20 2.42366 -0.107571 14.1796 -0.5
675 2 1.70492 19.9248 11.152 0.22
679 11 1.26505 20.8022 10.6414 0.06
674 19 1.35652 20.4699 12.3819 -0.35
120 11 0.395477 17.3894 14.216 0.06
119 11 1.45941 17.0484 12.9035 0.06
114 1 0.887828 16.6211 13.6562 0.22
613 19 5.23419 20.2345 14.8177 -0.35
616 2 4.93494 18.8546 14.4337 0.22
618 11 5.47568 19.2266 13.5496 0.06
652 20 6.01691 19.2874 10.2505 -0.5
651 9 6.8815 19.1945 11.0899 0.52
654 19 7.74441 18.0994 11.2031 -0.35
653 19 7.2067 20.4016 11.7911 -0.35
657 11 9.01703 20.9089 12.1638 0.06
658 11 8.62813 19.9524 13.493 0.06
655 2 8.8721 18.6194 11.8807 0.22
656 2 8.44281 19.9863 12.4082 0.22
660 11 8.98306 18.0746 12.8225 0.06
659 11 9.91039 18.6608 11.5274 0.06
611 9 5.72144 20.2364 16.0702 0.52
614 19 6.41258 19.0944 16.3726 -0.35
615 2 5.82277 18.11 15.5349 0.22
620 11 6.89295 18.2464 15.5176 0.06
179 11 11.9688 19.8241 10.9678 0.06
180 11 12.6349 0.159316 11.0879 0.06
48 11 14.792 13.8569 7.7753 0.06
631 9 12.4258 16.4364 11.1414 0.52
632 20 13.334 17.169 10.914 -0.5
633 19 12.1363 15.4804 10.1749 -0.35
178 11 13.4116 20.2718 11.9469 0.06
174 1 12.3895 -0.726107 11.6505 0.22
172 19 11.5997 -0.343914 12.7735 -0.35
169 9 12.239 0.0103031 13.9757 0.52
173 1 13.5902 20.3044 15.6046 0.22
171 19 12.327 20.4528 15.0981 -0.35
176 11 13.8831 -0.209203 16.3106 0.06
568 11 15.8435 17.6524 12.0055 0.06
570 11 16.6438 19.6287 12.8137 0.06
569 11 16.5549 20.2208 11.1136 0.06
143 11 -0.982226 15.6984 9.22587 0.06
567 11 16.0614 18.1811 10.3061 0.06
565 2 16.9168 19.4228 11.7941 0.22
562 20 19.7913 18.0013 11.0108 -0.5
564 19 18.2381 19.5308 11.5845 -0.35
561 9 18.6361 18.2363 11.4115 0.52
563 19 17.6207 17.3985 10.959 -0.35
566 2 16.5317 18.1213 11.3236 0.22
704 19 17.6024 17.6916 15.7073 -0.35
151 11 19.4911 20.9367 13.4376 0.06
155 11 20.3452 4.1474 15.8978 0.06
244 19 3.32457 3.31499 17.3555 -0.35
242 20 2.4419 1.1353 16.8985 -0.5
241 9 3.2829 1.88138 17.4426 0.52
245 1 3.3178 0.872794 19.4937 0.22
243 19 4.05141 1.29596 18.4227 -0.35
246 1 2.4361 3.96497 18.1399 0.22
251 11 2.80296 4.96955 18.2167 0.06
252 11 1.48649 3.95955 17.582 0.06
250 11 2.38127 3.57528 19.1225 0.06
247 11 2.86174 -0.113995 19.3565 0.06
14 20 18.7615 -0.118716 0.150519 -0.5
154 11 19.6398 4.07439 14.2938 0.06
428 11 8.21311 19.9816 -0.166058 0.06
733 31 5.73263 0.936837 18.2546 1
749 26 6.24989 3.47931 17.1221 -0.39
743 27 7.49118 3.11022 17.8838 1.34
747 26 6.58045 2.18509 18.6774 -0.39
745 26 7.24887 4.22714 18.8886 -0.39
746 26 8.29182 4.13431 16.9949 -0.39
748 26 8.73275 2.62293 18.664 -0.39
49 9 11.2246 1.58496 -0.349834 0.52
51 19 11.7076 1.68002 19.6127 -0.35
56 11 11.7215 0.690523 17.8555 0.06
607 11 14.8659 4.75233 14.6871 0.06
606 2 14.8228 3.81814 14.192 0.22
605 2 15.4717 2.79623 15.1068 0.22
610 11 14.7742 2.18507 15.6498 0.06
57 11 11.8645 -0.500334 19.2171 0.06
53 1 11.3773 0.498478 18.8989 0.22
560 11 12.5594 3.26936 17.6698 0.06
559 11 14.3085 3.71244 17.7873 0.06
609 11 16.1912 3.24718 15.7598 0.06
55 11 10.3439 0.268925 18.7464 0.06
722 20 16.1872 -0.122336 18.1118 -0.5
15 19 -0.409195 0.172464 -0.418685 -0.35
147 19 19.7564 -0.236727 15.5348 -0.35
145 9 20.3067 1.0509 15.3077 0.52
22 11 18.9367 20.3357 17.6323 0.06
16 19 19.3528 20.0722 19.6341 -0.35
13 9 19.6851 -0.517671 -0.530344 0.52
18 1 19.389 -0.457767 18.4666 0.22
23 11 18.971 0.556762 18.4968 0.06
148 19 19.5933 2.24155 15.2737 -0.35
156 11 -0.0529109 3.53142 14.6152 0.06
150 1 20.2207 3.49796 15.0211 0.22
24 11 20.4224 -0.367328 18.048 0.06
644 19 2.21818 6.81208 15.2273 -0.35
645 2 3.16266 7.8517 15.0764 0.22
648 11 3.2732 9.75446 14.2267 0.06
650 11 3.14006 7.88151 16.1519 0.06
356 11 0.570224 12.0201 17.0555 0.06
353 1 0.720613 11.0364 17.4942 0.22
201 11 4.09901 9.91793 17.7507 0.06
207 19 7.50656 8.8843 15.2604 -0.35
734 31 6.36819 4.96764 16.1047 1
197 1 4.66081 9.13584 18.3201 0.22
200 11 5.61747 9.60607 18.8466 0.06
195 19 5.1057 8.15968 17.3973 -0.35
206 20 9.51039 8.03304 15.8036 -0.5
193 9 6.02961 7.21217 17.9401 0.52
194 20 6.42304 6.23502 17.2252 -0.5
196 19 6.53692 7.29065 19.2582 -0.35
202 11 7.97456 8.4694 18.7203 0.06
203 11 8.37285 7.56049 20.1858 0.06
198 1 7.95897 7.46897 19.1571 0.22
204 11 8.50761 6.75582 18.5777 0.06
199 11 3.93134 8.7806 19.1176 0.06
557 11 13.6111 4.14597 20.1354 0.06
555 2 13.2721 4.06624 17.9801 0.22
732 31 11.072 7.30073 15.7813 1
556 2 12.9796 4.57684 19.3823 0.22
554 19 12.8991 5.0254 17.0405 -0.35
551 9 12.2559 5.93837 17.7861 0.52
553 19 12.6014 5.89268 19.1595 -0.35
552 20 11.5606 6.77006 17.3125 -0.5
464 11 13.4325 9.71534 19.6171 0.06
599 11 20.0506 5.23539 19.8927 0.06
595 2 20.3659 6.26665 19.6536 0.22
594 19 -0.365468 6.39838 -0.373031 -0.35
596 2 19.1667 7.14169 19.5471 0.22
574 19 17.1965 6.66983 16.123 -0.35
600 11 -0.538819 6.07415 18.6679 0.06
577 11 15.0841 8.74116 16.9371 0.06
571 9 16.4199 6.21415 17.2577 0.52
572 20 16.5612 5.11187 17.8137 -0.5
573 19 15.8275 7.20466 18.0047 -0.35
576 2 16.0765 8.38991 17.2489 0.22
578 11 16.4959 9.16388 17.8165 0.06
598 11 19.3249 8.19741 19.3639 0.06
350 20 19.311 9.93099 17.2425 -0.5
351 19 -0.138822 10.5721 18.4735 -0.35
355 11 1.72557 11.0479 17.7677 0.06
382 11 2.49477 14.6668 19.1556 0.06
383 11 3.46498 15.4918 17.8545 0.06
378 1 2.84249 14.6498 18.0742 0.22
384 11 1.97719 14.7428 17.3891 0.06
376 19 3.6531 13.455 17.7073 -0.35
373 9 4.1754 12.8352 18.8173 0.52
374 20 3.43665 12.0216 19.4258 -0.5
358 11 19.3233 13.6751 17.6158 0.06
379 11 5.93783 14.7317 18.0814 0.06
213 11 7.65346 10.507 16.6289 0.06
211 11 7.83065 10.968 14.8781 0.06
375 19 5.56382 12.9102 19.0944 -0.35
131 11 8.4739 11.7288 0.726745 0.06
209 1 7.35611 10.3099 15.6043 0.22
212 11 6.33174 10.588 15.3755 0.06
757 27 8.52398 14.6027 15.6378 1.34
124 19 8.77254 10.3298 20.5309 -0.35
126 1 8.32631 11.5689 -0.311963 0.22
132 11 8.74333 12.3903 20.4347 0.06
758 26 7.13013 14.0074 15.644 -0.39
762 26 8.88378 13.5726 16.7288 -0.39
759 26 9.96689 15.123 15.6384 -0.39
129 11 10.1855 10.7392 17.0991 0.06
236 11 8.50172 16.642 19.0634 0.06
584 19 13.9583 13.5747 14.8219 -0.35
123 19 10.6991 9.93977 19.0056 -0.35
463 11 14.0746 10.735 18.3038 0.06
121 9 10.208 10.2993 20.3265 0.52
461 1 14.0112 10.6422 19.4008 0.22
465 11 13.3861 11.5269 19.6637 0.06
587 11 11.689 13.5639 16.759 0.06
122 20 10.9731 10.9833 -0.385425 -0.5
128 11 11.2715 11.7535 18.1659 0.06
125 1 10.4754 11.0417 18.1048 0.22
237 11 9.208 15.5719 20.3583 0.06
127 11 9.61431 11.6522 18.3836 0.06
586 2 12.6366 14.1635 16.7484 0.22
583 19 13.4887 13.041 17.0711 -0.35
581 9 14.2552 12.7281 15.9687 0.52
582 20 14.6387 11.5471 15.7925 -0.5
468 11 15.9179 14.7822 0.378079 0.06
105 11 15.025 8.80454 12.1788 0.06
349 9 19.8056 10.7103 18.054 0.52
352 19 19.1406 11.8307 18.5603 -0.35
459 19 15.2228 10.7702 20.1341 -0.35
457 9 15.9464 11.9574 19.9472 0.52
359 11 19.8008 12.5628 16.5958 0.06
708 11 16.4593 15.6667 17.9237 0.06
458 20 16.1025 12.2959 18.759 -0.5
360 11 18.0668 12.503 16.9504 0.06
354 1 19.0271 12.7094 17.4164 0.22
420 11 -0.418877 16.1226 20.3704 0.06
617 11 3.9838 18.2659 14.2195 0.06
248 11 3.95104 0.911507 20.3626 0.06
426 1 4.18512 19.083 -0.380791 0.22
432 11 3.24867 19.5146 -0.045089 0.06
430 11 4.01257 18.1006 20.5126 0.06
731 31 1.79683 0.107669 15.6829 1
753 26 0.380054 18.4392 16.7502 -0.39
756 26 2.3988 17.4994 16.3573 -0.39
750 27 1.72492 18.4974 17.3741 1.34
752 26 1.26874 17.2998 18.2453 -0.39
751 26 2.07832 19.6978 16.5054 -0.39
755 26 1.16097 19.4858 18.4444 -0.39
754 26 3.10147 18.455 18.0276 -0.39
427 11 8.72464 -0.0547078 20.4301 0.06
425 1 8.207 20.3916 20.1442 0.22
612 20 5.67582 -0.0726533 16.829 -0.5
619 11 5.67356 17.0632 15.5163 0.06
424 19 4.83431 20.0167 20.041 -0.35
421 9 6.14031 19.5496 19.6098 0.52
423 19 7.06519 -0.681349 19.4265 -0.35
761 26 7.98529 15.5087 16.7693 -0.39
238 11 9.8978 19.3415 16.0537 0.06
422 20 6.37974 18.4784 19.048 -0.5
234 1 9.53208 18.3359 16.2935 0.22
239 11 9.24039 17.8289 15.3943 0.06
240 11 8.69391 18.5035 16.9375 0.06
235 11 9.39805 17.2523 20.5313 0.06
233 1 9.38791 16.4989 19.7592 0.22
589 11 12.1677 14.2321 14.6914 0.06
585 2 13.0215 14.4336 15.3184 0.22
590 11 13.1062 15.4979 15.2355 0.06
175 11 14.4305 20.3526 14.9036 0.06
588 11 12.3708 15.0592 17.4125 0.06
721 9 15.5017 20.588 18.913 0.52
177 11 13.5645 19.4117 16.0991 0.06
231 19 10.5837 16.465 18.9405 -0.35
232 19 10.5913 17.6034 16.8395 -0.35
229 9 10.6721 17.6738 18.2448 0.52
230 20 10.9125 18.6773 18.8265 -0.5
730 11 13.4973 18.9084 19.0518 0.06
725 2 14.4072 18.8072 19.6427 0.22
724 19 14.9369 19.3946 18.5162 -0.35
414 1 20.156 16.8421 19.9657 0.22
702 20 15.7632 18.1445 14.5665 -0.5
709 11 17.9233 18.0088 17.532 0.06
705 2 17.7334 17.0658 16.9562 0.22
418 11 20.1834 16.7699 18.8785 0.06
707 11 15.9947 17.275 18.0686 0.06
706 2 16.3649 16.5857 17.3374 0.22
703 19 15.51 16.7137 16.2118 -0.35
729 11 14.4316 17.7677 19.8795 0.06
701 9 16.2939 17.4724 15.3829 0.52
ITEM: TIMESTEP
650
ITEM: NUMBER OF ATOMS
770
ITEM: BOX BOUNDS pp pp pp
-6.6626732407121736e-01 2.0666267324071320e+01
-6.6626732407121736e-01 2.0666267324071320e+01
-6.6626732407121736e-01 2.0666267324071320e+01
ITEM: ATOMS id type x y z c_charge
74 20 1.97935 0.51144 3.15143 -0.5
73 9 0.810138 0.674812 3.55779 0.52
75 19 0.117376 1.74066 2.92286 -0.35
77 1 20.2659 2.13266 3.56227 0.22
81 11 20.134 3.15729 3.28786 0.06
684 19 1.71828 4.17732 4.8659 -0.35
76 19 0.406053 -0.101234 4.71304 -0.35
309 11 2.16879 4.46815 2.59493 0.06
249 11 2.22962 1.7949 20.0862 0.06
308 11 3.02074 2.92176 2.49901 0.06
305 1 2.66847 3.78369 1.93398 0.22
79 11 19.454 1.4905 3.1811 0.06
489 11 2.5559 19.0504 4.29473 0.06
488 11 3.62132 18.998 2.9225 0.06
19 11 1.54865 -0.895863 0.46485 0.06
303 19 3.54963 4.30689 0.928659 -0.35
692 20 7.0784 1.77547 0.491004 -0.5
691 9 6.42452 1.15442 1.35088 0.52
694 19 7.14211 0.0594763 1.8669 -0.35
693 19 5.59297 1.79891 2.26462 -0.35
54 1 9.97934 2.96943 0.811055 0.22
60 11 9.46485 2.27606 1.45302 0.06
696 2 5.40799 0.775799 3.23809 0.22
453 11 8.67229 4.94719 3.94541 0.06
698 11 4.37039 0.537128 3.54356 0.06
695 2 6.31157 -0.38561 2.95756 0.22
58 11 9.94001 3.89687 1.46551 0.06
59 11 9.51699 3.05615 -0.220471 0.06
449 1 9.17028 4.2865 4.62423 0.22
451 11 9.23922 3.4774 3.92622 0.06
699 11 7.3322 -0.418061 3.32852 0.06
697 11 5.93865 1.36593 4.01823 0.06
307 11 1.78821 3.38251 1.43287 0.06
52 19 11.3905 2.70205 0.688916 -0.35
348 11 14.0922 2.02786 2.19107 0.06
50 20 11.1416 0.539707 0.383797 -0.5
342 1 15.1881 1.84334 2.29984 0.22
347 11 15.4028 1.27216 3.2482 0.06
338 20 14.2367 4.5741 2.35031 -0.5
337 9 15.2571 4.16123 1.77164 0.52
346 11 15.4379 1.12742 1.57499 0.06
340 19 15.9787 3.00966 2.20015 -0.35
339 19 16.0653 4.96807 0.933219 -0.35
493 9 12.1337 0.949833 3.88337 0.52
497 1 13.1893 20.0922 4.03495 0.22
494 20 12.2898 2.13022 3.52601 -0.5
499 11 13.3107 19.7533 2.99817 0.06
343 11 15.7828 3.96782 20.504 0.06
345 11 17.17 3.29501 0.208531 0.06
341 1 16.5935 4.21596 -0.154479 0.22
17 1 0.502571 20.2184 0.285424 0.22
20 11 0.0323331 20.0313 1.23334 0.06
80 11 20.3599 2.10369 4.64043 0.06
690 11 1.70399 6.04975 4.28865 0.06
306 1 2.38137 7.27615 1.24254 0.22
311 11 2.92461 8.06409 1.82188 0.06
312 11 1.56776 7.76985 0.768565 0.06
592 20 20.3508 7.9866 1.45419 -0.5
8 11 2.12668 9.59184 4.29685 0.06
9 11 2.68002 11.1811 4.90248 0.06
301 9 3.97293 5.65242 0.964961 0.52
304 19 3.18 6.55521 0.301957 -0.35
310 11 1.80741 6.66203 1.83099 0.06
452 11 8.38825 4.08776 5.34907 0.06
302 20 5.14345 5.91982 1.28794 -0.5
714 19 8.44696 7.43125 3.8266 -0.35
716 2 6.02481 7.53028 3.47728 0.22
713 19 6.29396 7.62599 4.88826 -0.35
711 9 7.71537 7.46085 5.0346 0.52
719 11 7.33144 6.40893 2.09015 0.06
720 11 7.57588 8.09326 2.11445 0.06
715 2 7.42504 7.28112 2.81521 0.22
717 11 5.35076 6.68176 3.61582 0.06
712 20 8.26694 7.65424 6.11538 -0.5
446 20 11.322 4.97707 3.22705 -0.5
363 19 14.0142 8.52618 0.638122 -0.35
368 11 15.9131 7.87084 0.185608 0.06
735 31 12.665 5.26733 2.34644 1
361 9 13.2594 8.23851 1.74989 0.52
362 20 13.0671 7.01646 2.04644 -0.5
364 19 13.1603 9.12063 2.78997 -0.35
365 1 15.3652 8.26784 1.01903 0.22
369 11 15.7911 9.24899 1.2375 0.06
445 9 11.2588 5.34079 4.41737 0.52
558 11 11.8028 4.30356 19.6955 0.06
591 9 20.0837 7.55122 0.348292 0.52
344 11 17.3411 4.95983 20.8214 0.06
597 11 18.2241 7.07722 19.9703 0.06
593 19 18.9677 7.99965 -0.363714 -0.35
367 11 15.5626 7.52323 1.75899 0.06
480 11 16.8492 7.76082 6.0996 0.06
670 11 20.1996 10.4539 1.07898 0.06
669 11 -0.37862 11.3067 2.35875 0.06
665 2 -0.174435 10.899 1.40008 0.22
664 19 0.97213 10.2086 1.73636 -0.35
661 9 1.98689 10.9599 1.15599 0.52
663 19 1.50638 12.1068 0.492978 -0.35
666 2 0.204727 11.9139 0.302342 0.22
668 11 -0.106904 11.5603 20.6154 0.06
667 11 -0.224267 12.8929 0.492686 0.06
662 20 3.18713 10.7417 1.27753 -0.5
357 11 0.137902 11.6701 16.3375 0.06
380 11 5.91347 14.3375 20.2126 0.06
381 11 7.08632 14.1283 18.9239 0.06
377 1 6.03306 14.1708 19.1557 0.22
718 11 5.42889 8.2839 2.94934 0.06
36 11 5.79943 12.2892 2.56226 0.06
26 20 8.56631 10.8256 2.76925 -0.5
25 9 8.01109 11.053 3.83544 0.52
227 11 10.8211 14.1038 0.250127 0.06
222 1 11.6285 14.806 0.581003 0.22
30 1 5.96415 12.2312 3.60545 0.22
34 11 5.01759 12.238 4.11461 0.06
28 19 6.61455 11.0334 3.94839 -0.35
35 11 6.38624 13.1567 4.0624 0.06
130 11 7.22252 11.2707 20.1682 0.06
372 11 12.4779 10.8724 3.18693 0.06
370 11 13.3272 10.8616 1.64112 0.06
366 1 12.6562 10.3392 2.29089 0.22
371 11 11.6778 10.2653 1.90547 0.06
226 11 12.1018 14.4792 1.55689 0.06
737 26 14.4614 13.8111 3.54861 -0.39
228 11 12.3811 14.7695 -0.212656 0.06
33 11 10.1554 9.68736 4.41159 0.06
460 19 15.3024 12.8672 -0.285612 -0.35
467 11 15.507 14.5766 19.9215 0.06
31 11 10.8215 10.9223 5.39924 0.06
462 1 15.9897 14.0663 -0.606294 0.22
466 11 16.9181 13.9698 20.1932 0.06
266 20 19.5862 11.3919 4.30017 -0.5
272 11 16.0473 12.2449 2.73471 0.06
273 11 17.4637 13.2354 2.66805 0.06
271 11 17.0736 12.0489 1.3884 0.06
269 1 17.0828 12.2242 2.46071 0.22
267 19 17.7634 11.1877 3.13282 -0.35
265 9 18.3972 11.6745 4.28931 0.52
490 11 2.02058 14.733 0.42547 0.06
419 11 -0.353866 17.4813 20.2723 0.06
486 1 2.81405 15.0002 1.14883 0.22
491 11 3.59822 15.4959 0.579404 0.06
492 11 3.29293 14.1346 1.57138 0.06
484 19 2.20161 15.8187 2.12994 -0.35
481 9 1.98547 17.1119 1.55141 0.52
482 20 1.23022 17.1911 0.538878 -0.5
483 19 1.76072 18.0669 2.51703 -0.35
487 11 3.386 17.5231 3.73606 0.06
485 1 2.80805 18.4085 3.4368 0.22
431 11 4.59585 19.2095 0.708757 0.06
295 11 -0.490102 17.8605 3.72798 0.06
296 11 -0.556346 16.1366 3.34336 0.06
768 26 5.8187 14.9752 2.20426 -0.39
770 26 5.58579 17.2139 2.59767 -0.39
766 26 7.32044 16.1429 3.5504 -0.39
764 27 6.74348 16.2488 2.08219 1.34
765 26 6.24283 16.4495 0.599711 -0.39
769 26 7.88141 15.2633 1.55464 -0.39
429 11 8.90894 20.2224 19.8575 0.06
767 26 7.68623 17.4551 1.91191 -0.39
700 11 5.67646 20.0625 3.06498 0.06
225 11 9.78965 18.7424 2.56802 0.06
220 19 10.9747 16.0691 0.817713 -0.35
523 11 8.80891 16.2821 5.46053 0.06
223 11 10.9002 19.9019 2.27172 0.06
500 11 13.9853 19.581 4.55699 0.06
501 11 12.2629 19.6438 4.4178 0.06
736 27 14.4673 15.2602 3.89793 1.34
741 26 12.9945 15.0704 4.26416 -0.39
740 26 14.011 15.5068 2.42731 -0.39
738 26 14.4403 16.8102 4.23471 -0.39
728 11 13.412 20.5893 -0.718068 0.06
217 9 11.8932 17.1254 1.07844 0.52
218 20 12.8414 17.334 0.3579 -0.5
224 11 10.2899 19.0573 0.901059 0.06
221 1 10.6388 18.9299 1.94073 0.22
219 19 11.6438 17.9498 2.17859 -0.35
727 11 14.8154 19.7591 0.142314 0.06
723 19 15.2234 -0.280926 19.9837 -0.35
726 2 14.3804 20.0979 20.5049 0.22
742 26 15.9447 15.3628 3.43016 -0.39
417 11 17.6134 18.0826 2.28294 0.06
409 9 19.0783 16.6055 0.405177 0.52
410 20 18.6776 15.5768 0.982816 -0.5
413 1 18.2416 18.4977 1.53791 0.22
415 11 18.4822 19.4612 1.94743 0.06
416 11 17.6457 18.8166 0.691278 0.06
411 19 19.4077 17.7287 1.22617 -0.35
293 1 20.5789 16.9235 4.08748 0.22
297 11 19.4522 16.893 4.22062 0.06
412 19 18.9911 16.7417 20.341 -0.35
21 11 0.410499 19.2469 -0.207301 0.06
689 11 0.607602 5.52714 5.53146 0.06
78 1 1.07589 0.341956 5.86039 0.22
84 11 0.91451 -0.393395 6.68347 0.06
83 11 0.609618 1.28629 6.20399 0.06
82 11 2.14883 0.455868 5.74124 0.06
510 1 -0.183282 3.36789 8.11648 0.22
506 20 1.82034 1.63565 9.78653 -0.5
508 19 1.23324 3.13018 8.15065 -0.35
505 9 1.75992 2.84595 9.41475 0.52
188 11 4.83947 0.63226 7.03751 0.06
681 9 2.98621 3.7502 5.32062 0.52
682 20 3.4526 2.68664 4.95869 -0.5
187 11 4.03742 1.8089 7.97711 0.06
513 11 4.12424 3.52062 11.0688 0.06
515 11 -0.77318 2.69124 8.73698 0.06
677 11 3.54337 20.3077 10.0982 0.06
503 11 11.707 0.826738 6.48314 0.06
498 1 10.7527 0.612277 5.99586 0.22
185 1 4.42248 0.843943 8.02221 0.22
189 11 3.49337 0.226112 8.16384 0.06
183 19 5.25907 0.805535 9.15178 -0.35
181 9 6.3743 1.6808 9.04492 0.52
184 19 7.42897 1.09335 8.32173 -0.35
504 11 10.1427 1.31272 6.43442 0.06
259 11 9.54264 4.0788 7.52526 0.06
257 1 9.49972 4.55383 8.51837 0.22
260 11 8.53673 4.51836 8.97819 0.06
186 1 8.67431 0.796138 8.96184 0.22
502 11 10.5089 -0.322142 6.3718 0.06
496 19 10.8321 0.711826 4.55042 -0.35
495 19 13.29 0.142678 4.24071 -0.35
255 19 10.5467 4.15754 9.40343 -0.35
547 11 14.059 3.10274 5.81911 0.06
546 2 15.0323 2.76711 6.10706 0.22
548 11 15.0747 1.82922 6.68058 0.06
190 11 9.42003 1.60055 8.76538 0.06
253 9 11.7517 3.81281 8.72737 0.52
256 19 12.4872 2.67237 8.93115 -0.35
334 11 19.1753 20.4446 4.98359 0.06
330 1 18.2014 -0.568737 5.31619 0.22
336 11 18.1394 0.429266 4.89791 0.06
335 11 17.5166 20.1647 4.73762 0.06
328 19 18.0602 -0.693762 6.69564 -0.35
325 9 18.497 0.503987 7.31273 0.52
326 20 19.6979 0.738648 7.48029 -0.5
327 19 17.5633 1.36808 7.75798 -0.35
514 11 -0.553365 3.25644 7.06873 0.06
543 19 16.0229 2.40562 5.10919 -0.35
329 1 17.2686 1.23951 9.16495 0.22
545 2 15.6241 3.9466 6.87275 0.22
550 11 16.0497 3.6703 7.83287 0.06
333 11 16.4553 0.493332 9.23339 0.06
685 2 1.628 5.45197 5.21792 0.22
688 11 3.46158 6.43424 5.73883 0.06
686 2 2.74396 5.81766 6.25643 0.22
687 11 2.32331 6.42798 6.99377 0.06
683 19 3.60833 4.69327 6.23538 -0.35
157 9 -0.573799 7.78136 7.92193 0.52
158 20 0.0837451 6.85479 7.50998 -0.5
3 19 2.24242 9.79896 6.36854 -0.35
165 11 -0.57615 10.4916 7.51857 0.06
7 11 3.75055 9.81254 4.88424 0.06
5 1 2.68966 10.1083 5.07606 0.22
2 20 3.41031 9.75513 8.32912 -0.5
441 11 6.95574 5.70401 7.70523 0.06
437 1 6.25176 6.43634 8.07124 0.22
440 11 6.64348 7.39655 7.74526 0.06
439 11 5.31572 6.22912 7.52094 0.06
447 19 10.3158 4.80708 5.31357 -0.35
70 11 9.08824 8.6533 8.0034 0.06
66 1 9.19463 8.99456 9.03361 0.22
435 19 5.8223 6.37319 9.44673 -0.35
433 9 6.80788 6.35129 10.3805 0.52
71 11 9.97474 8.33293 9.46261 0.06
261 11 9.61861 5.60515 8.23578 0.06
72 11 8.23429 8.91253 9.4731 0.06
434 20 7.99624 6.5193 10.0727 -0.5
254 20 12.157 4.58771 7.878 -0.5
456 11 11.771 7.12493 6.11412 0.06
454 11 13.4547 6.72792 6.22945 0.06
549 11 14.8275 4.73767 6.93827 0.06
448 19 12.5035 5.52719 4.98946 -0.35
455 11 13.2201 7.66682 4.90382 0.06
450 1 12.7071 6.86015 5.52109 0.22
61 9 10.2502 10.868 10.3624 0.52
64 19 9.66061 10.3597 9.06992 -0.35
63 19 11.3388 10.1537 11.0481 -0.35
470 20 13.9329 9.28003 6.58345 -0.5
68 11 12.3853 9.82816 9.27004 0.06
159 19 19.9822 8.53341 6.95499 -0.35
542 20 17.9875 3.14817 4.67428 -0.5
541 9 16.9754 3.35317 5.25009 0.52
544 19 16.6698 4.44372 6.03684 -0.35
474 1 16.7289 8.77705 5.79462 0.22
479 11 17.7744 9.10878 5.53467 0.06
472 19 16.2775 9.55232 6.87596 -0.35
287 11 17.1102 6.27005 8.00636 0.06
478 11 16.1609 8.76992 4.83408 0.06
469 9 14.9217 10.0613 6.72842 0.52
286 11 18.1732 7.64133 8.27406 0.06
288 11 16.5911 7.71343 8.79525 0.06
282 1 17.4418 7.02151 8.72673 0.22
163 11 -0.279763 9.93131 5.96467 0.06
161 1 20.3348 9.84164 6.76587 0.22
1 9 3.07209 10.4018 7.3282 0.52
630 11 2.91729 14.0641 8.42214 0.06
11 11 5.37901 11.4814 6.58825 0.06
4 19 3.45352 11.7904 7.08109 -0.35
6 1 4.8109 11.9512 7.31822 0.22
10 11 5.00456 11.5326 8.30005 0.06
164 11 19.4423 10.4387 6.56112 0.06
93 11 2.50803 11.1343 10.8711 0.06
12 11 5.11244 13.0008 7.44521 0.06
387 19 6.36394 14.4852 9.42983 -0.35
388 19 8.44476 14.6967 8.25195 -0.35
385 9 7.05623 14.8523 8.26846 0.52
389 1 6.59373 15.4507 10.5083 0.22
392 11 5.89013 15.3988 11.3006 0.06
386 20 6.54244 15.3607 7.23904 -0.5
390 1 8.64017 13.3943 7.78271 0.22
395 11 9.6396 13.1698 8.09316 0.06
32 11 9.74723 9.80988 6.04539 0.06
27 19 8.74267 11.2246 5.07013 -0.35
29 1 9.87725 10.4321 5.17911 0.22
475 11 14.9458 12.5091 5.42668 0.06
394 11 8.6028 13.2951 6.71113 0.06
69 11 12.7232 11.3665 10.1812 0.06
396 11 8.07625 12.6585 8.33497 0.06
65 1 12.5034 10.2459 10.2939 0.22
67 11 13.4218 9.83183 10.613 0.06
42 1 14.945 14.4778 8.94512 0.22
274 11 18.0605 14.1142 5.37108 0.06
276 11 19.2454 13.141 6.27906 0.06
471 19 14.6101 11.3614 7.09705 -0.35
268 19 17.6407 12.09 5.41494 -0.35
473 1 14.1392 12.1574 5.98048 0.22
477 11 13.4307 12.9768 6.25526 0.06
476 11 13.6283 11.5841 5.23931 0.06
135 19 18.6206 11.8937 8.70151 -0.35
133 9 19.5329 12.7074 9.46731 0.52
136 19 19.7956 13.9924 9.00818 -0.35
137 1 18.1655 10.8204 9.51097 0.22
141 11 18.8478 10.0008 9.58722 0.06
270 1 18.1601 13.2296 6.04441 0.22
275 11 17.5844 13.4807 6.96608 0.06
40 19 14.4302 13.7395 9.98313 -0.35
140 11 17.1826 10.4259 9.305 0.06
627 11 3.27716 17.0666 7.66806 0.06
629 11 1.5966 15.2772 7.99858 0.06
628 11 3.91823 15.7646 6.91056 0.06
291 19 -0.07514 16.4863 5.28817 -0.35
626 2 3.55684 16.0378 7.8982 0.22
625 2 2.52613 15.091 8.55522 0.22
624 19 2.59482 15.2109 9.97015 -0.35
622 20 3.7473 16.7226 11.1934 -0.5
621 9 3.39126 16.3485 10.0847 0.52
623 19 4.12415 16.7256 8.96555 -0.35
289 9 -0.0834399 17.5006 6.28245 0.52
290 20 0.933676 18.268 6.41293 -0.5
393 11 7.57738 15.3434 10.9766 0.06
391 11 6.40719 16.45 10.1319 0.06
528 11 5.13809 18.8717 6.73263 0.06
526 11 5.88839 17.572 6.16868 0.06
520 19 6.95993 19.4214 5.9789 -0.35
527 11 6.43223 18.266 7.74627 0.06
522 1 6.19564 18.4477 6.7167 0.22
519 19 8.86645 18.4291 5.13853 -0.35
521 1 9.52868 17.134 5.39683 0.22
517 9 8.28923 19.0045 6.2215 0.52
518 20 8.97542 19.4458 7.16214 -0.5
525 11 10.1651 16.9779 6.29659 0.06
192 11 9.08668 -0.139607 8.69454 0.06
739 26 14.9062 14.9939 5.36332 -0.39
524 11 10.2451 16.9161 4.59881 0.06
537 11 11.4159 18.0799 7.28434 0.06
535 11 12.7371 17.5881 8.23751 0.06
536 11 11.1722 17.9948 8.9908 0.06
533 1 11.9282 18.3075 8.23292 0.22
531 19 12.3448 19.6612 8.29578 -0.35
46 11 14.5725 15.4877 8.80386 0.06
529 9 13.7993 19.847 8.2809 0.52
530 20 14.3644 20.3439 9.20072 -0.5
144 11 19.3125 14.8373 10.8951 0.06
300 11 20.873 19.7116 7.60905 0.06
299 11 -0.318381 18.2963 8.75699 0.06
538 11 15.6346 17.974 6.1542 0.06
539 11 16.0579 18.4388 7.86351 0.06
532 19 14.334 19.3451 7.0513 -0.35
534 1 15.2416 18.2458 7.16118 0.22
540 11 14.8744 17.3497 7.64416 0.06
292 19 20.0546 17.8094 6.9294 -0.35
138 1 19.9901 14.9745 10.012 0.22
298 11 19.457 19.0911 8.5135 0.06
294 1 20.3495 18.7608 7.95699 0.22
142 11 -0.313889 14.8363 10.2171 0.06
507 19 2.286 3.87484 10.197 -0.35
516 11 -0.428928 4.35055 8.53615 0.06
509 1 3.69727 4.04192 10.2085 0.22
512 11 4.0277 5.06788 10.158 0.06
678 11 3.63894 19.2592 11.386 0.06
676 2 3.12777 20.1801 11.0822 0.22
673 19 3.58185 -0.579323 12.2608 -0.35
321 11 2.45192 2.54794 13.1861 0.06
317 1 2.53127 3.52525 13.7074 0.22
316 19 4.73947 2.64662 14.524 -0.35
319 11 2.18698 3.46572 14.7868 0.06
146 20 0.17345 1.06469 15.3236 -0.5
313 9 4.76269 3.89336 14.1102 0.52
315 19 3.64684 4.24902 13.4434 -0.35
320 11 1.7613 4.13159 13.2489 0.06
323 11 5.57014 1.34302 13.0768 0.06
318 1 5.82598 1.87271 14.0066 0.22
322 11 6.08133 1.1078 14.7236 0.06
182 20 6.39865 2.88207 9.41309 -0.5
324 11 6.73256 2.4617 13.8785 0.06
191 11 8.36689 0.860671 9.98989 0.06
744 26 7.76915 2.19225 16.8779 -0.39
264 11 14.1326 3.73716 9.96166 0.06
263 11 14.2189 1.89704 10.029 0.06
258 1 13.5288 2.79447 10.0006 0.22
262 11 13.0587 2.77642 10.953 0.06
608 11 13.8599 3.67316 14.6619 0.06
603 19 14.9606 3.39878 12.9343 -0.35
604 19 15.9007 1.70838 14.3396 -0.35
170 20 12.5653 1.25054 14.0255 -0.5
331 11 18.1236 0.984758 9.8292 0.06
332 11 16.9422 2.24956 9.42854 0.06
601 9 15.5737 2.14693 13.0339 0.52
602 20 16.1648 1.72016 12.0612 -0.5
283 11 18.2688 3.42442 12.0772 0.06
153 11 17.7896 -0.714971 15.1077 0.06
149 1 18.6899 -0.58525 14.5082 0.22
152 11 19.001 19.73 14.269 0.06
511 11 4.15793 3.61766 9.3942 0.06
641 9 1.21346 6.92877 14.3972 0.52
649 11 4.18874 7.82864 15.223 0.06
643 19 1.16838 8.24201 14.014 -0.35
647 11 3.18477 9.30942 13.6629 0.06
646 2 2.43084 8.74005 14.2088 0.22
438 1 5.22339 7.27718 12.0846 0.22
443 11 5.25423 8.36148 11.8918 0.06
442 11 5.23708 7.20526 13.1819 0.06
167 11 0.597693 6.85321 10.2762 0.06
402 1 9.00275 4.37569 13.1634 0.22
408 11 8.39547 3.58271 12.6382 0.06
314 20 5.51068 4.75896 14.5433 -0.5
400 19 10.1229 3.95916 13.9258 -0.35
444 11 4.2806 6.92796 11.6537 0.06
436 19 6.47863 6.75682 11.6758 -0.35
407 11 9.18311 5.13155 12.4107 0.06
406 11 8.32832 4.82325 13.9149 0.06
205 9 8.55449 8.25777 14.9857 0.52
208 19 8.59655 7.5462 13.7027 -0.35
398 20 11.2378 5.75707 14.6428 -0.5
397 9 11.2118 4.78919 13.8876 0.52
399 19 12.0345 4.84107 12.7607 -0.35
404 11 13.4192 6.05756 11.66 0.06
401 1 12.6475 6.09753 12.4959 0.22
405 11 11.9854 6.86705 12.1938 0.06
403 11 13.227 6.38172 13.399 0.06
102 1 11.0957 11.0916 14.1986 0.22
108 11 10.2987 10.361 14.3169 0.06
106 11 11.2689 11.7117 15.0823 0.06
160 19 -0.459351 8.29187 9.19507 -0.35
162 1 -0.433782 7.33972 10.223 0.22
166 11 20.0931 6.65786 10.2626 0.06
285 11 18.408 5.14664 12.0932 0.06
281 1 18.2511 4.29874 11.4619 0.22
284 11 19.0668 4.28896 10.705 0.06
279 19 17.0977 4.26125 10.6228 -0.35
98 20 12.2702 8.52389 15.0368 -0.5
580 11 17.8823 8.63279 15.7319 0.06
642 20 0.345338 6.16673 14.0306 -0.5
168 11 -0.62121 7.89282 11.1562 0.06
280 19 17.7949 6.47943 9.95337 -0.35
277 9 16.7436 5.60716 10.4217 0.52
278 20 15.7232 6.09183 10.9809 -0.5
579 11 16.4744 7.77717 14.986 0.06
575 2 16.9979 7.96327 15.9507 0.22
89 1 3.06872 12.0187 11.0578 0.22
115 11 20.2791 12.1032 13.4679 0.06
116 11 18.9044 13.16 14.0848 0.06
113 1 19.9271 13.1509 13.6606 0.22
117 11 19.8836 13.6111 12.6445 0.06
111 19 -0.460088 13.7622 14.4414 -0.35
109 9 -0.542463 15.1584 14.5473 0.52
95 11 4.46724 15.3813 14.241 0.06
96 11 3.19795 14.1514 14.0247 0.06
112 19 -0.0975251 15.9518 13.4439 -0.35
87 19 3.15001 12.3062 12.4661 -0.35
92 11 4.03516 11.9347 10.5336 0.06
216 11 9.56686 7.53019 11.9239 0.06
86 20 5.03137 11.1732 13.1417 -0.5
91 11 2.50361 12.788 10.6228 0.06
210 1 9.48123 8.15269 12.8162 0.22
215 11 10.5117 8.24185 13.1898 0.06
85 9 4.495 12.2722 12.9226 0.52
88 19 5.07976 13.5568 13.2831 -0.35
637 11 9.86193 14.7265 10.4224 0.06
214 11 9.18811 9.15823 12.5387 0.06
90 1 4.27556 14.3208 14.2172 0.22
763 26 7.80627 15.663 14.8053 -0.39
94 11 4.56464 13.9917 15.2309 0.06
760 26 8.73257 13.5874 14.5301 -0.39
47 11 16.0251 14.5613 9.03193 0.06
638 11 11.3111 14.0983 10.8092 0.06
636 2 10.8491 15.0573 10.7674 0.22
62 20 9.78015 11.8756 10.8318 -0.5
639 11 9.80397 15.4164 12.5903 0.06
635 2 10.71 15.7073 12.1644 0.22
640 11 11.4576 15.3039 12.9147 0.06
107 11 10.6706 11.7945 13.4517 0.06
634 19 11.6741 16.6947 12.2381 -0.35
100 19 12.2948 10.497 13.7475 -0.35
97 9 12.884 9.33538 14.3752 0.52
134 20 20.3142 12.0798 10.1788 -0.5
103 11 14.8783 10.3289 12.4465 0.06
104 11 15.8009 8.88883 12.6775 0.06
38 20 15.2127 11.5716 10.1486 -0.5
139 11 17.9915 11.1732 10.504 0.06
37 9 15.3637 12.7554 10.4421 0.52
101 1 14.8121 9.3362 12.7988 0.22
39 19 16.3761 13.1849 11.3152 -0.35
43 11 16.2235 14.319 13.1598 0.06
41 1 15.7521 13.5244 12.5592 0.22
44 11 14.7644 14.0314 12.481 0.06
99 19 14.2763 9.10485 14.0982 -0.35
45 11 15.6171 12.6149 13.0867 0.06
110 20 19.956 15.5899 15.3246 -0.5
710 11 18.3061 16.7431 16.5588 0.06
680 11 1.36947 19.4126 10.4418 0.06
118 11 1.79172 16.2369 14.3794 0.06
671 9 2.50962 -0.54237 13.1696 0.52
672 20 2.60218 0.01402 14.2102 -0.5
675 2 1.64428 20.0622 11.2213 0.22
679 11 1.15037 -0.350476 10.9954 0.06
674 19 1.30297 20.548 12.5527 -0.35
120 11 0.655497 17.6475 14.3441 0.06
119 11 1.64835 17.0375 12.9569 0.06
114 1 1.00768 16.7271 13.8321 0.22
613 19 5.01119 20.1455 14.9792 -0.35
616 2 5.04823 18.8235 14.5605 0.22
618 11 5.71935 18.7607 13.7137 0.06
652 20 6.23412 19.3217 10.1165 -0.5
651 9 7.06748 19.3535 10.9918 0.52
654 19 7.90372 18.2821 11.0529 -0.35
653 19 7.33634 20.5129 11.827 -0.35
657 11 8.88931 -0.565585 11.9629 0.06
658 11 8.97341 20.2022 13.4264 0.06
655 2 9.00211 18.6612 11.8134 0.22
656 2 8.47573 19.9474 12.5069 0.22
660 11 9.11825 17.8431 12.4995 0.06
659 11 10.0388 18.8955 11.6036 0.06
611 9 5.78437 20.2647 16.1982 0.52
614 19 6.39619 19.0031 16.5438 -0.35
615 2 5.61496 18.094 15.8421 0.22
620 11 6.52808 17.4782 15.6907 0.06
179 11 11.7311 20.1796 11.0737 0.06
180 11 13.1346 -0.0662493 11.3067 0.06
48 11 14.7749 13.8881 8.03454 0.06
631 9 12.4667 16.5083 11.1724 0.52
632 20 13.2554 17.3694 10.8465 -0.5
633 19 11.8001 15.8895 10.1093 -0.35
178 11 13.089 19.6178 12.0142 0.06
174 1 12.4859 20.5027 11.7835 0.22
172 19 11.6029 -0.381689 12.7782 -0.35
169 9 12.3355 0.0340429 13.8391 0.52
173 1 13.4698 20.1074 15.4915 0.22
171 19 12.1949 20.543 14.9535 -0.35
176 11 13.9593 -0.533006 16.1484 0.06
568 11 16.1509 17.4078 11.7667 0.06
570 11 16.0646 20.0212 12.2471 0.06
569 11 16.9848 20.2999 10.9042 0.06
143 11 19.8882 16.0249 9.69291 0.06
567 11 15.4805 18.3491 10.5331 0.06
565 2 16.8825 19.5493 11.6689 0.22
562 20 19.7383 17.9298 11.1269 -0.5
564 19 18.3251 19.5922 11.6158 -0.35
561 9 18.6447 18.3289 11.2097 0.52
563 19 17.6146 17.4428 10.9601 -0.35
566 2 16.3859 18.2027 11.0423 0.22
704 19 17.6401 17.5382 15.5772 -0.35
151 11 18.4037 -0.0303173 13.6404 0.06
155 11 20.5732 3.89583 16.0568 0.06
244 19 3.25683 3.41394 17.273 -0.35
242 20 2.64488 1.2929 16.6535 -0.5
241 9 3.0925 2.01357 17.5134 0.52
245 1 3.05476 1.07423 19.7781 0.22
243 19 3.71865 1.2971 18.5039 -0.35
246 1 2.47136 4.17516 18.3007 0.22
251 11 2.47074 5.28223 18.1666 0.06
252 11 1.41309 3.90749 18.4176 0.06
250 11 2.94072 4.03975 19.3105 0.06
247 11 2.71517 0.0453905 19.923 0.06
14 20 18.9813 0.0892205 0.222011 -0.5
154 11 19.404 4.12733 14.729 0.06
428 11 7.78324 19.8963 -0.221312 0.06
733 31 5.99723 0.569531 18.3882 1
749 26 6.36166 3.73702 17.1845 -0.39
743 27 7.55238 3.2746 18.034 1.34
747 26 6.6651 2.16559 18.656 -0.39
745 26 7.23744 4.30637 19.1064 -0.39
746 26 8.47272 4.26828 17.2542 -0.39
748 26 8.78858 2.76487 18.8116 -0.39
49 9 11.4938 1.55471 -0.124127 0.52
51 19 11.8089 1.74611 19.8186 -0.35
56 11 11.1716 1.17329 17.8643 0.06
607 11 15.0958 4.94086 14.5009 0.06
606 2 14.9083 3.84587 14.3159 0.22
605 2 15.8966 2.95145 15.0592 0.22
610 11 15.5384 2.69961 16.0744 0.06
57 11 11.7917 -0.063814 18.9541 0.06
53 1 11.2145 0.807228 18.8953 0.22
560 11 12.734 3.07407 17.6707 0.06
559 11 14.3247 3.46051 18.2278 0.06
609 11 16.9465 3.34026 15.0934 0.06
55 11 10.1519 0.557084 19.2168 0.06
722 20 16.0471 0.00922996 17.9023 -0.5
15 19 -0.192791 -0.176729 -0.424674 -0.35
147 19 19.5364 -0.0978738 15.4852 -0.35
145 9 20.303 1.03239 15.0145 0.52
22 11 18.5881 20.2925 17.846 0.06
16 19 19.3502 20.0359 19.7382 -0.35
13 9 19.7752 -0.511232 -0.503967 0.52
18 1 19.126 -0.511195 18.6154 0.22
23 11 18.5059 0.347957 18.8835 0.06
148 19 19.5818 2.20256 15.3357 -0.35
156 11 -0.301816 3.49406 14.4609 0.06
150 1 20.1909 3.457 15.1257 0.22
24 11 19.9651 -0.156394 18.0998 0.06
644 19 2.29365 6.65967 15.2236 -0.35
645 2 3.10802 7.75265 15.0897 0.22
648 11 1.82926 9.47394 14.7029 0.06
650 11 2.78815 7.96233 16.106 0.06
356 11 0.678439 12.5082 17.8517 0.06
353 1 0.589029 11.5608 17.3123 0.22
201 11 3.47412 9.55441 18.5722 0.06
207 19 7.32526 8.94273 15.4057 -0.35
734 31 5.88423 5.10687 16.1635 1
197 1 4.51185 9.29121 18.6103 0.22
200 11 5.09635 10.113 18.8177 0.06
195 19 4.99231 8.43522 17.54 -0.35
206 20 9.50765 8.27741 15.7684 -0.5
193 9 5.92138 7.41007 17.8979 0.52
194 20 6.01639 6.46346 17.1252 -0.5
196 19 6.32743 7.30274 19.3005 -0.35
202 11 8.2946 8.33372 19.3128 0.06
203 11 7.91361 6.99362 20.5361 0.06
198 1 7.7249 7.43329 19.5599 0.22
204 11 8.18928 6.60084 18.983 0.06
199 11 4.50118 8.76472 19.5105 0.06
557 11 13.4773 4.17581 20.2393 0.06
555 2 13.3513 3.86893 18.0568 0.22
732 31 11.1226 7.38313 15.7338 1
556 2 12.8744 4.52698 19.3779 0.22
554 19 13.0402 4.86253 17.0855 -0.35
551 9 12.559 5.95661 17.7277 0.52
553 19 12.3173 5.78351 19.0853 -0.35
552 20 11.9711 6.88446 17.1034 -0.5
464 11 13.3848 9.51774 19.1526 0.06
599 11 20.0203 5.41215 19.663 0.06
595 2 20.393 6.37737 19.8737 0.22
594 19 -0.403642 6.55515 -0.235281 -0.35
596 2 19.2829 7.46781 19.7137 0.22
574 19 17.2676 6.64886 16.1521 -0.35
600 11 -0.29782 6.34619 19.0061 0.06
577 11 15.6719 9.50964 16.8219 0.06
571 9 16.4185 6.29872 17.2299 0.52
572 20 16.5034 5.18172 17.7273 -0.5
573 19 15.6144 7.30786 17.7285 -0.35
576 2 16.0042 8.48948 17.0609 0.22
578 11 16.6205 8.75924 17.9832 0.06
598 11 19.1559 7.98815 18.7551 0.06
350 20 19.4084 9.78143 17.345 -0.5
351 19 -0.0387232 10.693 18.2734 -0.35
355 11 1.68463 11.3327 17.1336 0.06
382 11 1.73939 14.4717 18.5768 0.06
383 11 3.25484 15.359 18.8635 0.06
378 1 2.68393 14.7027 18.1929 0.22
384 11 2.61215 15.2242 17.2484 0.06
376 19 3.24319 13.4545 17.9746 -0.35
373 9 4.0293 12.9718 19.0245 0.52
374 20 3.46405 12.1176 19.742 -0.5
358 11 19.7351 13.5818 17.3582 0.06
379 11 5.63491 15.1146 18.7027 0.06
213 11 7.68269 10.5888 16.4956 0.06
211 11 8.29058 10.7657 14.8065 0.06
375 19 5.4463 12.9722 18.7395 -0.35
131 11 7.69273 11.4256 0.555607 0.06
209 1 7.48845 10.3464 15.4453 0.22
212 11 6.62484 10.8534 14.9996 0.06
757 27 8.57142 14.5726 15.715 1.34
124 19 8.92073 10.0855 20.7552 -0.35
126 1 8.0713 11.2814 -0.460764 0.22
132 11 8.45323 12.2796 20.5936 0.06
758 26 7.22476 13.9203 15.8832 -0.39
762 26 9.20309 13.4172 16.4828 -0.39
759 26 9.97287 15.1495 15.4436 -0.39
129 11 10.2374 10.4208 16.9626 0.06
236 11 8.30349 17.0288 19.1218 0.06
584 19 13.8886 13.5613 14.7355 -0.35
123 19 10.434 9.9651 18.9215 -0.35
463 11 14.2048 10.5582 18.0094 0.06
121 9 10.1652 10.4906 20.1974 0.52
461 1 13.7671 10.5251 18.9974 0.22
465 11 12.9688 11.2268 18.9225 0.06
587 11 11.6782 13.8459 16.8181 0.06
122 20 11.0767 10.9446 -0.361997 -0.5
128 11 10.7187 11.8236 18.0019 0.06
125 1 10.0875 10.9089 17.9154 0.22
237 11 9.00048 15.9437 20.2462 0.06
127 11 9.05581 11.2392 17.927 0.06
586 2 12.663 14.1466 16.6174 0.22
583 19 13.1681 12.8327 16.7731 -0.35
581 9 14.1037 12.6465 15.8043 0.52
582 20 14.931 11.7313 15.7675 -0.5
468 11 16.1941 14.8104 0.184931 0.06
105 11 14.3067 8.65172 12.0996 0.06
349 9 19.901 10.7898 17.885 0.52
352 19 19.1661 11.8232 18.5404 -0.35
459 19 14.7357 10.7561 20.0236 -0.35
457 9 15.3639 11.9637 19.8986 0.52
359 11 18.5329 12.6255 16.5862 0.06
708 11 16.5456 15.6701 16.8867 0.06
458 20 16.0341 12.2134 18.894 -0.5
360 11 17.9874 13.2809 18.0026 0.06
354 1 18.8882 12.853 17.5637 0.22
420 11 -0.476491 15.9059 19.8235 0.06
617 11 4.06143 18.5466 14.3063 0.06
248 11 3.78923 1.14518 20.6041 0.06
426 1 4.28449 18.8483 -0.300014 0.22
432 11 3.20456 18.7613 -0.522656 0.06
430 11 4.70475 17.8674 -0.276487 0.06
731 31 1.8202 -0.0359204 15.5454 1
753 26 0.593537 18.6105 16.7093 -0.39
756 26 2.4197 17.5804 16.3636 -0.39
750 27 1.88014 18.5529 17.4034 1.34
752 26 1.41996 17.3916 18.335 -0.39
751 26 2.45682 19.6153 16.4551 -0.39
755 26 1.37119 19.6364 18.4032 -0.39
754 26 3.20593 18.5151 18.2011 -0.39
427 11 8.09511 0.210758 20.456 0.06
425 1 7.95865 20.4516 20.1873 0.22
612 20 5.8203 -0.071841 16.9623 -0.5
619 11 4.87842 17.5327 16.4639 0.06
424 19 4.80124 19.6894 19.9894 -0.35
421 9 6.03617 19.2364 19.525 0.52
423 19 6.92443 20.2616 19.2019 -0.35
761 26 8.4166 15.5112 16.9636 -0.39
238 11 9.98259 19.5599 15.7261 0.06
422 20 6.25139 18.0289 19.1489 -0.5
234 1 9.5851 18.6647 16.2214 0.22
239 11 8.99724 18.0572 15.4764 0.06
240 11 8.94078 19.1489 17.003 0.06
235 11 9.36586 17.5501 20.47 0.06
233 1 9.15047 16.8229 19.6782 0.22
589 11 12.211 13.9682 14.4838 0.06
585 2 12.9225 14.4667 15.1507 0.22
590 11 12.5208 15.4903 15.0404 0.06
175 11 14.2587 20.0008 14.7344 0.06
588 11 12.6366 15.0346 17.1571 0.06
721 9 15.5198 20.5588 18.6897 0.52
177 11 13.3059 19.0823 16.0297 0.06
231 19 10.2361 16.6614 18.7643 -0.35
232 19 10.7255 17.9148 16.6988 -0.35
229 9 10.7746 17.8498 18.1217 0.52
230 20 11.0676 18.8795 18.7356 -0.5
730 11 13.2903 18.6066 19.3782 0.06
725 2 14.2977 18.9911 19.5373 0.22
724 19 14.7523 19.4151 18.2568 -0.35
414 1 20.306 16.8204 19.7936 0.22
702 20 15.855 18.1591 14.3882 -0.5
709 11 18.1698 17.9859 17.7811 0.06
705 2 17.6429 17.4578 17.0118 0.22
418 11 20.3044 17.1192 18.7357 0.06
707 11 16.2137 16.6414 18.3285 0.06
706 2 16.3984 16.6948 17.2403 0.22
703 19 15.5214 16.7597 16.0807 -0.35
729 11 15.0657 18.1871 19.5948 0.06
701 9 16.3343 17.4404 15.213 0.52
ITEM: TIMESTEP
700
ITEM: NUMBER OF ATOMS
770
ITEM: BOX BOUNDS pp pp pp
-6.7345555721098727e-01 2.0673455557211078e+01
-6.7345555721098727e-01 2.0673455557211078e+01
-6.7345555721098727e-01 2.0673455557211078e+01
ITEM: ATOMS id type x y z c_charge
74 20 2.03496 0.266301 3.18118 -0.5
73 9 1.02657 0.785103 3.59795 0.52
75 19 0.291464 1.65227 2.73234 -0.35
77 1 20.4651 2.27478 3.3178 0.22
81 11 20.6715 3.17194 3.94406 0.06
684 19 1.70245 3.85548 4.81081 -0.35
76 19 0.324943 0.124684 4.66478 -0.35
309 11 1.88077 4.45629 2.01507 0.06
249 11 1.96634 1.95722 19.8602 0.06
308 11 3.36603 3.56334 2.63936 0.06
305 1 2.7066 3.76607 1.78931 0.22
79 11 19.7646 2.48337 2.5322 0.06
489 11 2.24817 18.8845 3.89698 0.06
488 11 3.4357 19.2249 2.77284 0.06
19 11 1.26222 20.3065 0.797968 0.06
303 19 3.41485 4.16798 0.684953 -0.35
692 20 7.15555 1.86305 0.74118 -0.5
691 9 6.74986 1.27131 1.73551 0.52
694 19 7.30626 -0.0253311 2.16991 -0.35
693 19 5.5368 1.63289 2.39358 -0.35
54 1 9.86268 3.04601 0.798827 0.22
60 11 9.44285 2.6103 1.75613 0.06
696 2 5.24495 0.606474 3.33179 0.22
453 11 8.92857 4.27121 3.60017 0.06
698 11 4.517 0.0340808 3.86022 0.06
695 2 6.43143 -0.44986 3.23197 0.22
58 11 9.71357 4.08159 1.01801 0.06
59 11 9.28045 2.72004 0.0215073 0.06
449 1 9.21258 4.0142 4.66066 0.22
451 11 9.81291 3.06926 4.59297 0.06
699 11 6.80985 -0.374967 4.25415 0.06
697 11 5.3832 1.46569 3.97105 0.06
307 11 2.19302 2.81883 1.5551 0.06
52 19 11.1842 2.59338 0.658452 -0.35
348 11 14.5494 1.90923 1.02077 0.06
50 20 11.1921 0.349957 0.309219 -0.5
342 1 15.4569 1.77086 1.56128 0.22
347 11 15.2027 1.08083 2.30673 0.06
338 20 14.2474 4.13165 2.18062 -0.5
337 9 15.3782 3.966 1.76534 0.52
346 11 16.1143 1.17842 0.858697 0.06
340 19 16.1063 2.83551 2.12205 -0.35
339 19 15.9633 4.98081 1.00559 -0.35
493 9 12.3046 0.715841 4.08541 0.52
497 1 13.3395 20.0272 4.12272 0.22
494 20 12.3876 1.94163 3.76494 -0.5
499 11 13.1809 20.016 3.05066 0.06
343 11 15.5487 3.68057 -0.575968 0.06
345 11 17.249 4.02978 -0.338071 0.06
341 1 16.2785 4.45574 -0.304776 0.22
17 1 0.422328 19.9128 0.21817 0.22
20 11 -0.181517 19.3209 0.922846 0.06
80 11 19.8651 1.59027 3.93922 0.06
690 11 0.778422 6.03246 4.80357 0.06
306 1 2.40472 7.21401 0.926047 0.22
311 11 2.80342 7.50558 1.87893 0.06
312 11 2.15479 8.18731 0.462037 0.06
592 20 20.3821 8.00678 1.68346 -0.5
8 11 1.43332 9.39046 4.64033 0.06
9 11 2.29306 11.0117 4.56713 0.06
301 9 4.05863 5.43181 0.918885 0.52
304 19 3.37966 6.48577 0.232844 -0.35
310 11 1.36668 6.71811 1.01707 0.06
452 11 8.35712 3.8919 5.27186 0.06
302 20 5.1305 5.55372 1.50969 -0.5
714 19 8.33663 7.07016 3.98079 -0.35
716 2 6.14915 7.66963 3.5107 0.22
713 19 6.28027 7.74353 4.9276 -0.35
711 9 7.67266 7.48501 5.13143 0.52
719 11 7.75081 6.73537 2.46761 0.06
720 11 7.61037 8.41435 2.18826 0.06
715 2 7.55618 7.63057 2.94467 0.22
717 11 5.73734 6.71503 3.81224 0.06
712 20 8.278 7.59489 6.20387 -0.5
446 20 11.3646 5.10298 3.19147 -0.5
363 19 14.0757 8.39767 0.643383 -0.35
368 11 15.9268 8.95293 -0.384541 0.06
735 31 12.8769 4.82221 2.55889 1
361 9 13.5471 8.07415 1.95041 0.52
362 20 13.1234 6.94692 2.16608 -0.5
364 19 13.116 9.16966 2.82929 -0.35
365 1 15.5216 8.48804 0.534408 0.22
369 11 15.8977 9.07382 1.37325 0.06
445 9 11.3292 5.23724 4.42069 0.52
558 11 11.6597 4.35937 19.3058 0.06
591 9 19.9202 7.49592 0.650798 0.52
344 11 16.2346 5.30146 20.3774 0.06
597 11 18.2022 7.05154 20.0933 0.06
593 19 18.7992 7.97176 -0.0921873 -0.35
367 11 15.912 7.44274 0.464844 0.06
480 11 16.4434 7.86792 5.54974 0.06
670 11 20.0833 10.6476 1.2565 0.06
669 11 -0.185187 11.0468 2.4347 0.06
665 2 -0.220003 10.8655 1.3335 0.22
664 19 0.992926 10.2892 1.76965 -0.35
661 9 2.00712 11.0088 1.09821 0.52
663 19 1.58598 12.2006 0.532684 -0.35
666 2 0.198263 12.164 0.470125 0.22
668 11 -0.107187 12.0169 -0.537514 0.06
667 11 -0.210607 13.1299 0.804017 0.06
662 20 3.10511 10.555 0.736944 -0.5
357 11 0.421879 11.8863 16.1523 0.06
380 11 5.96392 13.9042 20.4228 0.06
381 11 7.10761 14.1188 19.064 0.06
377 1 6.04198 14.061 19.3334 0.22
718 11 5.37681 8.21176 2.96625 0.06
36 11 5.75826 12.1623 2.44073 0.06
26 20 8.41649 10.6068 2.86057 -0.5
25 9 7.87497 10.8922 3.92379 0.52
227 11 10.8599 14.3461 -0.0732847 0.06
222 1 11.5934 14.9696 0.366776 0.22
30 1 6.1037 12.3336 3.48422 0.22
34 11 5.33382 12.8625 4.0643 0.06
28 19 6.48341 11.0854 4.00899 -0.35
35 11 6.86854 13.0749 3.49068 0.06
130 11 7.4866 11.1655 19.8134 0.06
372 11 12.383 11.1452 2.98618 0.06
370 11 13.442 10.7814 1.51568 0.06
366 1 12.6651 10.3799 2.22524 0.22
371 11 11.7213 10.2806 1.64903 0.06
226 11 12.0271 14.6093 1.24487 0.06
737 26 14.4881 13.6914 3.39732 -0.39
228 11 12.3667 15.0124 -0.399948 0.06
33 11 10.2847 10.0443 4.24616 0.06
460 19 14.7284 12.9965 -0.530521 -0.35
467 11 15.8468 14.6811 20.1669 0.06
31 11 10.5669 11.0051 5.62276 0.06
462 1 15.7289 13.9437 -0.33199 0.22
466 11 16.7954 13.5573 -0.247262 0.06
266 20 19.4744 11.5468 4.19398 -0.5
272 11 15.9686 11.9608 1.86352 0.06
273 11 16.9746 13.1268 2.60818 0.06
271 11 17.6217 12.0883 1.30719 0.06
269 1 17.0216 12.1057 2.22595 0.22
267 19 17.5346 11.0937 3.03658 -0.35
265 9 18.25 11.6231 4.18446 0.52
490 11 2.43304 14.6603 0.0854044 0.06
419 11 20.3885 17.815 19.1928 0.06
486 1 3.11975 14.9554 0.886848 0.22
491 11 4.0041 15.431 0.412239 0.06
492 11 3.52209 14.0274 1.38015 0.06
484 19 2.51313 15.7775 1.84049 -0.35
481 9 1.79485 16.9513 1.32331 0.52
482 20 1.58404 17.0489 0.138874 -0.5
483 19 1.70253 18.0676 2.2151 -0.35
487 11 3.39808 17.5974 3.38161 0.06
485 1 2.79372 18.4383 3.06891 0.22
431 11 4.69087 18.2299 0.449053 0.06
295 11 20.5984 17.72 3.66452 0.06
296 11 -0.315757 16.0386 3.25264 0.06
768 26 5.87148 15.0549 2.25392 -0.39
770 26 5.80687 17.2201 2.4269 -0.39
766 26 7.34966 15.9701 3.51048 -0.39
764 27 6.9322 16.1856 1.99508 1.34
765 26 6.42174 16.3051 0.485666 -0.39
769 26 8.11631 15.1984 1.54598 -0.39
429 11 9.03589 19.7736 19.7863 0.06
767 26 7.94259 17.3659 1.73103 -0.39
700 11 6.24877 19.8561 2.9544 0.06
225 11 9.95305 18.7594 2.8933 0.06
220 19 11.0441 16.256 0.531288 -0.35
523 11 9.22998 16.3201 4.98092 0.06
223 11 10.7949 19.9656 1.95123 0.06
500 11 14.1862 19.3661 4.28873 0.06
501 11 12.4784 19.4864 4.52261 0.06
736 27 14.4844 15.1836 3.74677 1.34
741 26 13.041 15.1094 4.28187 -0.39
740 26 14.0588 15.5559 2.29886 -0.39
738 26 14.4403 16.6962 4.11802 -0.39
728 11 13.0102 20.3563 -0.66231 0.06
217 9 11.98 17.2426 0.924269 0.52
218 20 13.0129 17.4029 0.220484 -0.5
224 11 10.0058 18.5936 1.03872 0.06
221 1 10.5224 18.8812 1.94348 0.22
219 19 11.6932 18.06 2.0359 -0.35
727 11 14.6824 20.325 -0.296327 0.06
723 19 15.0758 -0.179415 19.727 -0.35
726 2 13.998 20.3279 20.2308 0.22
742 26 15.9818 15.3111 3.33972 -0.39
417 11 17.7351 17.6763 2.02109 0.06
409 9 19.1651 16.5677 0.277287 0.52
410 20 18.8865 15.4886 0.851158 -0.5
413 1 18.4644 18.3374 1.52976 0.22
415 11 18.565 19.1679 2.2143 0.06
416 11 17.9753 18.8368 0.697813 0.06
411 19 19.5793 17.6285 1.12364 -0.35
293 1 20.5535 16.6184 4.04924 0.22
297 11 19.5297 16.3889 4.02163 0.06
412 19 18.9469 16.8183 20.255 -0.35
21 11 0.807234 19.2019 -0.473559 0.06
689 11 0.593696 4.73506 5.7676 0.06
78 1 1.02498 0.135369 5.89356 0.22
84 11 0.476144 -0.382678 6.6603 0.06
83 11 1.3232 1.09584 6.26783 0.06
82 11 1.89503 -0.526924 5.81146 0.06
510 1 0.03495 3.00967 8.05402 0.22
506 20 1.88927 1.84183 10.0006 -0.5
508 19 1.40514 2.99209 8.14084 -0.35
505 9 1.75481 2.94949 9.52395 0.52
188 11 4.91167 0.0798193 7.43063 0.06
681 9 2.91588 3.55661 5.52351 0.52
682 20 3.56062 2.51003 5.28459 -0.5
187 11 4.16778 1.70827 7.59605 0.06
513 11 4.0411 2.94434 10.2857 0.06
515 11 -0.582401 2.4589 8.80626 0.06
677 11 3.3032 20.5254 10.1121 0.06
503 11 10.9557 1.34593 6.21536 0.06
498 1 10.7173 0.36052 5.83904 0.22
185 1 4.3779 0.71579 8.13351 0.22
189 11 3.43785 0.240671 8.22187 0.06
183 19 5.25705 0.714771 9.29503 -0.35
181 9 6.33745 1.65869 8.98587 0.52
184 19 7.44864 1.09694 8.24843 -0.35
504 11 9.5958 0.170807 5.98759 0.06
259 11 9.65502 3.55222 7.91522 0.06
257 1 9.7001 4.22814 8.75721 0.22
260 11 8.90463 4.0659 9.52293 0.06
186 1 8.51491 0.769529 9.11818 0.22
502 11 11.2747 -0.412779 6.42769 0.06
496 19 11.0345 0.14371 4.48365 -0.35
495 19 13.4098 0.0401741 4.63738 -0.35
255 19 10.8617 4.0833 9.53697 -0.35
547 11 14.6894 2.34981 5.21238 0.06
546 2 15.2234 2.61768 6.18959 0.22
548 11 14.6754 2.1734 7.03144 0.06
190 11 9.23635 1.5342 9.3599 0.06
253 9 12.0123 3.84378 8.69967 0.52
256 19 12.6722 2.68625 8.93198 -0.35
334 11 19.3355 19.8484 5.19696 0.06
330 1 18.374 20.38 5.27277 0.22
336 11 18.4901 -0.0399603 4.71651 0.06
335 11 17.645 19.7834 4.70851 0.06
328 19 17.8463 20.5517 6.55938 -0.35
325 9 18.5156 0.246731 7.27823 0.52
326 20 19.6643 0.157321 7.61975 -0.5
327 19 17.8178 1.35108 7.6924 -0.35
514 11 -0.259417 2.5797 7.09711 0.06
543 19 16.1111 2.30285 5.15521 -0.35
329 1 17.1822 1.27736 8.96454 0.22
545 2 15.4059 4.10399 6.50674 0.22
550 11 15.1988 4.26457 7.57274 0.06
333 11 16.5278 0.432148 8.9488 0.06
685 2 1.40456 5.21672 5.16479 0.22
688 11 3.09543 6.55661 5.56408 0.06
686 2 2.59467 5.68036 6.0292 0.22
687 11 2.28171 5.97675 7.08889 0.06
683 19 3.60618 4.66301 6.06886 -0.35
157 9 -0.534087 7.91543 7.97849 0.52
158 20 -0.0500225 6.86316 7.55902 -0.5
3 19 2.15586 9.97502 6.45295 -0.35
165 11 -0.218708 10.2475 7.51364 0.06
7 11 3.13751 9.4775 4.68305 0.06
5 1 2.25373 10.004 5.02319 0.22
2 20 3.41318 9.98848 8.3142 -0.5
441 11 7.2446 6.1799 7.92629 0.06
437 1 6.24796 6.60794 8.1744 0.22
440 11 6.40272 7.66088 7.93955 0.06
439 11 5.52612 6.17373 7.5065 0.06
447 19 10.1291 4.9818 5.18934 -0.35
70 11 8.85149 8.35349 8.39775 0.06
66 1 9.26161 8.8257 9.2448 0.22
435 19 5.87686 6.44345 9.46867 -0.35
433 9 6.80611 6.68839 10.4136 0.52
71 11 10.0067 8.12509 9.6031 0.06
261 11 9.48524 5.18841 8.34328 0.06
72 11 8.36165 8.90434 9.92015 0.06
434 20 7.95734 6.46831 10.2027 -0.5
254 20 12.6648 4.77432 8.29022 -0.5
456 11 11.7678 7.24174 5.55607 0.06
454 11 13.1347 6.73206 6.68894 0.06
549 11 14.8517 4.83973 5.98038 0.06
448 19 12.6553 5.43461 4.96822 -0.35
455 11 13.4173 7.15578 5.13046 0.06
450 1 12.6579 6.62411 5.67556 0.22
61 9 10.1152 10.5897 10.3479 0.52
64 19 9.63874 10.1764 9.0415 -0.35
63 19 11.1975 9.83556 10.8466 -0.35
470 20 13.9336 9.13107 6.67493 -0.5
68 11 12.2187 10.5014 9.12638 0.06
159 19 19.9196 8.57431 7.14748 -0.35
542 20 17.8126 3.59023 4.34616 -0.5
541 9 16.9012 3.47133 5.14136 0.52
544 19 16.6624 4.45583 6.0769 -0.35
474 1 16.6845 8.94718 5.6536 0.22
479 11 17.7318 9.02217 5.54405 0.06
472 19 16.1852 9.53659 6.85412 -0.35
287 11 17.0508 6.55381 7.96399 0.06
478 11 16.2758 9.38743 4.7749 0.06
469 9 14.7878 9.96331 6.75701 0.52
286 11 17.7775 8.15208 8.39755 0.06
288 11 16.1889 7.76697 8.86907 0.06
282 1 17.178 7.31836 8.74681 0.22
163 11 -0.551767 9.94545 5.81716 0.06
161 1 20.36 9.88956 6.81595 0.22
1 9 3.16909 10.5512 7.21366 0.52
630 11 2.24335 14.195 7.79465 0.06
11 11 5.5721 12.0391 6.24737 0.06
4 19 3.53653 11.943 6.9565 -0.35
6 1 4.96297 12.1088 7.22353 0.22
10 11 5.39398 11.4965 8.03857 0.06
164 11 19.5156 10.5384 6.99192 0.06
93 11 1.96506 11.0628 11.0317 0.06
12 11 5.14464 13.111 7.59926 0.06
387 19 6.67345 14.5652 9.55316 -0.35
388 19 8.61361 14.7736 8.2196 -0.35
385 9 7.23209 15.0538 8.43085 0.52
389 1 6.45478 15.4866 10.5975 0.22
392 11 5.68802 15.1589 11.3185 0.06
386 20 6.5366 15.3612 7.4694 -0.5
390 1 8.92875 13.4308 7.84883 0.22
395 11 9.99509 13.2789 7.6067 0.06
32 11 9.82295 9.54622 5.9259 0.06
27 19 8.62842 11.175 5.08859 -0.35
29 1 9.81779 10.3447 5.19844 0.22
475 11 15.0368 12.1826 5.23788 0.06
394 11 8.40105 13.244 6.90903 0.06
69 11 12.6577 11.3429 10.6047 0.06
396 11 8.71781 12.6625 8.61583 0.06
65 1 12.3709 10.4254 10.1813 0.22
67 11 13.2562 9.77032 10.233 0.06
42 1 14.8819 14.7734 9.04893 0.22
274 11 18.2096 14.0259 5.15146 0.06
276 11 18.973 13.1396 6.37225 0.06
471 19 14.4581 11.2916 7.06245 -0.35
268 19 17.5411 12.0155 5.34707 -0.35
473 1 14.2102 12.0156 5.92337 0.22
477 11 13.835 12.9694 6.29049 0.06
476 11 13.4262 11.6312 5.20805 0.06
135 19 18.6584 12.0664 8.96231 -0.35
133 9 19.6219 12.8447 9.69619 0.52
136 19 19.8162 14.115 9.13247 -0.35
137 1 18.3559 10.7653 9.42677 0.22
141 11 19.2966 10.2138 9.23417 0.06
270 1 18.0255 13.2694 5.88943 0.22
275 11 17.343 13.7158 6.58764 0.06
40 19 14.4345 13.6105 9.85036 -0.35
140 11 17.5688 10.3889 8.74217 0.06
627 11 3.11947 16.5622 7.06581 0.06
629 11 1.40017 15.6063 8.38579 0.06
628 11 4.13841 15.2326 7.2801 0.06
291 19 -0.156269 16.4891 5.27974 -0.35
626 2 3.4302 15.8444 7.83028 0.22
625 2 2.29561 15.0117 8.49233 0.22
624 19 2.56981 15.1528 9.89587 -0.35
622 20 3.5468 16.9004 11.0809 -0.5
621 9 3.37196 16.3419 9.97472 0.52
623 19 3.83002 16.8654 8.74823 -0.35
289 9 -0.0204506 17.6986 6.09024 0.52
290 20 1.02031 18.2825 6.13447 -0.5
393 11 7.37283 15.5658 11.1303 0.06
391 11 6.07469 16.4312 10.2491 0.06
528 11 5.37323 18.728 7.23111 0.06
526 11 5.94691 17.6771 6.10054 0.06
520 19 7.07288 19.3665 6.24357 -0.35
527 11 6.88385 17.9608 7.71504 0.06
522 1 6.29078 18.4124 6.85471 0.22
519 19 9.08664 18.3663 5.3246 -0.35
521 1 9.56801 17.1016 5.61606 0.22
517 9 8.50819 19.1429 6.30399 0.52
518 20 9.12103 19.1846 7.33491 -0.5
525 11 9.31298 16.7332 6.58182 0.06
192 11 9.11465 0.0275775 8.49447 0.06
739 26 14.9867 14.7442 5.1672 -0.39
524 11 10.6515 17.1326 5.68982 0.06
537 11 11.3605 18.4782 7.10024 0.06
535 11 12.2517 17.6998 8.36016 0.06
536 11 10.7851 18.715 8.67599 0.06
533 1 11.6629 18.5802 8.10531 0.22
531 19 12.3887 19.7669 8.29407 -0.35
46 11 13.9942 15.3894 8.90657 0.06
529 9 13.8093 19.7456 8.2133 0.52
530 20 14.447 20.2402 9.20525 -0.5
144 11 18.5633 15.1761 10.33 0.06
300 11 -0.605146 19.4082 7.99513 0.06
299 11 -0.419837 18.0849 9.00177 0.06
538 11 16.1012 18.4807 6.62509 0.06
539 11 15.1582 17.6853 7.92208 0.06
532 19 14.4245 19.4979 6.97421 -0.35
534 1 15.1096 18.2652 6.9959 0.22
540 11 14.7139 17.4488 6.40192 0.06
292 19 20.2565 17.6877 7.0573 -0.35
138 1 19.6002 15.061 10.1919 0.22
298 11 19.331 18.6906 8.57482 0.06
294 1 20.3267 18.4721 8.23097 0.22
142 11 20.1854 15.0214 11.1582 0.06
507 19 2.27487 4.19221 10.0269 -0.35
516 11 -0.3471 4.04325 8.12589 0.06
509 1 3.66543 3.97877 10.1885 0.22
512 11 3.96413 4.64533 11.0199 0.06
678 11 3.66913 19.4001 11.1947 0.06
676 2 3.06491 20.3016 11.1464 0.22
673 19 3.55665 -0.547121 12.4277 -0.35
321 11 2.45525 2.72199 13.4578 0.06
317 1 2.4321 3.78882 13.5831 0.22
316 19 4.85388 2.60322 14.4226 -0.35
319 11 1.89335 4.00462 14.4798 0.06
146 20 0.0316853 0.972167 15.6918 -0.5
313 9 4.67566 3.95493 14.2878 0.52
315 19 3.70536 4.3897 13.4263 -0.35
320 11 1.73439 4.11727 12.7883 0.06
323 11 5.32697 1.46436 12.8129 0.06
318 1 5.78929 1.83647 13.7474 0.22
322 11 5.91994 0.940559 14.3625 0.06
182 20 6.42773 2.76414 9.49913 -0.5
324 11 6.75019 2.37464 13.6197 0.06
191 11 8.22262 0.301766 10.0795 0.06
744 26 8.03922 2.47189 16.8201 -0.39
264 11 14.4031 3.37028 9.56288 0.06
263 11 13.8778 1.81906 10.1466 0.06
258 1 13.5869 2.80487 9.93703 0.22
262 11 13.2079 3.24605 10.9039 0.06
608 11 13.9778 3.70694 14.6096 0.06
603 19 15.141 3.49254 12.9158 -0.35
604 19 16.2106 1.81262 14.2891 -0.35
170 20 12.6019 1.16067 13.9811 -0.5
331 11 17.9174 1.15168 9.74274 0.06
332 11 16.6963 2.2183 9.17069 0.06
601 9 15.6015 2.14299 12.9971 0.52
602 20 15.8049 1.471 11.9765 -0.5
283 11 18.5629 3.29939 11.9884 0.06
153 11 17.5054 20.4224 15.0304 0.06
149 1 18.4733 -0.504282 14.7021 0.22
152 11 18.8549 20.2344 13.858 0.06
511 11 4.2284 4.48145 9.37053 0.06
641 9 1.19533 6.80205 14.3903 0.52
649 11 4.00363 7.68463 15.072 0.06
643 19 1.27561 8.01867 13.761 -0.35
647 11 3.07897 9.37262 13.8854 0.06
646 2 2.28812 8.78625 14.3945 0.22
438 1 5.23208 7.45396 11.9878 0.22
443 11 5.46687 8.51004 12.2265 0.06
442 11 4.68323 6.98116 12.8034 0.06
167 11 0.823793 6.95359 10.1757 0.06
402 1 9.0888 4.16722 12.9817 0.22
408 11 8.98215 3.20742 12.5379 0.06
314 20 5.31674 4.89222 14.7822 -0.5
400 19 10.0971 4.09335 13.9628 -0.35
444 11 4.591 7.46831 11.0927 0.06
436 19 6.31748 6.59359 11.7186 -0.35
407 11 9.27956 4.86917 12.15 0.06
406 11 8.13422 4.4353 13.4298 0.06
205 9 8.57908 8.26357 15.0585 0.52
208 19 8.40674 7.33328 13.9994 -0.35
398 20 11.1113 6.01945 14.5975 -0.5
397 9 11.0834 5.05474 13.8467 0.52
399 19 12.0392 4.7588 12.831 -0.35
404 11 13.1522 5.48305 11.4135 0.06
401 1 12.8418 5.7906 12.3647 0.22
405 11 12.2807 6.72534 12.1357 0.06
403 11 13.7289 5.95217 12.9566 0.06
102 1 11.4373 11.0337 13.9851 0.22
108 11 10.6215 10.3175 13.7789 0.06
106 11 11.5089 11.3637 15.0415 0.06
160 19 -0.459394 8.22368 9.26872 -0.35
162 1 -0.214717 7.09667 10.132 0.22
166 11 20.5774 6.18666 9.85054 0.06
285 11 17.6446 4.56637 12.7262 0.06
281 1 18.2178 4.33804 11.7881 0.22
284 11 19.0315 5.0465 11.7793 0.06
279 19 17.2778 4.3924 10.6926 -0.35
98 20 12.2286 8.64002 14.6487 -0.5
580 11 18.0726 8.52912 15.6448 0.06
642 20 0.242397 6.01284 14.2657 -0.5
168 11 -0.639201 7.27303 11.1174 0.06
280 19 17.6534 6.74137 9.99236 -0.35
277 9 16.7712 5.72569 10.5092 0.52
278 20 15.7115 6.07571 11.0452 -0.5
579 11 16.9242 7.44114 15.0225 0.06
575 2 17.2651 7.9197 15.9197 0.22
89 1 2.91496 11.6221 11.213 0.22
115 11 19.7318 12.2979 14.065 0.06
116 11 19.0434 13.8675 13.8826 0.06
113 1 19.972 13.3099 13.8172 0.22
117 11 20.2058 13.2892 12.7644 0.06
111 19 -0.359013 13.8459 14.731 -0.35
109 9 -0.435531 15.2289 14.8474 0.52
95 11 4.50149 15.5218 13.9073 0.06
96 11 3.1116 14.4256 13.9648 0.06
112 19 -0.224814 15.9813 13.6754 -0.35
87 19 2.95809 12.1796 12.5153 -0.35
92 11 3.75701 10.9577 11.0878 0.06
216 11 9.30468 7.12958 11.9468 0.06
86 20 4.81862 11.3069 13.44 -0.5
91 11 2.95297 12.4657 10.4885 0.06
210 1 9.20095 7.76955 12.8243 0.22
215 11 10.2427 7.86297 13.0858 0.06
85 9 4.25897 12.305 13.0323 0.52
88 19 4.84033 13.6219 13.1138 -0.35
637 11 9.94463 14.526 10.5631 0.06
214 11 8.96227 8.83015 12.5829 0.06
90 1 4.19306 14.467 14.0559 0.22
763 26 7.64864 15.6206 14.9474 -0.39
94 11 4.55995 14.2553 15.0476 0.06
760 26 8.51424 13.6411 14.4841 -0.39
47 11 15.5619 15.4591 9.5841 0.06
638 11 11.3644 14.0788 11.0969 0.06
636 2 10.8454 15.0348 10.8746 0.22
62 20 9.69579 11.6679 10.8847 -0.5
639 11 9.58061 16.1318 12.2484 0.06
635 2 10.6604 15.7849 12.2183 0.22
640 11 10.7516 15.0838 13.0082 0.06
107 11 11.0142 11.8817 13.4585 0.06
634 19 11.5089 16.872 12.2656 -0.35
100 19 12.6347 10.5544 13.4638 -0.35
97 9 13.0247 9.55389 14.3254 0.52
134 20 20.6328 12.2886 10.2341 -0.5
103 11 14.6759 9.70241 12.3901 0.06
104 11 15.9435 8.83505 13.1236 0.06
38 20 15.4562 11.4991 10.0779 -0.5
139 11 17.966 10.6144 10.4643 0.06
37 9 15.5546 12.738 10.2393 0.52
101 1 14.8614 8.90453 13.1428 0.22
39 19 16.518 13.314 11.1335 -0.35
43 11 16.9143 13.6633 13.0621 0.06
41 1 16.0178 13.3789 12.5131 0.22
44 11 15.2914 14.2005 12.6352 0.06
99 19 14.3233 9.19654 14.3823 -0.35
45 11 15.7709 12.325 12.845 0.06
110 20 19.9736 15.5484 15.5752 -0.5
710 11 18.5303 17.3039 17.4176 0.06
680 11 1.33545 19.0247 11.4427 0.06
118 11 1.80003 16.2218 14.2105 0.06
671 9 2.41356 -0.345162 13.1928 0.52
672 20 2.48265 0.126497 14.3244 -0.5
675 2 1.58048 20.1151 11.3347 0.22
679 11 1.08835 20.2596 10.3277 0.06
674 19 1.30821 20.3068 12.731 -0.35
120 11 0.752463 17.6893 14.2035 0.06
119 11 1.41764 16.9177 12.7767 0.06
114 1 0.960959 16.7529 13.704 0.22
613 19 5.02781 20.0592 15.0298 -0.35
616 2 4.92432 18.6528 14.8483 0.22
618 11 5.23732 18.7384 13.7932 0.06
652 20 6.40918 19.3487 10.0738 -0.5
651 9 7.27272 19.3834 10.9385 0.52
654 19 8.2713 18.4461 10.96 -0.35
653 19 7.3847 20.4487 11.9156 -0.35
657 11 9.13416 -0.390012 12.2221 0.06
658 11 8.30761 20.1942 13.5923 0.06
655 2 9.00031 18.7298 12.0746 0.22
656 2 8.55293 20.0744 12.5317 0.22
660 11 8.96096 18.1473 13.0194 0.06
659 11 10.0453 18.7906 11.806 0.06
611 9 5.82095 20.1225 16.1776 0.52
614 19 6.4703 18.8708 16.5592 -0.35
615 2 5.82396 17.788 15.8643 0.22
620 11 5.72817 16.7497 15.674 0.06
179 11 12.5931 20.2506 10.7952 0.06
180 11 13.5755 -0.216303 12.0303 0.06
48 11 15.2462 14.6437 8.03727 0.06
631 9 12.0651 17.0096 11.0312 0.52
632 20 13.1757 17.4878 10.8408 -0.5
633 19 11.7123 15.8998 10.1832 -0.35
178 11 13.1394 19.5045 12.2993 0.06
174 1 12.789 20.4126 11.838 0.22
172 19 11.6914 -0.451838 12.598 -0.35
169 9 12.0123 0.125628 13.8556 0.52
173 1 13.3695 20.182 15.2867 0.22
171 19 12.0595 20.5577 14.9355 -0.35
176 11 13.7739 -0.348216 15.9047 0.06
568 11 15.5396 18.0217 11.771 0.06
570 11 16.234 19.9201 12.4028 0.06
569 11 16.469 20.4729 10.8637 0.06
143 11 19.8708 16.0658 9.89507 0.06
567 11 15.8033 18.4071 10.0863 0.06
565 2 16.8325 19.6832 11.5294 0.22
562 20 19.723 17.9927 11.1383 -0.5
564 19 18.2806 19.6922 11.5845 -0.35
561 9 18.5523 18.3353 11.3922 0.52
563 19 17.4935 17.586 10.799 -0.35
566 2 16.3262 18.3339 11.0779 0.22
704 19 17.6338 17.7124 15.5337 -0.35
151 11 18.2208 0.489707 14.2506 0.06
155 11 -0.106162 3.2737 15.594 0.06
244 19 3.1508 3.51257 17.4492 -0.35
242 20 2.63253 1.42295 16.6502 -0.5
241 9 2.91418 2.10485 17.6496 0.52
245 1 2.7821 1.29582 19.8194 0.22
243 19 3.58037 1.44689 18.7174 -0.35
246 1 2.68316 4.3614 18.3707 0.22
251 11 2.10007 5.10234 17.8601 0.06
252 11 2.00245 3.89833 19.0771 0.06
250 11 3.49729 4.8358 18.8934 0.06
247 11 2.38761 0.274266 19.8815 0.06
14 20 19.0812 0.41267 0.133623 -0.5
154 11 19.7529 4.21653 15.4384 0.06
428 11 7.82455 19.9614 -0.140826 0.06
733 31 6.06619 0.597379 18.2841 1
749 26 6.39176 3.90717 17.2326 -0.39
743 27 7.61 3.32216 18.0743 1.34
747 26 6.76082 2.11297 18.6144 -0.39
745 26 7.1365 4.13918 19.3128 -0.39
746 26 8.41458 4.48079 17.4658 -0.39
748 26 8.81753 2.71348 18.8199 -0.39
49 9 11.3404 1.48375 -0.176143 0.52
51 19 12.0172 1.65097 20.013 -0.35
56 11 11.1634 1.76857 18.1912 0.06
607 11 15.2738 4.80218 14.3122 0.06
606 2 14.9986 3.78049 14.3017 0.22
605 2 15.9261 2.88724 15.1356 0.22
610 11 15.6054 2.8875 16.1679 0.06
57 11 11.7535 0.132558 18.6417 0.06
53 1 11.1671 1.02003 18.9895 0.22
560 11 12.6304 3.27727 17.5364 0.06
559 11 14.0831 2.98429 18.5021 0.06
609 11 16.93 3.21666 15.0991 0.06
55 11 10.1741 0.692073 19.2287 0.06
722 20 16.01 0.0175264 17.6929 -0.5
15 19 -0.115263 -0.252172 -0.433869 -0.35
147 19 19.5463 -0.28431 15.6267 -0.35
145 9 20.1698 0.988615 15.547 0.52
22 11 18.8536 20.0206 17.8374 0.06
16 19 19.3229 20.0988 19.8993 -0.35
13 9 19.8292 -0.28917 -0.570484 0.52
18 1 18.9982 -0.610207 18.6622 0.22
23 11 18.1905 0.105096 18.745 0.06
148 19 19.469 2.14711 15.2829 -0.35
156 11 20.5366 3.46344 14.019 0.06
150 1 20.29 3.36011 15.0856 0.22
24 11 19.9035 -0.0471533 18.2759 0.06
644 19 2.30474 6.50175 15.132 -0.35
645 2 2.95104 7.75699 15.3453 0.22
648 11 1.6503 9.52605 14.9908 0.06
650 11 2.89308 7.81967 16.4449 0.06
356 11 0.543208 12.867 17.7964 0.06
353 1 0.667679 11.9288 17.2292 0.22
201 11 3.6244 10.0437 18.6879 0.06
207 19 7.38103 8.95535 15.4702 -0.35
734 31 6.0819 5.30711 16.2009 1
197 1 4.40881 9.36536 19.0104 0.22
200 11 5.20156 10.0333 19.4054 0.06
195 19 4.93702 8.78621 17.8312 -0.35
206 20 9.67358 8.35408 15.6748 -0.5
193 9 5.50203 7.50029 17.9549 0.52
194 20 5.57177 6.71787 16.9667 -0.5
196 19 6.00279 7.05515 19.2609 -0.35
202 11 7.59038 8.04765 18.6029 0.06
203 11 7.68183 7.92012 20.2785 0.06
198 1 7.38945 7.34169 19.4133 0.22
204 11 8.14602 6.57895 19.3489 0.06
199 11 4.06207 8.69793 19.8505 0.06
557 11 13.029 4.15841 20.3046 0.06
555 2 13.4033 3.79635 18.1299 0.22
732 31 11.4254 7.47827 15.661 1
556 2 12.7058 4.48199 19.3418 0.22
554 19 13.3763 4.84012 17.1535 -0.35
551 9 12.6949 5.99913 17.6987 0.52
553 19 12.1659 5.72606 19.0145 -0.35
552 20 12.2935 6.98396 17.0466 -0.5
464 11 12.9862 9.47254 19.2794 0.06
599 11 20.224 5.76672 19.2349 0.06
595 2 20.3086 6.58019 19.9966 0.22
594 19 -0.528985 6.63384 -0.0989527 -0.35
596 2 19.0892 7.59596 19.9366 0.22
574 19 17.3355 6.56334 16.2002 -0.35
600 11 -0.139847 6.99 19.5439 0.06
577 11 15.5699 9.20574 16.3938 0.06
571 9 16.2801 6.3233 17.1197 0.52
572 20 16.3333 5.27774 17.7658 -0.5
573 19 15.569 7.45381 17.4914 -0.35
576 2 16.2235 8.54945 16.9161 0.22
578 11 16.6593 9.2538 17.5495 0.06
598 11 19.053 7.89784 18.9123 0.06
350 20 19.3701 9.88989 17.3614 -0.5
351 19 -0.00354188 10.7966 17.7738 -0.35
355 11 1.66735 11.6223 17.2831 0.06
382 11 1.42719 14.8735 18.4804 0.06
383 11 2.95286 15.3415 19.2399 0.06
378 1 2.55145 14.8168 18.3756 0.22
384 11 2.8899 15.5045 17.6046 0.06
376 19 3.02735 13.4828 18.0998 -0.35
373 9 4.04097 12.9668 18.9505 0.52
374 20 3.79927 12.2525 19.8488 -0.5
358 11 19.1083 12.9543 16.8252 0.06
379 11 5.68622 15.052 19.2434 0.06
213 11 7.85921 10.8492 16.0351 0.06
211 11 7.86875 10.7459 14.3373 0.06
375 19 5.36853 13.131 18.4801 -0.35
131 11 7.11283 10.6949 0.229452 0.06
209 1 7.34043 10.3898 15.2039 0.22
212 11 6.33528 10.785 15.0945 0.06
757 27 8.57913 14.5518 15.7508 1.34
124 19 8.98223 10.2313 -0.338263 -0.35
126 1 7.82421 11.0217 -0.526454 0.22
132 11 8.07398 12.0052 -0.162629 0.06
758 26 7.35004 13.8575 16.2882 -0.39
762 26 9.43174 13.4534 16.4351 -0.39
759 26 9.82935 15.184 15.1763 -0.39
129 11 9.90554 10.65 16.9744 0.06
236 11 8.42811 17.2609 18.7673 0.06
584 19 13.7143 13.597 14.748 -0.35
123 19 10.1664 9.90448 18.9363 -0.35
463 11 13.9355 10.3217 17.9841 0.06
121 9 10.1495 10.5465 20.2314 0.52
461 1 13.4764 10.3965 18.9715 0.22
465 11 12.7374 11.2037 18.8175 0.06
587 11 11.625 14.355 17.1313 0.06
122 20 11.1018 11.1905 -0.630697 -0.5
128 11 10.4909 11.8134 18.1751 0.06
125 1 9.86583 10.956 18.026 0.22
237 11 8.93416 15.9058 19.8481 0.06
127 11 8.84652 11.3238 18.1666 0.06
586 2 12.631 14.0415 16.738 0.22
583 19 13.007 12.6998 16.7448 -0.35
581 9 13.9612 12.685 15.7668 0.52
582 20 14.9671 11.9992 15.7056 -0.5
468 11 15.3852 14.4278 0.578477 0.06
105 11 14.5784 7.98321 12.7013 0.06
349 9 19.9438 10.9019 17.7164 0.52
352 19 19.1763 11.8156 18.47 -0.35
459 19 14.3939 10.7751 19.9631 -0.35
457 9 15.026 12.0236 19.7944 0.52
359 11 17.5816 13.0092 17.4131 0.06
708 11 16.7285 15.6491 17.2028 0.06
458 20 15.8983 12.1821 18.9199 -0.5
360 11 18.7154 13.93 18.2735 0.06
354 1 18.633 12.9414 17.8071 0.22
420 11 -0.333341 16.416 20.0162 0.06
617 11 3.84024 18.8215 15.0522 0.06
248 11 3.35511 1.42367 20.7376 0.06
426 1 4.14504 18.6517 -0.339243 0.22
432 11 3.25164 19.1856 -0.135313 0.06
430 11 3.85995 17.7692 20.4155 0.06
731 31 1.64003 0.147837 15.7418 1
753 26 0.681634 18.887 16.6488 -0.39
756 26 2.32977 17.5978 16.5272 -0.39
750 27 1.95423 18.7281 17.487 1.34
752 26 1.40683 17.6157 18.4188 -0.39
751 26 2.45684 19.9719 16.666 -0.39
755 26 1.55103 19.8285 18.4706 -0.39
754 26 3.38289 18.6805 18.0987 -0.39
427 11 8.31908 -0.0260798 20.0611 0.06
425 1 8.08267 20.2895 20.1736 0.22
612 20 5.96187 -0.176965 16.8284 -0.5
619 11 5.55864 17.7879 16.9074 0.06
424 19 4.91291 19.6169 20.3224 -0.35
421 9 6.08044 19.0314 19.8031 0.52
423 19 6.99565 19.9707 19.3054 -0.35
761 26 8.63868 15.4297 17.0582 -0.39
238 11 9.71735 19.8493 15.65 0.06
422 20 6.04419 17.9354 19.3546 -0.5
234 1 9.52602 18.945 16.2086 0.22
239 11 8.89647 18.2717 15.7069 0.06
240 11 8.98865 19.3177 17.04 0.06
235 11 9.31889 17.5372 20.3136 0.06
233 1 9.24662 16.9005 19.4354 0.22
589 11 11.9435 14.2659 14.7245 0.06
585 2 12.8053 14.5759 15.3153 0.22
590 11 12.8829 15.6424 15.2149 0.06
175 11 14.071 20.198 14.4682 0.06
588 11 13.1805 14.7565 17.4195 0.06
721 9 15.3782 -0.654711 18.4623 0.52
177 11 13.3456 19.2895 15.79 0.06
231 19 10.4194 16.7617 18.6882 -0.35
232 19 10.6358 18.1767 16.7048 -0.35
229 9 10.738 18.0061 18.1029 0.52
230 20 11.0126 19.0395 18.8098 -0.5
730 11 13.1875 18.5238 19.2499 0.06
725 2 14.1125 19.0619 19.3304 0.22
724 19 14.9952 19.3658 18.1592 -0.35
414 1 20.1213 16.7819 19.4846 0.22
702 20 15.9082 18.1022 14.1208 -0.5
709 11 17.2447 18.5585 17.3729 0.06
705 2 17.56 17.5725 16.9414 0.22
418 11 20.0168 16.141 18.6278 0.06
707 11 15.8957 16.9405 18.0733 0.06
706 2 16.3536 16.6756 17.1396 0.22
703 19 15.5516 16.8507 16.0107 -0.35
729 11 14.6461 18.3306 19.8997 0.06
701 9 16.3794 17.4746 15.0616 0.52
ITEM: TIMESTEP
750
ITEM: NUMBER OF ATOMS
770
ITEM: BOX BOUNDS pp pp pp
-6.8361501334071306e-01 2.0683615013340784e+01
-6.8361501334071306e-01 2.0683615013340784e+01
-6.8361501334071306e-01 2.0683615013340784e+01
ITEM: ATOMS id type x y z c_charge
74 20 2.01766 -0.0167575 3.14959 -0.5
73 9 1.01279 0.631994 3.46771 0.52
75 19 0.411379 1.51228 2.55134 -0.35
77 1 20.7557 2.36387 2.98917 0.22
81 11 -0.559268 2.48341 4.06 0.06
684 19 1.74053 3.54369 4.89052 -0.35
76 19 0.335165 0.325999 4.67153 -0.35
309 11 1.74942 3.59782 1.69802 0.06
249 11 1.67115 1.33186 19.5909 0.06
308 11 3.31099 3.75573 2.53317 0.06
305 1 2.83353 3.41962 1.59419 0.22
79 11 20.926 3.34482 2.49198 0.06
489 11 2.05882 19.0109 3.50029 0.06
488 11 3.23516 19.0138 2.27109 0.06
19 11 1.40828 20.482 0.671166 0.06
303 19 3.35351 4.10522 0.365262 -0.35
692 20 7.08424 1.73044 0.869906 -0.5
691 9 6.78751 1.17331 1.97184 0.52
694 19 7.51663 0.0438728 2.51129 -0.35
693 19 5.5352 1.39014 2.59952 -0.35
54 1 9.84109 3.09793 0.840434 0.22
60 11 9.26675 2.71401 1.62326 0.06
696 2 5.2811 0.323115 3.45462 0.22
453 11 8.8999 3.88973 3.6159 0.06
698 11 4.39075 -0.122494 2.95998 0.06
695 2 6.64677 -0.509914 3.4757 0.22
58 11 9.91641 4.13217 1.17784 0.06
59 11 9.04491 3.13726 -0.00341405 0.06
449 1 9.25637 3.81497 4.64941 0.22
451 11 9.83183 2.95293 4.64567 0.06
699 11 7.10828 -0.70797 4.44318 0.06
697 11 4.92539 0.139001 4.47998 0.06
307 11 2.97779 2.32496 1.63271 0.06
52 19 11.1441 2.6557 0.599384 -0.35
348 11 15.4621 1.55279 -0.0690369 0.06
50 20 11.0293 0.329881 0.348274 -0.5
342 1 15.8593 1.38505 0.952938 0.22
347 11 15.2884 0.49264 1.31806 0.06
338 20 14.1366 4.11894 2.05367 -0.5
337 9 15.2005 3.75747 1.48063 0.52
346 11 16.7924 0.94157 0.818724 0.06
340 19 15.9531 2.54523 1.84421 -0.35
339 19 15.8122 4.93283 0.932472 -0.35
493 9 12.3965 0.506243 4.30648 0.52
497 1 13.8181 19.9283 3.87619 0.22
494 20 12.4892 1.70138 4.11342 -0.5
499 11 13.2746 19.9002 2.91097 0.06
343 11 16.1871 3.81463 20.4875 0.06
345 11 17.1223 5.18069 -0.607731 0.06
341 1 16.0798 4.835 -0.407487 0.22
17 1 0.450744 20.1697 0.238563 0.22
20 11 -0.178575 19.767 1.00619 0.06
80 11 19.7533 2.07455 2.67005 0.06
690 11 0.759217 5.37199 4.46856 0.06
306 1 2.82776 7.206 0.925778 0.22
311 11 3.34289 8.03083 1.45731 0.06
312 11 2.06578 7.66337 0.3383 0.06
592 20 20.3161 7.85116 1.91779 -0.5
8 11 1.46564 9.28229 4.66919 0.06
9 11 1.95151 10.9964 4.60817 0.06
301 9 4.22294 5.26446 0.601928 0.52
304 19 3.75573 6.46621 0.0674419 -0.35
310 11 2.29767 6.55425 1.52608 0.06
452 11 8.3515 3.67486 5.38165 0.06
302 20 4.85816 5.3728 1.681 -0.5
714 19 8.40439 7.17675 3.88037 -0.35
716 2 6.22645 7.9058 3.47923 0.22
713 19 6.40633 7.79143 4.8847 -0.35
711 9 7.67881 7.29587 5.05365 0.52
719 11 7.43157 6.24607 2.64153 0.06
720 11 7.69329 7.85485 1.81077 0.06
715 2 7.52299 7.39151 2.79114 0.22
717 11 5.39599 7.18202 3.63507 0.06
712 20 8.27059 7.52778 6.08905 -0.5
446 20 11.4185 5.00981 3.07609 -0.5
363 19 14.0366 8.28946 0.611311 -0.35
368 11 15.7985 8.97788 -0.270929 0.06
735 31 12.9569 5.41691 2.27617 1
361 9 13.6079 8.04709 1.92726 0.52
362 20 13.5363 6.88215 2.31539 -0.5
364 19 13.3711 9.17625 2.82176 -0.35
365 1 15.4263 8.54182 0.645028 0.22
369 11 15.7232 9.26109 1.44411 0.06
445 9 11.2729 5.04766 4.2998 0.52
558 11 11.346 4.0805 19.1419 0.06
591 9 19.8001 7.40969 0.86194 0.52
344 11 15.4684 5.4598 20.2406 0.06
597 11 18.3877 7.34278 19.1752 0.06
593 19 18.7317 8.02524 0.193272 -0.35
367 11 15.9857 7.62406 0.654276 0.06
480 11 15.8665 8.02128 5.40934 0.06
670 11 20.2516 10.5364 1.1045 0.06
669 11 -0.0535493 10.9073 2.4946 0.06
665 2 -0.152756 10.9987 1.43047 0.22
664 19 1.06189 10.308 1.75019 -0.35
661 9 2.01914 10.9906 0.978724 0.52
663 19 1.59014 12.2954 0.521503 -0.35
666 2 0.188357 12.3684 0.856846 0.22
668 11 -0.105919 12.5229 -0.202723 0.06
667 11 -0.354607 13.0393 1.50961 0.06
662 20 2.90986 10.3041 0.414126 -0.5
357 11 0.393048 11.6098 15.8039 0.06
380 11 6.32458 13.6024 20.261 0.06
381 11 7.26045 14.2177 18.8982 0.06
377 1 6.27208 14.1345 19.3182 0.22
718 11 5.8438 8.88314 3.20676 0.06
36 11 6.30555 12.099 2.19663 0.06
26 20 8.23423 10.3398 3.04193 -0.5
25 9 7.73699 10.7895 4.10292 0.52
227 11 10.8677 14.6364 -0.596132 0.06
222 1 11.4612 15.0918 0.211695 0.22
30 1 6.318 12.4188 3.25949 0.22
34 11 5.33279 12.8833 3.47518 0.06
28 19 6.36713 11.2036 4.07457 -0.35
35 11 7.04897 13.2395 3.51943 0.06
130 11 7.52754 11.1076 20.1969 0.06
372 11 12.3579 11.1178 2.54513 0.06
370 11 13.2805 10.5067 1.17719 0.06
366 1 12.7285 10.2273 2.04832 0.22
371 11 11.7713 9.82301 1.6865 0.06
226 11 11.2042 14.6401 1.19595 0.06
737 26 14.6317 13.5818 3.36195 -0.39
228 11 12.4867 14.8093 0.0373944 0.06
33 11 10.1556 10.1579 4.44458 0.06
460 19 14.2562 13.0981 -0.667976 -0.35
467 11 15.5731 14.6206 20.3799 0.06
31 11 10.568 11.216 5.78633 0.06
462 1 15.3773 13.9053 -0.219567 0.22
466 11 16.2196 13.2647 -0.279764 0.06
266 20 19.4036 11.6053 3.92389 -0.5
272 11 16.7603 11.2876 1.17349 0.06
273 11 16.538 12.6179 2.1146 0.06
271 11 18.1912 12.1175 1.5533 0.06
269 1 17.2285 11.8083 1.94077 0.22
267 19 17.2811 10.9927 3.10321 -0.35
265 9 18.158 11.6536 4.0303 0.52
490 11 2.89237 14.4312 -0.0895227 0.06
419 11 19.9496 17.3761 18.4953 0.06
486 1 3.4362 14.8807 0.725546 0.22
491 11 4.20063 15.5006 0.324341 0.06
492 11 3.80508 14.0094 1.2064 0.06
484 19 2.58669 15.5747 1.62768 -0.35
481 9 1.95738 16.7341 1.17342 0.52
482 20 1.8847 16.9043 -0.0483667 -0.5
483 19 1.58873 17.7447 1.98906 -0.35
487 11 3.19329 17.5416 3.24042 0.06
485 1 2.56749 18.3378 2.82787 0.22
431 11 4.51632 18.2133 0.632013 0.06
295 11 20.5836 17.533 3.69871 0.06
296 11 -0.579892 15.878 3.29142 0.06
768 26 5.94414 14.9801 2.20713 -0.39
770 26 5.91291 17.2164 2.28981 -0.39
766 26 7.40613 16.0597 3.44355 -0.39
764 27 6.98245 16.103 1.92059 1.34
765 26 6.51623 16.1539 0.406404 -0.39
769 26 7.95288 14.8825 1.56938 -0.39
429 11 9.02177 19.9997 20.3081 0.06
767 26 8.01149 17.3151 1.68839 -0.39
700 11 6.35533 19.8825 3.07389 0.06
225 11 9.95118 18.3123 2.59322 0.06
220 19 11.0921 16.4815 0.305422 -0.35
523 11 9.90641 16.8827 4.42902 0.06
223 11 10.8177 19.7072 2.34738 0.06
500 11 14.8998 19.8654 3.69922 0.06
501 11 13.5588 19.0476 4.45537 0.06
736 27 14.6335 15.1314 3.70832 1.34
741 26 13.1793 14.9754 4.24594 -0.39
740 26 14.0917 15.5194 2.3073 -0.39
738 26 14.7219 16.5923 4.12866 -0.39
728 11 12.7844 20.2451 20.1699 0.06
217 9 12.1641 17.3434 0.730099 0.52
218 20 13.0509 17.6681 -0.0193226 -0.5
224 11 10.2399 18.9076 0.926251 0.06
221 1 10.6688 18.7443 1.93118 0.22
219 19 11.911 18.0355 1.93504 -0.35
727 11 14.257 20.2681 -0.339442 0.06
723 19 14.579 -0.00171605 19.3406 -0.35
726 2 13.8634 20.3183 19.9891 0.22
742 26 16.1063 15.2355 3.21279 -0.39
417 11 17.6405 17.5939 2.00625 0.06
409 9 19.2376 16.4203 0.209908 0.52
410 20 19.0567 15.2709 0.507554 -0.5
413 1 18.4011 18.2221 1.50846 0.22
415 11 18.7106 18.9374 2.28832 0.06
416 11 17.9812 18.9301 0.77682 0.06
411 19 19.5844 17.5151 1.13738 -0.35
293 1 20.6477 16.6029 4.09131 0.22
297 11 19.6181 16.3276 4.47866 0.06
412 19 18.885 16.8505 20.2721 -0.35
21 11 0.5335 19.3629 -0.545427 0.06
689 11 0.38243 4.78478 5.90068 0.06
78 1 1.25784 -0.0300828 5.70679 0.22
84 11 0.839214 -0.514227 6.59302 0.06
83 11 1.74355 0.908177 6.04694 0.06
82 11 2.03014 20.5865 5.47062 0.06
510 1 -0.0847598 2.65208 7.89362 0.22
506 20 1.73735 1.97073 10.2911 -0.5
508 19 1.37125 2.88095 8.16834 -0.35
505 9 1.8544 2.93896 9.52758 0.52
188 11 5.10853 -0.152601 7.45169 0.06
681 9 3.09773 3.53198 5.3265 0.52
682 20 3.55761 2.45988 5.65707 -0.5
187 11 4.56899 1.55763 7.53781 0.06
513 11 4.13024 3.48638 10.6354 0.06
515 11 -0.511548 1.84518 8.43345 0.06
677 11 3.21232 -0.180041 10.867 0.06
503 11 10.3505 1.22705 5.89811 0.06
498 1 10.4774 0.157609 5.76555 0.22
185 1 4.53398 0.635991 7.99779 0.22
189 11 3.40556 0.419959 7.9634 0.06
183 19 5.07417 0.906263 9.26856 -0.35
181 9 6.31795 1.56977 9.01323 0.52
184 19 7.4495 1.05051 8.30106 -0.35
504 11 9.51692 -0.267379 5.79261 0.06
259 11 10.0177 3.54051 7.89274 0.06
257 1 9.99202 4.18243 8.75265 0.22
260 11 9.12509 4.13986 9.34936 0.06
186 1 8.60344 0.772375 9.09489 0.22
502 11 11.0928 -0.218948 6.5701 0.06
496 19 11.0482 -0.0455452 4.44578 -0.35
495 19 13.5264 -0.279328 4.68003 -0.35
255 19 11.1095 4.05125 9.61351 -0.35
547 11 14.3673 2.53066 5.33104 0.06
546 2 15.1951 2.58321 5.95605 0.22
548 11 14.9168 1.85296 6.75423 0.06
190 11 8.95772 1.65374 9.63095 0.06
253 9 12.3477 3.98972 8.95759 0.52
256 19 12.8922 2.76069 8.88193 -0.35
334 11 19.4098 19.9358 5.53512 0.06
330 1 18.338 20.1765 5.35634 0.22
336 11 18.2724 -0.387844 4.57404 0.06
335 11 17.8393 19.2587 4.99059 0.06
328 19 17.6723 20.6202 6.51202 -0.35
325 9 18.4786 0.104908 7.24618 0.52
326 20 19.4847 -0.350308 7.77356 -0.5
327 19 17.9889 1.34446 7.60256 -0.35
514 11 -0.293566 2.49088 6.84629 0.06
543 19 16.3777 2.25093 5.31661 -0.35
329 1 17.0902 1.24249 8.68979 0.22
545 2 15.3234 4.07246 6.44498 0.22
550 11 15.1458 4.39688 7.4632 0.06
333 11 16.2002 0.593633 8.49203 0.06
685 2 1.24332 4.87475 5.30033 0.22
688 11 2.53011 6.61716 5.75036 0.06
686 2 2.43729 5.56147 5.94072 0.22
687 11 2.399 5.40355 6.97152 0.06
683 19 3.50968 4.63646 6.08024 -0.35
157 9 -0.54612 7.83017 7.98356 0.52
158 20 -0.0170421 6.95024 7.37892 -0.5
3 19 2.01565 10.262 6.43334 -0.35
165 11 -0.292343 10.3939 7.61149 0.06
7 11 3.15455 9.7822 4.68449 0.06
5 1 2.15982 10.0356 5.0356 0.22
2 20 3.50124 10.1254 8.20447 -0.5
441 11 7.01493 6.27944 7.78971 0.06
437 1 6.15911 6.80045 8.12205 0.22
440 11 6.38696 7.84694 8.10321 0.06
439 11 5.36352 6.65705 7.38111 0.06
447 19 10.053 4.96634 5.03922 -0.35
70 11 8.10428 8.85601 8.24698 0.06
66 1 8.89694 8.90242 9.02197 0.22
435 19 5.62308 6.30828 9.3871 -0.35
433 9 6.48018 6.31001 10.5388 0.52
71 11 9.53049 8.0472 8.73227 0.06
261 11 9.94788 5.19681 8.28195 0.06
72 11 8.37729 8.70107 9.92257 0.06
434 20 7.69729 6.37741 10.4036 -0.5
254 20 12.9486 4.99713 8.58586 -0.5
456 11 11.6226 7.14086 5.66294 0.06
454 11 13.0517 6.74006 6.2869 0.06
549 11 14.7271 4.82644 5.87972 0.06
448 19 12.4427 5.24992 5.09305 -0.35
455 11 13.1648 7.34808 4.92297 0.06
450 1 12.5162 6.6454 5.39291 0.22
61 9 10.203 10.4922 10.2804 0.52
64 19 9.6897 10.0971 8.97304 -0.35
63 19 11.471 9.93191 10.6583 -0.35
470 20 13.9196 8.96485 6.81839 -0.5
68 11 12.5256 10.7211 9.01495 0.06
159 19 19.8491 8.64837 7.29497 -0.35
542 20 17.759 3.93091 4.31727 -0.5
541 9 17.0289 3.5455 5.2297 0.52
544 19 16.5769 4.55303 6.05903 -0.35
474 1 16.3394 8.971 5.50777 0.22
479 11 17.4336 8.81841 5.38565 0.06
472 19 16.1096 9.5117 6.79685 -0.35
287 11 16.8608 6.56344 8.18016 0.06
478 11 15.9618 9.61932 4.68998 0.06
469 9 14.7702 9.85473 6.89864 0.52
286 11 17.1116 8.29658 8.66491 0.06
288 11 15.653 7.45797 9.13682 0.06
282 1 16.7129 7.32059 8.9437 0.22
163 11 -0.450159 9.61704 5.93707 0.06
161 1 20.3976 9.88635 6.87546 0.22
1 9 3.12354 10.6919 7.18945 0.52
630 11 2.38542 13.9232 7.98118 0.06
11 11 5.57862 12.0649 6.31006 0.06
4 19 3.67152 11.9375 6.6894 -0.35
6 1 4.95991 12.272 7.11156 0.22
10 11 5.30555 11.782 8.01928 0.06
164 11 19.4519 10.4715 6.69099 0.06
93 11 1.72363 11.3505 10.875 0.06
12 11 5.05839 13.3389 7.34478 0.06
387 19 6.90051 14.4843 9.65415 -0.35
388 19 8.79765 14.8679 8.32509 -0.35
385 9 7.38083 15.0386 8.52695 0.52
389 1 6.69139 15.5257 10.5646 0.22
392 11 5.96654 15.1326 11.2546 0.06
386 20 6.61457 15.3814 7.67502 -0.5
390 1 9.15387 13.6076 7.7784 0.22
395 11 10.1961 13.6119 7.46537 0.06
32 11 9.67874 9.76406 6.17083 0.06
27 19 8.58563 11.1754 5.17717 -0.35
29 1 9.81103 10.5321 5.3705 0.22
475 11 14.7408 12.0979 5.30866 0.06
394 11 8.49236 13.2416 6.9628 0.06
69 11 12.8295 11.4146 10.7061 0.06
396 11 9.21786 12.9192 8.61264 0.06
65 1 12.6761 10.4958 10.0955 0.22
67 11 13.5529 9.87933 10.2204 0.06
42 1 14.7737 14.8729 9.2883 0.22
274 11 17.825 14.0173 4.83779 0.06
276 11 18.7527 13.4279 6.17154 0.06
471 19 14.4425 11.164 7.12138 -0.35
268 19 17.6142 11.9512 5.25417 -0.35
473 1 13.9208 11.7192 5.94387 0.22
477 11 13.2869 12.5424 6.19293 0.06
476 11 13.4293 11.0344 5.33415 0.06
135 19 18.8652 12.195 8.99076 -0.35
133 9 19.9672 12.9173 9.59391 0.52
136 19 20.0258 14.34 9.34895 -0.35
137 1 18.5527 10.9426 9.6528 0.22
141 11 19.3998 10.2801 9.63798 0.06
270 1 17.794 13.2774 5.64681 0.22
275 11 16.9809 13.6055 6.28918 0.06
40 19 14.4921 13.59 9.74756 -0.35
140 11 17.6357 10.5063 9.3554 0.06
627 11 2.72686 15.82 6.49706 0.06
629 11 1.08846 15.1347 7.95871 0.06
628 11 4.00002 15.6572 7.54682 0.06
291 19 0.205568 16.4033 5.16831 -0.35
626 2 2.93655 15.9389 7.56638 0.22
625 2 2.08364 14.9042 8.36299 0.22
624 19 2.33171 15.1837 9.73104 -0.35
622 20 3.33009 16.9602 10.9071 -0.5
621 9 3.11233 16.4205 9.819 0.52
623 19 3.57386 16.8381 8.51888 -0.35
289 9 0.0294073 17.4494 6.11629 0.52
290 20 0.923094 18.3445 6.03414 -0.5
393 11 7.59986 15.7208 11.2074 0.06
391 11 6.14948 16.4294 10.2008 0.06
528 11 5.0414 18.7395 6.95757 0.06
526 11 5.90913 17.4157 6.49171 0.06
520 19 7.11168 19.16 6.40479 -0.35
527 11 6.31061 18.1382 7.96153 0.06
522 1 6.09688 18.3365 6.96979 0.22
519 19 9.25967 18.2912 5.55811 -0.35
521 1 9.70618 16.8996 5.50393 0.22
517 9 8.47737 18.7468 6.59733 0.52
518 20 9.06949 19.2187 7.56171 -0.5
525 11 8.98055 16.0707 5.65378 0.06
192 11 9.47298 0.359865 8.71162 0.06
739 26 15.1723 14.8831 5.18215 -0.39
524 11 10.5985 16.7429 6.07986 0.06
537 11 11.3765 18.9024 7.00928 0.06
535 11 12.6281 17.9207 7.72994 0.06
536 11 11.2649 18.5617 8.65055 0.06
533 1 12.0052 18.7981 7.88975 0.22
531 19 12.6087 20.0286 8.31673 -0.35
46 11 14.1254 15.2038 8.47881 0.06
529 9 14.004 20.0168 8.19972 0.52
530 20 14.6371 19.9867 9.23939 -0.5
144 11 18.1316 15.0091 10.0284 0.06
300 11 0.122486 19.0551 8.28211 0.06
299 11 0.0687561 17.281 8.57199 0.06
538 11 16.184 18.2749 6.87987 0.06
539 11 14.835 17.7586 7.94064 0.06
532 19 14.5284 19.5517 6.9953 -0.35
534 1 15.1202 18.2713 7.05194 0.22
540 11 14.6665 17.524 6.37205 0.06
292 19 20.2895 17.7274 6.96468 -0.35
138 1 19.2371 15.1185 10.1775 0.22
298 11 20.0122 18.3129 8.96387 0.06
294 1 20.8341 18.1624 8.22011 0.22
142 11 19.5362 14.9501 11.1635 0.06
507 19 2.29861 4.15414 10.0628 -0.35
516 11 -0.714045 3.46151 8.20243 0.06
509 1 3.71682 4.2254 9.96282 0.22
512 11 3.93746 5.17624 10.3265 0.06
678 11 3.57543 19.6567 10.6292 0.06
676 2 3.13621 20.2466 11.4278 0.22
673 19 3.4593 -0.384354 12.5897 -0.35
321 11 2.73645 2.49098 13.3525 0.06
317 1 2.53131 3.57291 13.3019 0.22
316 19 4.98807 2.71049 14.5598 -0.35
319 11 1.9494 3.88886 14.1481 0.06
146 20 0.0338107 0.65119 15.974 -0.5
313 9 4.63258 3.9945 14.3748 0.52
315 19 3.72844 4.32321 13.3065 -0.35
320 11 1.92369 3.79199 12.4648 0.06
323 11 5.02002 2.13477 12.4667 0.06
318 1 5.62214 2.28861 13.3488 0.22
322 11 6.07417 1.33189 13.537 0.06
182 20 6.54885 2.69685 9.50666 -0.5
324 11 6.46789 2.8734 13.0689 0.06
191 11 8.37134 0.22416 9.96783 0.06
744 26 8.1081 2.68051 16.6767 -0.39
264 11 14.6375 2.90265 10.2512 0.06
263 11 13.8584 1.23805 10.0976 0.06
258 1 13.6807 2.35737 10.0609 0.22
262 11 13.1584 2.44585 10.9849 0.06
608 11 13.9579 3.72573 14.2328 0.06
603 19 15.0841 3.4332 12.9074 -0.35
604 19 16.4898 1.90105 14.1149 -0.35
170 20 12.6433 1.22003 13.8528 -0.5
331 11 17.4698 0.888534 9.67189 0.06
332 11 16.7596 2.26429 8.90405 0.06
601 9 15.8049 2.19549 12.9048 0.52
602 20 15.6186 1.26285 12.0793 -0.5
283 11 18.3604 3.38967 12.2017 0.06
153 11 17.5136 -0.306821 15.0242 0.06
149 1 18.5332 -0.559908 14.8155 0.22
152 11 18.5796 19.7838 14.8742 0.06
511 11 4.12487 3.94737 8.97127 0.06
641 9 1.2363 6.66587 14.2864 0.52
649 11 3.87867 7.71482 15.2372 0.06
643 19 1.3242 7.96183 13.6871 -0.35
647 11 2.1506 8.74458 13.5396 0.06
646 2 2.00303 8.86949 14.6116 0.22
438 1 5.26873 7.71273 12.0746 0.22
443 11 5.85376 8.48425 12.5022 0.06
442 11 4.57643 7.43102 12.8562 0.06
167 11 1.14228 6.5519 9.9788 0.06
402 1 9.26035 3.84816 12.8493 0.22
408 11 9.1656 2.79666 13.2238 0.06
314 20 5.30084 4.81205 14.9991 -0.5
400 19 9.78839 4.5127 14.0214 -0.35
444 11 4.78401 8.14319 11.2295 0.06
436 19 6.058 6.51838 11.902 -0.35
407 11 9.91551 3.85922 11.985 0.06
406 11 8.26518 4.19921 12.5982 0.06
205 9 8.77554 8.41208 15.18 0.52
208 19 8.44411 7.44801 14.1906 -0.35
398 20 11.2222 6.17204 14.4431 -0.5
397 9 11.0515 5.07663 13.8619 0.52
399 19 12.046 4.52027 12.9807 -0.35
404 11 12.6553 5.38012 11.1174 0.06
401 1 12.6478 5.56474 12.2095 0.22
405 11 12.198 6.53217 12.3293 0.06
403 11 13.6873 5.63636 12.5029 0.06
102 1 11.5133 11.4277 13.6301 0.22
108 11 10.7835 11.2001 12.8987 0.06
106 11 11.1442 11.4654 14.6673 0.06
160 19 -0.37832 7.97253 9.38598 -0.35
162 1 0.0914617 6.86904 10.2384 0.22
166 11 -0.630706 6.06939 10.37 0.06
285 11 17.3909 4.64479 12.8411 0.06
281 1 18.0455 4.40681 12.0345 0.22
284 11 18.9342 5.05881 12.1845 0.06
279 19 17.6307 4.63091 10.7242 -0.35
98 20 12.1614 8.60852 14.4577 -0.5
580 11 18.4337 8.4518 15.5468 0.06
642 20 0.132399 6.13774 14.4075 -0.5
168 11 0.127994 7.33187 11.2138 0.06
280 19 17.5022 6.96251 10.0599 -0.35
277 9 16.8536 5.86497 10.6646 0.52
278 20 15.7373 6.00475 11.187 -0.5
579 11 16.941 7.4482 15.1017 0.06
575 2 17.5232 7.9092 15.9366 0.22
89 1 2.67896 11.2609 11.3684 0.22
115 11 19.8041 12.258 14.4116 0.06
116 11 19.527 13.7027 13.3668 0.06
113 1 20.2462 13.1583 13.965 0.22
117 11 20.9665 12.7636 13.2484 0.06
111 19 -0.376886 13.9051 14.8697 -0.35
109 9 -0.649602 15.3041 14.9609 0.52
95 11 4.59172 15.3956 13.5565 0.06
96 11 3.22305 14.5267 14.0414 0.06
112 19 -0.443836 16.0591 13.7636 -0.35
87 19 2.65206 12.1038 12.5328 -0.35
92 11 2.83763 10.1978 11.6442 0.06
216 11 9.50708 6.84371 12.6441 0.06
86 20 4.5449 11.4457 13.6842 -0.5
91 11 3.39835 11.5785 10.6068 0.06
210 1 8.93695 7.72592 12.9164 0.22
215 11 9.60366 8.59231 12.7962 0.06
85 9 3.92246 12.3104 13.0625 0.52
88 19 4.55368 13.5028 12.8226 -0.35
637 11 9.9266 14.49 10.5874 0.06
214 11 8.08566 7.93027 12.3106 0.06
90 1 4.29689 14.4212 13.8648 0.22
763 26 7.59583 15.6427 15.0401 -0.39
94 11 4.88343 14.2358 14.7814 0.06
760 26 8.37642 13.6082 14.4179 -0.39
47 11 14.8446 15.6085 10.0875 0.06
638 11 11.4409 13.9868 10.8817 0.06
636 2 10.8936 14.9049 10.8677 0.22
62 20 9.6448 11.4671 10.842 -0.5
639 11 9.63528 15.5594 12.5124 0.06
635 2 10.6551 15.5128 12.249 0.22
640 11 11.2446 14.9978 13.0105 0.06
107 11 11.6909 12.4782 13.3392 0.06
634 19 11.3053 16.7666 12.2181 -0.35
100 19 12.737 10.6958 13.4355 -0.35
97 9 12.987 9.45454 14.1446 0.52
134 20 20.6559 12.3867 10.4003 -0.5
103 11 14.9506 8.99641 12.289 0.06
104 11 16.1228 8.8998 13.5312 0.06
38 20 15.5243 11.5413 10.1987 -0.5
139 11 18.3389 11.2482 10.6574 0.06
37 9 15.6358 12.7664 10.0608 0.52
101 1 15.1154 8.60547 13.2815 0.22
39 19 16.5215 13.4575 10.93 -0.35
43 11 17.1072 12.9927 12.9919 0.06
41 1 16.2852 13.1931 12.3325 0.22
44 11 15.75 14.0241 12.7393 0.06
99 19 14.3503 9.11614 14.3558 -0.35
45 11 15.6871 12.3447 12.6123 0.06
110 20 20.2459 15.7857 15.987 -0.5
710 11 18.1328 17.2505 17.5578 0.06
680 11 1.60132 18.7614 11.5566 0.06
118 11 1.50842 16.3574 14.4721 0.06
671 9 2.26517 -0.499775 13.3691 0.52
672 20 2.07944 0.275441 14.3752 -0.5
675 2 1.6684 19.8303 11.53 0.22
679 11 1.26666 19.9938 10.5666 0.06
674 19 1.19409 20.1797 12.8342 -0.35
120 11 0.462829 17.8252 14.2402 0.06
119 11 1.24714 16.8684 12.9002 0.06
114 1 0.757108 16.8294 13.9106 0.22
613 19 5.14973 19.959 14.9409 -0.35
616 2 4.83905 18.6267 14.8353 0.22
618 11 5.34421 19.2031 14.0463 0.06
652 20 6.4566 19.0781 10.173 -0.5
651 9 7.36633 19.2922 10.9733 0.52
654 19 8.54066 18.606 11.1227 -0.35
653 19 7.1572 20.2376 11.9734 -0.35
657 11 8.67936 -0.146557 12.451 0.06
658 11 8.19449 20.4601 13.9027 0.06
655 2 9.01481 18.9464 12.453 0.22
656 2 8.25647 20.286 12.8325 0.22
660 11 9.38159 18.4305 13.3083 0.06
659 11 9.84597 19.1795 11.7719 0.06
611 9 6.05448 19.9978 15.9851 0.52
614 19 6.41452 18.7824 16.5073 -0.35
615 2 5.58232 17.7746 15.8869 0.22
620 11 5.53013 16.7004 15.5482 0.06
179 11 12.8481 20.0114 10.9559 0.06
180 11 13.9233 -0.235554 11.84 0.06
48 11 15.7631 14.8087 8.81273 0.06
631 9 12.1393 16.7721 11.1135 0.52
632 20 12.9841 17.6369 10.7636 -0.5
633 19 11.6592 15.8526 10.1276 -0.35
178 11 13.5248 19.547 12.5159 0.06
174 1 13.1351 20.4198 11.9387 0.22
172 19 11.8522 -0.418484 12.4162 -0.35
169 9 12.0842 0.116759 13.7149 0.52
173 1 13.3375 20.2621 15.4983 0.22
171 19 12.0765 20.5505 14.8297 -0.35
176 11 13.6569 -0.308157 16.1391 0.06
568 11 15.2333 18.4029 11.293 0.06
570 11 16.3127 20.0082 12.4871 0.06
569 11 15.996 20.6045 11.0637 0.06
143 11 19.4072 16.141 10.1344 0.06
567 11 16.2989 18.5196 9.94592 0.06
565 2 16.6812 19.8747 11.4787 0.22
562 20 19.6804 18.1569 11.4666 -0.5
564 19 18.0829 19.8737 11.6822 -0.35
561 9 18.4838 18.5328 11.3433 0.52
563 19 17.4033 17.7121 10.764 -0.35
566 2 16.2575 18.4869 11.0157 0.22
704 19 17.4191 17.9945 15.4444 -0.35
151 11 18.867 -0.260441 13.8578 0.06
155 11 -0.0485602 3.15274 15.4868 0.06
244 19 3.22181 3.58824 17.4624 -0.35
242 20 2.41426 1.64623 17.0269 -0.5
241 9 2.96097 2.32708 17.9038 0.52
245 1 2.76328 1.25633 19.8765 0.22
243 19 3.78482 1.76346 18.9185 -0.35
246 1 2.91664 4.54557 18.4922 0.22
251 11 2.1875 5.29761 18.1674 0.06
252 11 2.45869 4.18106 19.4103 0.06
250 11 3.78977 5.10838 18.8278 0.06
247 11 2.92834 0.238534 20.1509 0.06
14 20 19.0799 0.80212 -0.043358 -0.5
154 11 19.7074 4.0196 15.6169 0.06
428 11 7.79883 19.6567 0.107127 0.06
733 31 5.71017 0.674596 18.0655 1
749 26 6.27109 3.84962 17.3262 -0.39
743 27 7.63074 3.31664 18.0115 1.34
747 26 6.78209 2.004 18.2747 -0.39
745 26 7.14257 3.97024 19.3816 -0.39
746 26 8.3096 4.69188 17.7751 -0.39
748 26 8.89629 2.78058 18.7527 -0.39
49 9 11.1809 1.44807 -0.19616 0.52
51 19 11.8632 1.57964 19.9422 -0.35
56 11 11.0693 1.74172 18.1336 0.06
607 11 15.1975 4.77541 14.8028 0.06
606 2 15.0669 3.79401 14.2832 0.22
605 2 15.751 2.5782 15.0865 0.22
610 11 15.0525 2.0702 15.7512 0.06
57 11 12.2017 0.295914 18.2706 0.06
53 1 11.4941 0.958039 18.7574 0.22
560 11 12.7324 3.29173 17.5055 0.06
559 11 14.0271 3.26639 18.6106 0.06
609 11 16.5783 2.96551 15.7585 0.06
55 11 10.6452 0.317496 19.0245 0.06
722 20 16.0878 -0.0368689 17.4644 -0.5
15 19 -0.165748 -0.0848054 -0.368004 -0.35
147 19 19.3035 -0.263943 15.9394 -0.35
145 9 20.199 0.815238 15.655 0.52
22 11 18.9034 19.9514 18.1233 0.06
16 19 19.2174 20.2807 20.0734 -0.35
13 9 19.7652 -0.128845 -0.452708 0.52
18 1 19.3188 -0.621232 18.744 0.22
23 11 18.6281 0.260919 18.6889 0.06
148 19 19.5348 2.07358 15.4347 -0.35
156 11 20.32 3.3542 14.0162 0.06
150 1 20.2931 3.20984 15.1085 0.22
24 11 20.305 -0.383582 18.3934 0.06
644 19 2.15257 6.58719 15.3873 -0.35
645 2 2.82543 7.84527 15.4574 0.22
648 11 2.17591 9.85104 14.9729 0.06
650 11 2.634 8.09208 16.4842 0.06
356 11 0.271892 12.6975 17.2632 0.06
353 1 0.592606 11.7908 16.8397 0.22
201 11 3.74298 10.2606 19.2102 0.06
207 19 7.57401 9.03032 15.7269 -0.35
734 31 5.90406 5.30461 16.4794 1
197 1 4.26877 9.29283 19.3139 0.22
200 11 4.86286 9.31872 20.2703 0.06
195 19 4.90301 8.82306 18.0851 -0.35
206 20 9.8954 8.35214 15.7977 -0.5
193 9 5.21969 7.43084 18.0759 0.52
194 20 5.09169 6.72069 17.0403 -0.5
196 19 5.93005 6.86615 19.1748 -0.35
202 11 7.57129 8.21877 18.4351 0.06
203 11 7.01395 8.34704 20.1281 0.06
198 1 7.11488 7.68736 19.2629 0.22
204 11 7.84704 7.05745 19.7613 0.06
199 11 3.49931 8.56274 19.5206 0.06
557 11 12.747 4.48782 20.2226 0.06
555 2 13.3522 3.94744 18.127 0.22
732 31 11.2903 7.46336 15.5886 1
556 2 12.3693 4.55798 19.1831 0.22
554 19 13.5559 4.95989 17.1104 -0.35
551 9 12.8285 6.08104 17.5717 0.52
553 19 12.1088 5.9133 18.8177 -0.35
552 20 12.3687 6.84751 16.7126 -0.5
464 11 12.7692 9.39546 19.2057 0.06
599 11 20.139 6.20746 19.3356 0.06
595 2 20.1365 7.01468 20.028 0.22
594 19 -0.762944 6.57031 0.00148741 -0.35
596 2 18.7525 7.60159 20.2156 0.22
574 19 17.3618 6.49614 16.1342 -0.35
600 11 -0.515954 7.7379 19.6092 0.06
577 11 16.2802 9.6332 16.6463 0.06
571 9 16.359 6.42291 17.1875 0.52
572 20 16.1806 5.42049 17.8782 -0.5
573 19 15.7547 7.61438 17.4568 -0.35
576 2 16.6342 8.59827 16.9275 0.22
578 11 17.1727 8.75886 17.9069 0.06
598 11 18.8441 8.72984 20.2695 0.06
350 20 19.2282 10.0999 17.2499 -0.5
351 19 -0.032343 10.8451 17.6914 -0.35
355 11 1.68111 11.7804 17.0568 0.06
382 11 1.81316 15.3215 18.4471 0.06
383 11 3.27447 15.4217 19.4363 0.06
378 1 2.84192 15.054 18.5182 0.22
384 11 3.45638 15.6037 17.8043 0.06
376 19 2.9799 13.7086 18.2003 -0.35
373 9 4.10627 13.1588 18.8572 0.52
374 20 4.02766 12.5939 20.0079 -0.5
358 11 19.1246 13.3854 16.825 0.06
379 11 5.88018 15.1467 19.5924 0.06
213 11 8.19735 10.7698 14.5927 0.06
211 11 6.53692 10.1276 14.2826 0.06
375 19 5.39582 13.452 18.4242 -0.35
131 11 7.07935 10.3795 0.475923 0.06
209 1 7.33866 10.2723 15.0718 0.22
212 11 6.78903 10.9138 15.7482 0.06
757 27 8.52082 14.5497 15.682 1.34
124 19 8.9843 10.096 -0.156522 -0.35
126 1 7.80641 10.9501 -0.0953614 0.22
132 11 7.88955 11.9518 0.368887 0.06
758 26 7.35379 13.8046 16.3928 -0.39
762 26 9.5653 13.558 16.3981 -0.39
759 26 9.65947 15.2645 15.0018 -0.39
129 11 10.0127 10.6541 16.8743 0.06
236 11 8.50105 17.0184 18.7191 0.06
584 19 13.5824 13.7881 14.8431 -0.35
123 19 9.91029 10.0694 18.9474 -0.35
463 11 13.8707 10.252 18.0119 0.06
121 9 9.91965 10.613 20.2871 0.52
461 1 13.3017 10.3539 18.9542 0.22
465 11 12.5492 11.0846 18.7063 0.06
587 11 11.7039 14.5794 17.245 0.06
122 20 10.7287 11.4183 20.7051 -0.5
128 11 10.6001 11.826 18.0433 0.06
125 1 9.84744 11.0282 17.8752 0.22
237 11 9.21201 15.6555 19.6327 0.06
127 11 8.90966 11.5732 17.8359 0.06
586 2 12.5442 14.0409 16.9098 0.22
583 19 13.2244 12.8208 16.9963 -0.35
581 9 13.8925 12.7377 15.7674 0.52
582 20 14.9261 12.0995 15.584 -0.5
468 11 15.1881 14.2679 0.795516 0.06
105 11 15.215 7.49741 13.2529 0.06
349 9 19.9238 10.9611 17.6932 0.52
352 19 19.3444 11.9054 18.4448 -0.35
459 19 14.1921 10.7668 20.0521 -0.35
457 9 14.6791 12.0728 19.8713 0.52
359 11 17.779 12.5182 17.3551 0.06
708 11 16.5322 15.7258 17.5365 0.06
458 20 15.5245 12.2962 18.9981 -0.5
360 11 18.2865 13.5247 18.4611 0.06
354 1 18.7364 12.9185 17.706 0.22
420 11 -0.426012 17.1756 19.9196 0.06
617 11 4.05582 18.131 14.3202 0.06
248 11 2.77164 1.71548 -0.514755 0.06
426 1 4.14017 18.7481 -0.264281 0.22
432 11 3.27966 19.4087 -0.101886 0.06
430 11 3.85266 17.9513 20.4449 0.06
731 31 1.70487 0.158969 16.0426 1
753 26 0.408555 19.1143 17.07 -0.39
756 26 2.37961 18.0114 16.3897 -0.39
750 27 1.95921 18.9895 17.5188 1.34
752 26 1.46426 17.9014 18.4944 -0.39
751 26 2.43835 20.1121 16.49 -0.39
755 26 1.63277 20.0904 18.4915 -0.39
754 26 3.39167 18.8833 18.0549 -0.39
427 11 8.11466 -0.0937758 20.7296 0.06
425 1 8.05886 20.1932 20.6089 0.22
612 20 6.14582 -0.396788 16.7747 -0.5
619 11 4.95584 17.6453 16.7785 0.06
424 19 5.22225 19.6273 20.6969 -0.35
421 9 6.22578 19.0614 19.8964 0.52
423 19 7.18627 19.9537 19.5249 -0.35
761 26 8.61169 15.5054 16.9237 -0.39
238 11 9.65331 19.8103 15.8817 0.06
422 20 6.20173 17.9057 19.5043 -0.5
234 1 9.35151 18.9358 16.4654 0.22
239 11 8.73874 18.2476 15.8039 0.06
240 11 8.73306 19.3657 17.2965 0.06
235 11 9.206 17.2718 20.1741 0.06
233 1 9.36682 16.6564 19.2725 0.22
589 11 12.203 14.4582 14.8581 0.06
585 2 12.8701 14.7544 15.6398 0.22
590 11 13.0886 15.8578 15.7396 0.06
175 11 14.1429 20.049 14.7824 0.06
588 11 13.2541 14.1635 17.683 0.06
721 9 15.4622 -0.593073 18.3972 0.52
177 11 13.0202 19.3302 16.051 0.06
231 19 10.7077 16.9457 18.7414 -0.35
232 19 10.5459 18.2988 16.7826 -0.35
229 9 10.6855 18.2765 18.17 0.52
230 20 10.9584 19.2632 18.7443 -0.5
730 11 13.5234 18.3582 19.1389 0.06
725 2 14.3419 19.0706 19.263 0.22
724 19 15.1072 19.4385 18.1712 -0.35
414 1 20.0604 16.7925 19.4039 0.22
702 20 15.7104 18.0388 13.8472 -0.5
709 11 17.2182 18.5239 17.1255 0.06
705 2 17.5067 17.5572 16.7951 0.22
418 11 20.258 15.7095 19.1327 0.06
707 11 15.5198 17.1001 17.6748 0.06
706 2 16.2294 16.6064 16.9751 0.22
703 19 15.4708 16.783 15.8458 -0.35
729 11 14.9254 18.4725 19.991 0.06
701 9 16.2496 17.5326 14.871 0.52
ITEM: TIMESTEP
800
ITEM: NUMBER OF ATOMS
770
ITEM: BOX BOUNDS pp pp pp
-6.9360870770480609e-01 2.0693608707704879e+01
-6.9360870770480609e-01 2.0693608707704879e+01
-6.9360870770480609e-01 2.0693608707704879e+01
ITEM: ATOMS id type x y z c_charge
74 20 2.01573 -0.135344 2.9214 -0.5
73 9 1.1261 0.611808 3.3912 0.52
75 19 0.393539 1.28785 2.3692 -0.35
77 1 -0.494481 2.34874 2.73458 0.22
81 11 20.1574 2.00061 3.47103 0.06
684 19 1.77625 3.52153 4.86024 -0.35
76 19 0.425296 0.264339 4.60295 -0.35
309 11 2.04603 2.73821 1.16136 0.06
249 11 2.12979 1.14421 19.7237 0.06
308 11 2.83896 3.82259 2.26887 0.06
305 1 2.98553 3.23026 1.37939 0.22
79 11 -0.0902107 3.25572 3.10968 0.06
489 11 1.87131 18.3689 3.57049 0.06
488 11 2.81294 18.784 2.25009 0.06
19 11 1.3716 20.4543 0.110034 0.06
303 19 3.45327 3.95179 0.326389 -0.35
692 20 6.87739 1.52646 1.04893 -0.5
691 9 6.71221 1.07557 2.19649 0.52
694 19 7.6713 0.23257 2.7774 -0.35
693 19 5.4641 1.07666 2.8779 -0.35
54 1 9.75418 3.07453 0.752978 0.22
60 11 9.26848 2.23663 1.2564 0.06
696 2 5.46901 -0.116246 3.5526 0.22
453 11 8.25831 4.08297 3.99509 0.06
698 11 4.93014 -0.888344 3.0713 0.06
695 2 6.84817 -0.694858 3.4568 0.22
58 11 9.5527 3.90226 1.42256 0.06
59 11 9.20655 3.13995 -0.090886 0.06
449 1 9.21343 3.78844 4.38441 0.22
451 11 9.62831 3.09442 3.59094 0.06
699 11 7.40729 -0.223489 4.26189 0.06
697 11 4.91276 -0.150348 4.47595 0.06
307 11 3.79737 2.56221 1.66862 0.06
52 19 11.0962 2.81129 0.479968 -0.35
348 11 16.3499 2.19218 -0.232317 0.06
50 20 10.8273 0.549066 0.115315 -0.5
342 1 15.8647 1.69121 0.599156 0.22
347 11 14.929 1.35126 0.203217 0.06
338 20 13.8058 3.85785 1.62678 -0.5
337 9 14.9658 3.67486 1.21159 0.52
346 11 16.43 0.753007 0.882362 0.06
340 19 15.6715 2.57649 1.65704 -0.35
339 19 15.8242 4.79253 0.82277 -0.35
493 9 12.3917 0.207682 4.47497 0.52
497 1 14.0231 20.1216 3.59407 0.22
494 20 12.43 1.4402 4.49507 -0.5
499 11 13.7512 20.641 2.695 0.06
343 11 16.71 4.39115 20.3187 0.06
345 11 16.2919 5.98804 -0.828978 0.06
341 1 16.0158 4.98464 -0.553807 0.22
17 1 0.314898 20.3766 0.333318 0.22
20 11 0.161139 20.3085 1.42851 0.06
80 11 20.3048 2.7137 1.88765 0.06
690 11 1.13023 4.81812 4.33195 0.06
306 1 3.08617 7.35083 0.769861 0.22
311 11 3.74315 8.15724 1.04544 0.06
312 11 2.16543 7.69969 0.24192 0.06
592 20 20.116 7.62014 2.14645 -0.5
8 11 1.74095 9.25956 4.77962 0.06
9 11 2.10726 11.0093 4.36686 0.06
301 9 4.12293 5.1965 0.708932 0.52
304 19 3.81458 6.39968 0.00081635 -0.35
310 11 2.64189 6.8054 1.65041 0.06
452 11 9.09213 3.25941 5.21874 0.06
302 20 4.96333 5.24219 1.59211 -0.5
714 19 8.44928 7.18783 3.6465 -0.35
716 2 6.207 7.74301 3.35072 0.22
713 19 6.46444 7.73057 4.68734 -0.35
711 9 7.80205 7.49607 4.81785 0.52
719 11 7.27184 6.16302 2.20973 0.06
720 11 8.02595 7.74507 2.12924 0.06
715 2 7.44021 7.03796 2.71096 0.22
717 11 5.32892 7.14049 3.38491 0.06
712 20 8.38989 7.50196 5.89171 -0.5
446 20 11.4406 4.89782 2.92893 -0.5
363 19 14.227 8.03507 0.586907 -0.35
368 11 16.1802 8.18873 -0.197238 0.06
735 31 13.1314 5.22997 2.52569 1
361 9 13.5991 7.9937 1.83932 0.52
362 20 13.5571 6.84979 2.40156 -0.5
364 19 13.4767 9.20437 2.62651 -0.35
365 1 15.6163 8.32567 0.734949 0.22
369 11 15.7681 9.36919 0.971799 0.06
445 9 11.2627 4.8991 4.19236 0.52
558 11 11.0213 4.44632 18.6451 0.06
591 9 19.7089 7.31047 1.05562 0.52
344 11 15.0863 4.89013 20.3823 0.06
597 11 18.0139 7.397 20.0777 0.06
593 19 18.6418 7.99798 0.508878 -0.35
367 11 16.1799 7.64701 1.39812 0.06
480 11 16.0502 7.60687 5.66282 0.06
670 11 20.2738 10.665 1.4763 0.06
669 11 0.0518621 10.8877 2.78595 0.06
665 2 -0.125583 10.998 1.70654 0.22
664 19 1.05154 10.1517 1.70985 -0.35
661 9 1.97122 10.8487 0.885444 0.52
663 19 1.58367 12.2277 0.584047 -0.35
666 2 0.267536 12.3779 1.19937 0.22
668 11 -0.276556 12.4419 0.262266 0.06
667 11 -0.0895249 13.1956 1.85627 0.06
662 20 2.68813 10.1619 0.209653 -0.5
357 11 0.300588 11.3065 15.7963 0.06
380 11 6.59266 13.9668 20.2042 0.06
381 11 7.36723 14.3738 18.6124 0.06
377 1 6.43122 14.3876 19.2039 0.22
718 11 6.01359 8.70514 2.84943 0.06
36 11 7.06598 12.4942 2.62774 0.06
26 20 8.20814 10.0095 3.50956 -0.5
25 9 7.7821 10.9214 4.14808 0.52
227 11 11.3373 14.6247 -0.485902 0.06
222 1 11.5007 15.1788 0.447577 0.22
30 1 6.29505 12.4651 3.33474 0.22
34 11 5.33886 12.6043 2.89666 0.06
28 19 6.41466 11.2913 4.11242 -0.35
35 11 6.39201 13.2097 4.0872 0.06
130 11 7.19677 11.4647 -0.0941626 0.06
372 11 12.185 10.649 2.98364 0.06
370 11 13.2334 10.9976 1.6227 0.06
366 1 12.6211 10.2134 2.11106 0.22
371 11 11.7718 9.95553 1.54352 0.06
226 11 10.9596 14.8039 1.31917 0.06
737 26 14.8064 13.5316 3.42983 -0.39
228 11 12.5517 14.9878 0.698959 0.06
33 11 10.358 10.2722 4.65808 0.06
460 19 14.0522 13.1809 20.606 -0.35
467 11 14.5942 15.0156 -0.18501 0.06
31 11 10.4358 11.0862 6.26709 0.06
462 1 15.1244 14.0751 -0.299522 0.22
466 11 15.8164 14.2874 -1.10014 0.06
266 20 19.283 11.7562 3.74561 -0.5
272 11 17.5043 10.9702 0.870984 0.06
273 11 16.6614 12.3816 1.67183 0.06
271 11 18.4325 12.1867 1.75627 0.06
269 1 17.4778 11.6601 1.78653 0.22
267 19 17.2456 10.9467 2.99738 -0.35
265 9 18.1487 11.4212 4.00915 0.52
490 11 2.57722 14.266 -0.174344 0.06
419 11 20.3864 17.5242 18.7376 0.06
486 1 3.17547 14.5784 0.683073 0.22
491 11 4.03681 15.1431 0.277302 0.06
492 11 3.4327 13.6401 1.2183 0.06
484 19 2.50013 15.3512 1.60489 -0.35
481 9 2.08381 16.5881 1.05272 0.52
482 20 2.02182 16.7509 -0.121964 -0.5
483 19 1.31463 17.334 1.90967 -0.35
487 11 3.21588 17.3009 3.02673 0.06
485 1 2.35631 17.9083 2.72373 0.22
431 11 4.41495 18.3351 0.600894 0.06
295 11 -0.446846 17.5387 3.64039 0.06
296 11 -0.654429 15.7166 3.46236 0.06
768 26 5.80805 15.0836 2.26944 -0.39
770 26 5.92355 17.2066 2.25 -0.39
766 26 7.38526 16.0858 3.39801 -0.39
764 27 6.96559 16.0728 1.89774 1.34
765 26 6.43058 16.0354 0.424802 -0.39
769 26 7.97893 14.9011 1.6613 -0.39
429 11 9.43726 19.9797 -0.409563 0.06
767 26 8.1712 17.0658 1.52399 -0.39
700 11 6.91058 19.6045 3.50022 0.06
225 11 10.271 18.3105 2.73793 0.06
220 19 11.267 16.5467 0.26105 -0.35
523 11 10.1792 16.6451 4.64222 0.06
223 11 11.1673 19.7882 2.40432 0.06
500 11 15.1029 20.1904 3.68581 0.06
501 11 13.7656 19.0451 3.54935 0.06
736 27 14.7868 15.092 3.79916 1.34
741 26 13.3522 14.9994 4.44693 -0.39
740 26 14.1495 15.3971 2.41249 -0.39
738 26 14.8258 16.5817 4.13914 -0.39
728 11 12.966 20.2935 20.0393 0.06
217 9 12.2809 17.4184 0.676615 0.52
218 20 13.1234 17.7877 -0.143945 -0.5
224 11 10.411 18.9392 1.14948 0.06
221 1 11.0045 18.759 2.03057 0.22
219 19 12.1856 18.0392 1.92161 -0.35
727 11 14.4386 20.4029 -0.531711 0.06
723 19 14.2964 -0.0186973 18.9762 -0.35
726 2 14.0316 20.3369 19.8627 0.22
742 26 16.2075 15.2436 3.17749 -0.39
417 11 17.4493 17.3417 1.8426 0.06
409 9 19.1225 16.3569 0.111161 0.52
410 20 19.1991 15.0967 0.187428 -0.5
413 1 18.2285 18.0343 1.52466 0.22
415 11 18.3975 18.8014 2.27293 0.06
416 11 17.986 18.5892 0.606283 0.06
411 19 19.3642 17.2054 1.21634 -0.35
293 1 20.6977 16.5344 4.1788 0.22
297 11 19.7213 16.5857 4.53969 0.06
412 19 19.1586 16.9518 20.2616 -0.35
21 11 -0.0840429 19.4954 -0.0895865 0.06
689 11 0.0645495 4.9838 5.52333 0.06
78 1 1.25959 0.116776 5.72262 0.22
84 11 0.647122 -0.38507 6.46454 0.06
83 11 1.60815 1.06274 6.08109 0.06
82 11 2.01674 -0.622862 5.58401 0.06
510 1 -0.0842079 2.22009 8.1469 0.22
506 20 1.44331 1.93736 10.2804 -0.5
508 19 1.22088 2.58561 8.13938 -0.35
505 9 1.70264 2.82431 9.44939 0.52
188 11 5.03606 -0.470681 7.88229 0.06
681 9 3.05303 3.48956 5.44026 0.52
682 20 3.71961 2.47126 5.41394 -0.5
187 11 5.09487 1.26369 7.25104 0.06
513 11 3.94704 3.16492 10.2748 0.06
515 11 -0.18085 1.15894 8.49543 0.06
677 11 3.13696 -0.335078 10.8318 0.06
503 11 10.6826 1.00928 6.04097 0.06
498 1 10.3971 0.0717492 5.59903 0.22
185 1 4.75322 0.557018 8.06852 0.22
189 11 3.71975 0.699642 7.87059 0.06
183 19 5.10041 0.872663 9.41154 -0.35
181 9 6.4025 1.58199 9.33087 0.52
184 19 7.45933 0.99195 8.50799 -0.35
504 11 9.36296 0.221525 5.23532 0.06
259 11 10.5714 4.08688 7.44372 0.06
257 1 10.3245 4.46933 8.45801 0.22
260 11 9.2448 4.31884 8.77609 0.06
186 1 8.71003 0.671455 9.11543 0.22
502 11 10.4829 -0.726411 6.33171 0.06
496 19 11.118 -0.427391 4.45231 -0.35
495 19 13.5466 -0.539609 4.72291 -0.35
255 19 11.1746 3.94657 9.47244 -0.35
547 11 14.7599 3.02144 4.70388 0.06
546 2 15.2995 2.75056 5.67098 0.22
548 11 14.6265 1.98999 6.0058 0.06
190 11 9.16548 1.35364 9.79341 0.06
253 9 12.5194 3.93233 8.99656 0.52
256 19 13.1263 2.68551 8.80434 -0.35
334 11 19.182 19.8999 5.33877 0.06
330 1 18.1383 20.1637 5.22329 0.22
336 11 17.9677 -0.51351 4.44982 0.06
335 11 17.5717 19.2763 4.97593 0.06
328 19 17.5886 20.595 6.5125 -0.35
325 9 18.4419 -0.117071 7.38356 0.52
326 20 19.311 -0.730337 8.00572 -0.5
327 19 18.1547 1.22195 7.69225 -0.35
514 11 -0.448486 2.37813 7.10096 0.06
543 19 16.5768 2.40873 5.29945 -0.35
329 1 17.091 1.38253 8.57436 0.22
545 2 15.3944 3.92427 6.60861 0.22
550 11 15.4116 3.68357 7.67492 0.06
333 11 16.1812 0.928289 8.23104 0.06
685 2 1.12022 4.64749 5.40687 0.22
688 11 2.23089 6.44698 5.69697 0.06
686 2 2.16943 5.43645 6.10194 0.22
687 11 2.1571 5.46721 7.22963 0.06
683 19 3.41007 4.7462 5.9813 -0.35
157 9 -0.600227 7.77451 8.12324 0.52
158 20 0.139216 7.15849 7.36582 -0.5
3 19 1.97667 10.4086 6.44007 -0.35
165 11 -0.518985 10.072 7.62743 0.06
7 11 3.35158 9.86096 4.8483 0.06
5 1 2.3043 10.1544 5.05143 0.22
2 20 3.67692 10.2156 7.94164 -0.5
441 11 6.91137 6.20291 8.05534 0.06
437 1 5.9363 6.76743 8.21721 0.22
440 11 6.2323 7.83491 8.23359 0.06
439 11 5.2487 6.59773 7.38726 0.06
447 19 9.98821 4.9087 4.6718 -0.35
70 11 8.04502 9.61194 8.21156 0.06
66 1 8.84787 9.32873 8.84889 0.22
435 19 5.38423 6.37709 9.46318 -0.35
433 9 6.2674 6.2258 10.5315 0.52
71 11 9.10814 8.32644 8.56049 0.06
261 11 10.4217 5.51253 8.34701 0.06
72 11 8.38393 9.39652 9.86144 0.06
434 20 7.49809 6.30029 10.4595 -0.5
254 20 13.0962 5.01039 8.82479 -0.5
456 11 11.2634 7.02904 5.64204 0.06
454 11 12.7312 6.68133 6.64415 0.06
549 11 14.5321 4.56341 6.63407 0.06
448 19 12.3234 5.26304 5.12577 -0.35
455 11 13.0603 7.20074 5.17693 0.06
450 1 12.3078 6.56464 5.67864 0.22
61 9 10.4351 10.5306 9.95704 0.52
64 19 9.91636 10.1792 8.66134 -0.35
63 19 11.5613 9.83883 10.4024 -0.35
470 20 13.8969 8.86793 7.10102 -0.5
68 11 12.7521 10.68 8.95621 0.06
159 19 19.6604 8.47228 7.62846 -0.35
542 20 18.059 4.0008 4.42338 -0.5
541 9 17.2406 3.70159 5.29465 0.52
544 19 16.5415 4.67777 6.11635 -0.35
474 1 16.1383 8.70621 5.4025 0.22
479 11 17.1604 8.90045 5.10426 0.06
472 19 16.0253 9.50188 6.56786 -0.35
287 11 16.3994 6.59786 8.33448 0.06
478 11 15.4181 8.99769 4.62652 0.06
469 9 14.715 9.77968 6.98835 0.52
286 11 17.2668 8.2054 8.45875 0.06
288 11 15.7102 7.99736 9.18408 0.06
282 1 16.6559 7.47346 8.95024 0.22
163 11 20.7163 9.43818 6.07477 0.06
161 1 20.1712 9.66369 6.95025 0.22
1 9 3.06772 10.9344 7.11782 0.52
630 11 2.79525 14.1286 8.57753 0.06
11 11 5.79291 11.6413 6.96311 0.06
4 19 3.74723 12.0521 6.51447 -0.35
6 1 4.94964 12.3825 7.14402 0.22
10 11 4.76644 12.5984 8.20276 0.06
164 11 19.3931 10.3239 6.77391 0.06
93 11 1.96722 11.6042 10.6236 0.06
12 11 5.33038 13.3433 6.82786 0.06
387 19 7.10476 14.495 9.78292 -0.35
388 19 8.89082 14.9738 8.23442 -0.35
385 9 7.55479 14.9017 8.54585 0.52
389 1 6.77716 15.5306 10.7168 0.22
392 11 6.57794 15.2263 11.7514 0.06
386 20 6.79075 15.3066 7.65517 -0.5
390 1 9.33335 13.7743 7.66012 0.22
395 11 10.4023 13.8792 7.56024 0.06
32 11 9.45127 9.81602 6.11787 0.06
27 19 8.52789 11.3951 5.27025 -0.35
29 1 9.76922 10.6374 5.55801 0.22
475 11 14.5143 11.5316 5.18493 0.06
394 11 8.91526 13.7536 6.68452 0.06
69 11 12.8601 11.5259 10.5213 0.06
396 11 9.21834 12.8528 8.22109 0.06
65 1 12.7176 10.5741 10.0191 0.22
67 11 13.6168 9.98131 10.2526 0.06
42 1 14.7948 14.9067 9.378 0.22
274 11 17.6129 13.8979 4.71839 0.06
276 11 18.9655 13.4251 5.6297 0.06
471 19 14.2996 11.0953 7.19236 -0.35
268 19 17.6139 11.8222 5.19881 -0.35
473 1 13.7392 11.5388 5.91874 0.22
477 11 13.3901 12.607 5.99452 0.06
476 11 12.9661 10.782 5.49326 0.06
135 19 19.335 12.2484 8.91078 -0.35
133 9 20.1826 13.0389 9.68814 0.52
136 19 20.2339 14.3603 9.35694 -0.35
137 1 18.5966 11.2604 9.65014 0.22
141 11 19.2682 10.4239 9.84616 0.06
270 1 17.9087 13.1898 5.49288 0.22
275 11 17.3616 13.4466 6.42041 0.06
40 19 14.4302 13.486 9.47889 -0.35
140 11 17.7746 10.9159 8.98919 0.06
627 11 2.48352 15.7084 6.37116 0.06
629 11 1.3882 14.3031 7.51666 0.06
628 11 3.82925 15.5933 7.29808 0.06
291 19 0.295198 16.3708 5.16187 -0.35
626 2 2.79391 15.8753 7.40837 0.22
625 2 2.0137 14.811 8.22835 0.22
624 19 1.98922 15.257 9.57331 -0.35
622 20 3.26084 16.8994 10.7169 -0.5
621 9 2.81649 16.4383 9.60746 0.52
623 19 3.2706 16.865 8.37069 -0.35
289 9 0.343417 17.5157 5.98206 0.52
290 20 1.1945 18.3424 5.81582 -0.5
393 11 7.57732 16.1969 10.8148 0.06
391 11 5.88105 16.019 10.3959 0.06
528 11 5.28023 18.6721 6.91521 0.06
526 11 5.78905 17.2887 6.14911 0.06
520 19 7.11958 18.8796 6.3835 -0.35
527 11 6.25725 17.6114 7.92265 0.06
522 1 6.1478 18.0773 6.89138 0.22
519 19 9.19101 18.2422 5.63775 -0.35
521 1 9.58904 16.8822 5.55101 0.22
517 9 8.37684 18.4386 6.77937 0.52
518 20 8.82577 18.9349 7.82883 -0.5
525 11 8.68428 16.2745 5.44537 0.06
192 11 9.42185 0.390212 8.30031 0.06
739 26 15.3959 14.7477 5.21042 -0.39
524 11 10.0351 16.6432 6.54813 0.06
537 11 12.0953 18.7473 6.90312 0.06
535 11 12.7639 18.1535 8.37543 0.06
536 11 11.1192 18.851 8.41775 0.06
533 1 12.1423 18.9692 7.99003 0.22
531 19 12.7903 20.2146 8.09145 -0.35
46 11 14.1242 15.3659 8.64205 0.06
529 9 14.2174 20.0073 8.1373 0.52
530 20 14.8375 20.2905 9.10984 -0.5
144 11 18.2994 14.9613 9.3091 0.06
300 11 0.136648 18.6886 8.4493 0.06
299 11 -0.017337 16.973 8.83527 0.06
538 11 16.3325 18.297 6.5168 0.06
539 11 15.3621 17.7613 8.10489 0.06
532 19 14.8068 19.532 6.96989 -0.35
534 1 15.3875 18.2354 7.08803 0.22
540 11 14.8077 17.537 6.52141 0.06
292 19 20.6497 17.6878 6.8917 -0.35
138 1 19.11 15.0266 9.97345 0.22
298 11 19.9872 18.0666 8.78482 0.06
294 1 -0.484586 17.7924 8.31314 0.22
142 11 18.8671 14.8859 11.0533 0.06
507 19 1.95553 4.14518 9.92984 -0.35
516 11 20.6765 2.82708 8.84043 0.06
509 1 3.38817 4.121 10.066 0.22
512 11 3.54116 4.88066 10.8693 0.06
678 11 3.73251 19.5219 11.1442 0.06
676 2 3.19493 20.3467 11.656 0.22
673 19 3.38687 -0.229696 12.8015 -0.35
321 11 2.44902 2.84373 12.3583 0.06
317 1 2.46139 3.39607 13.2874 0.22
316 19 5.29024 2.80932 14.366 -0.35
319 11 2.46214 2.66854 14.1625 0.06
146 20 -0.161347 0.69656 16.1752 -0.5
313 9 4.64647 4.06785 14.2097 0.52
315 19 3.60852 4.30802 13.24 -0.35
320 11 1.50283 4.0124 13.361 0.06
323 11 4.79171 1.94921 12.617 0.06
318 1 5.70453 2.23106 13.1856 0.22
322 11 6.33794 1.32185 13.187 0.06
182 20 6.47385 2.78296 9.50984 -0.5
324 11 6.25179 2.94334 12.5171 0.06
191 11 8.67611 -0.250033 9.70043 0.06
744 26 8.00201 3.00062 16.4876 -0.39
264 11 13.9529 2.77215 10.6293 0.06
263 11 14.2027 1.32996 9.7699 0.06
258 1 13.4922 2.07871 9.94601 0.22
262 11 12.7061 1.55212 10.5388 0.06
608 11 13.7913 3.3875 14.615 0.06
603 19 14.9929 3.3004 13.0144 -0.35
604 19 16.5891 1.93338 14.0501 -0.35
170 20 12.7074 1.19669 13.9788 -0.5
331 11 17.2163 0.922079 9.52949 0.06
332 11 16.9282 2.44094 8.82434 0.06
601 9 15.8633 2.1981 12.8412 0.52
602 20 15.6632 1.30852 12.028 -0.5
283 11 18.4288 3.71869 12.507 0.06
153 11 17.6992 20.1182 14.555 0.06
149 1 18.7011 20.5832 14.6026 0.22
152 11 19.4527 19.895 14.1022 0.06
511 11 3.72212 4.41843 9.11279 0.06
641 9 0.894907 6.95443 14.5908 0.52
649 11 3.74888 8.23354 15.5832 0.06
643 19 1.12236 8.07593 13.747 -0.35
647 11 2.81729 9.01387 13.6837 0.06
646 2 2.06853 8.87417 14.4747 0.22
438 1 5.26674 7.75041 11.9058 0.22
443 11 6.03932 8.33266 12.4775 0.06
442 11 4.28865 7.88039 12.3883 0.06
167 11 1.18374 6.40454 9.38439 0.06
402 1 9.31208 3.53519 12.8843 0.22
408 11 8.6677 2.789 13.2949 0.06
314 20 4.94116 4.90852 15.054 -0.5
400 19 9.58755 4.66162 13.7135 -0.35
444 11 5.26755 8.36945 10.9583 0.06
436 19 5.68807 6.43048 11.8022 -0.35
407 11 10.194 2.97225 12.521 0.06
406 11 8.88843 3.93676 11.9299 0.06
205 9 8.81418 8.37891 15.4725 0.52
208 19 8.39141 7.67989 14.351 -0.35
398 20 11.2322 6.11148 14.5453 -0.5
397 9 10.9504 5.08146 13.9085 0.52
399 19 11.9533 4.48199 13.0659 -0.35
404 11 13.5049 5.1848 11.7835 0.06
401 1 12.5977 5.51411 12.3233 0.22
405 11 11.8991 6.00726 11.6305 0.06
403 11 13.0182 6.27721 13.0153 0.06
102 1 11.7951 11.3601 13.7491 0.22
108 11 10.834 10.8784 13.4248 0.06
106 11 11.9347 11.456 14.8306 0.06
160 19 -0.202154 7.8804 9.43305 -0.35
162 1 0.329494 6.71675 9.96366 0.22
166 11 -0.384048 5.88062 10.095 0.06
285 11 17.9218 5.35473 12.8736 0.06
281 1 18.4531 4.74336 12.1126 0.22
284 11 19.4744 5.07239 12.1166 0.06
279 19 17.7914 4.82084 10.8263 -0.35
98 20 12.0107 8.8715 14.202 -0.5
580 11 18.6949 8.21165 16.1382 0.06
642 20 0.144458 6.01256 14.253 -0.5
168 11 0.825043 6.86484 10.9574 0.06
280 19 17.251 7.03833 10.2105 -0.35
277 9 16.8041 5.82718 10.7556 0.52
278 20 15.7928 5.7846 11.5056 -0.5
579 11 17.5447 7.81609 14.8697 0.06
575 2 17.722 7.86047 15.9217 0.22
89 1 2.36835 11.0514 11.4721 0.22
115 11 19.6645 12.5657 14.2557 0.06
116 11 20.1803 13.8366 13.0636 0.06
113 1 20.4913 13.2237 13.9493 0.22
117 11 -0.146399 12.493 13.5627 0.06
111 19 -0.414423 13.9981 15.0634 -0.35
109 9 20.5618 15.3172 15.1727 0.52
95 11 4.88115 15.2883 13.2047 0.06
96 11 3.62484 14.6628 14.216 0.06
112 19 -0.670333 16.0671 14.0122 -0.35
87 19 2.39472 11.8895 12.578 -0.35
92 11 1.73322 10.1933 11.6331 0.06
216 11 9.50568 7.23265 12.6505 0.06
86 20 4.18763 11.4917 13.8907 -0.5
91 11 3.3021 10.6642 11.0729 0.06
210 1 8.99507 8.07976 13.0911 0.22
215 11 9.79392 8.81358 13.1701 0.06
85 9 3.6542 12.1926 13.0843 0.52
88 19 4.27105 13.3488 12.674 -0.35
637 11 10.1567 14.0448 10.3521 0.06
214 11 8.29349 8.59278 12.4223 0.06
90 1 4.50846 14.335 13.6497 0.22
763 26 7.37676 15.4915 14.8186 -0.39
94 11 5.31174 14.0173 14.292 0.06
760 26 8.42077 13.5743 14.2743 -0.39
47 11 14.5464 15.3794 10.3379 0.06
638 11 11.8248 14.0544 10.7655 0.06
636 2 10.924 14.6933 10.7605 0.22
62 20 9.78426 11.2103 10.704 -0.5
639 11 9.55196 15.1816 12.4044 0.06
635 2 10.6424 15.1968 12.155 0.22
640 11 11.2867 14.7683 12.9241 0.06
107 11 11.5913 12.3556 13.3697 0.06
634 19 11.3454 16.4777 12.1416 -0.35
100 19 12.9404 10.6977 13.2663 -0.35
97 9 13.0057 9.51633 13.9583 0.52
134 20 -0.617569 12.5717 10.7277 -0.5
103 11 14.2477 8.19752 12.4204 0.06
104 11 15.7025 9.19239 12.7827 0.06
38 20 15.4525 11.5854 10.1474 -0.5
139 11 18.0258 11.5589 10.5209 0.06
37 9 15.3638 12.8029 10.3305 0.52
101 1 14.9542 8.49141 13.2041 0.22
39 19 16.4393 13.4191 11.0718 -0.35
43 11 17.4266 12.8519 12.8758 0.06
41 1 16.4729 13.2013 12.4407 0.22
44 11 16.1762 14.1549 12.9284 0.06
99 19 14.2143 8.97575 14.293 -0.35
45 11 15.8175 12.4193 12.8528 0.06
110 20 20.4325 15.8163 16.2884 -0.5
710 11 17.9983 16.7222 16.2814 0.06
680 11 1.87829 18.7685 11.0912 0.06
118 11 1.26963 16.5189 14.6969 0.06
671 9 2.08511 -0.334718 13.4946 0.52
672 20 1.75958 0.349402 14.3912 -0.5
675 2 1.79294 19.6623 11.7463 0.22
679 11 1.08163 20.2772 11.1047 0.06
674 19 1.20133 20.0227 12.9601 -0.35
120 11 -0.0176984 17.9011 14.5266 0.06
119 11 0.865314 17.1768 13.1509 0.06
114 1 0.423288 16.9882 14.0978 0.22
613 19 5.30579 20.0208 14.7808 -0.35
616 2 4.83829 18.7063 14.5503 0.22
618 11 4.73965 18.2362 13.5536 0.06
652 20 6.47792 18.6782 10.3883 -0.5
651 9 7.28557 19.0279 11.277 0.52
654 19 8.58673 18.5895 11.4569 -0.35
653 19 7.00223 20.1062 12.133 -0.35
657 11 8.52615 -0.0390174 12.916 0.06
658 11 7.8308 20.2901 14.0963 0.06
655 2 9.07513 19.3415 12.599 0.22
656 2 8.04601 20.3755 13.0193 0.22
660 11 9.28566 18.566 13.3821 0.06
659 11 9.90108 19.7537 12.0442 0.06
611 9 5.92255 19.9712 16.052 0.52
614 19 6.11542 18.681 16.5018 -0.35
615 2 5.41622 17.8155 15.6226 0.22
620 11 5.35051 16.8325 15.2254 0.06
179 11 12.4736 19.9121 10.7637 0.06
180 11 13.8391 -0.518514 11.4516 0.06
48 11 15.8083 15.2012 9.10264 0.06
631 9 11.8702 16.7085 10.8699 0.52
632 20 12.7237 17.5512 10.6074 -0.5
633 19 11.8316 15.5329 10.0309 -0.35
178 11 13.3316 19.3424 12.1753 0.06
174 1 12.9733 20.2003 11.6631 0.22
172 19 12.1714 -0.433123 12.4392 -0.35
169 9 12.59 -0.00722871 13.6961 0.52
173 1 13.1322 20.3928 15.7497 0.22
171 19 12.1239 20.6117 14.7529 -0.35
176 11 13.2093 -0.0530432 16.323 0.06
568 11 15.1981 18.3552 11.2277 0.06
570 11 15.78 20.3038 12.3157 0.06
569 11 16.4213 -0.693338 10.8553 0.06
143 11 19.327 16.1282 9.98508 0.06
567 11 16.4845 18.5755 9.96397 0.06
565 2 16.5894 19.99 11.6381 0.22
562 20 19.6553 18.3701 11.723 -0.5
564 19 18.0106 19.9877 11.8189 -0.35
561 9 18.5104 18.7113 11.455 0.52
563 19 17.569 17.8675 10.8068 -0.35
566 2 16.2957 18.5128 11.0423 0.22
704 19 17.1547 17.9778 15.2528 -0.35
151 11 18.5442 0.0599447 13.9083 0.06
155 11 0.0225908 3.21465 15.9242 0.06
244 19 3.27103 3.77224 17.5152 -0.35
242 20 2.37847 1.80847 17.1136 -0.5
241 9 3.04145 2.40755 17.9624 0.52
245 1 3.18468 1.20341 19.9856 0.22
243 19 3.94239 1.72859 18.9548 -0.35
246 1 3.02226 4.63435 18.5453 0.22
251 11 2.99907 5.67228 18.2416 0.06
252 11 2.06271 4.48566 19.0726 0.06
250 11 3.86734 4.51214 19.2607 0.06
247 11 3.64302 0.220633 20.3082 0.06
14 20 19.0962 1.11278 -0.119126 -0.5
154 11 20.2606 4.07173 15.0506 0.06
428 11 7.89632 19.8464 0.526546 0.06
733 31 6.06983 0.502367 18.3546 1
749 26 6.24625 4.02558 17.3996 -0.39
743 27 7.60264 3.35888 17.9429 1.34
747 26 6.99618 1.92673 18.1837 -0.39
745 26 7.07687 3.69461 19.4067 -0.39
746 26 8.27204 4.78723 17.8028 -0.39
748 26 8.90695 2.8155 18.6297 -0.39
49 9 11.2502 1.57556 -0.309511 0.52
51 19 11.9144 1.56999 19.8425 -0.35
56 11 11.074 1.54386 17.7532 0.06
607 11 15.0884 4.4826 14.7217 0.06
606 2 14.8353 3.48901 14.4049 0.22
605 2 15.7232 2.39811 15.071 0.22
610 11 15.1316 1.4623 15.0364 0.06
57 11 11.7627 0.183468 18.3846 0.06
53 1 11.0963 0.969174 18.7271 0.22
560 11 12.8586 3.10579 17.7143 0.06
559 11 13.9542 4.01372 18.7185 0.06
609 11 15.8433 2.59268 16.0973 0.06
55 11 10.1331 0.450294 18.9075 0.06
722 20 16.1375 0.114976 17.4689 -0.5
15 19 -0.230596 0.211453 -0.268293 -0.35
147 19 19.087 -0.184088 15.858 -0.35
145 9 20.0352 0.881018 15.843 0.52
22 11 18.9568 19.7185 18.3427 0.06
16 19 19.1927 20.3798 20.3359 -0.35
13 9 19.7568 0.125676 -0.412084 0.52
18 1 19.4728 20.4667 18.9233 0.22
23 11 19.2965 0.0336059 18.5025 0.06
148 19 19.5241 2.17968 15.7792 -0.35
156 11 -0.332823 2.6568 14.3929 0.06
150 1 20.5423 3.05982 15.2544 0.22
24 11 20.5462 20.213 18.8604 0.06
644 19 2.01452 6.76167 15.5051 -0.35
645 2 2.67801 7.99012 15.6153 0.22
648 11 1.55307 9.73952 14.9483 0.06
650 11 2.30401 8.13941 16.6591 0.06
356 11 0.905044 12.6827 16.9966 0.06
353 1 0.769785 11.5595 16.7722 0.22
201 11 3.63456 10.0946 19.2661 0.06
207 19 7.93462 9.36057 15.9842 -0.35
734 31 5.24486 5.13011 16.4944 1
197 1 3.86588 9.05974 19.3049 0.22
200 11 4.44336 8.94554 20.1249 0.06
195 19 4.70448 8.77331 18.2068 -0.35
206 20 9.95752 8.24164 15.8349 -0.5
193 9 5.2541 7.44214 18.1814 0.52
194 20 4.90102 6.62631 17.3355 -0.5
196 19 6.16976 6.95217 19.2274 -0.35
202 11 7.83968 7.42952 18.4041 0.06
203 11 7.30192 8.71108 19.5608 0.06
198 1 7.37494 7.64805 19.3851 0.22
204 11 7.97103 7.25543 20.2282 0.06
199 11 2.98727 8.44403 19.4208 0.06
557 11 12.1628 4.3664 19.9777 0.06
555 2 13.0961 4.10896 18.0348 0.22
732 31 11.5277 7.68584 15.3475 1
556 2 12.0087 4.71096 18.9575 0.22
554 19 13.414 4.99532 16.9681 -0.35
551 9 12.7994 6.1576 17.3989 0.52
553 19 12.2118 6.13612 18.7106 -0.35
552 20 12.5306 7.04894 16.5574 -0.5
464 11 13.1701 9.20586 19.3017 0.06
599 11 19.7853 6.27545 19.8893 0.06
595 2 20.0068 7.34516 20.1389 0.22
594 19 20.5581 6.72749 0.0243923 -0.35
596 2 18.7501 8.0733 20.4469 0.22
574 19 17.2987 6.48422 16.1162 -0.35
600 11 -0.911786 7.78073 19.2477 0.06
577 11 16.4444 9.58617 16.2783 0.06
571 9 16.4159 6.52617 17.2545 0.52
572 20 16.3671 5.60483 18.0355 -0.5
573 19 16.1251 7.78268 17.6671 -0.35
576 2 16.7827 8.72756 16.7797 0.22
578 11 17.223 9.08634 17.6786 0.06
598 11 18.804 8.78633 19.6916 0.06
350 20 19.3609 10.2436 17.1308 -0.5
351 19 0.0406523 10.844 17.7646 -0.35
355 11 1.76139 11.1319 16.6741 0.06
382 11 2.02528 15.7454 18.377 0.06
383 11 3.70537 15.9981 18.8613 0.06
378 1 3.05928 15.4361 18.1709 0.22
384 11 3.37795 15.7837 17.2048 0.06
376 19 3.04532 13.9682 18.421 -0.35
373 9 4.27114 13.5502 19.0871 0.52
374 20 4.29532 12.8035 20.0184 -0.5
358 11 19.1774 13.8737 17.7396 0.06
379 11 6.10538 15.4012 19.3142 0.06
213 11 7.63237 10.0822 14.0002 0.06
211 11 6.18643 10.0605 14.9495 0.06
375 19 5.48413 13.6619 18.3985 -0.35
131 11 7.49087 10.2703 1.29173 0.06
209 1 7.23709 10.1896 15.016 0.22
212 11 7.30025 11.2642 15.2662 0.06
757 27 8.42281 14.601 15.5037 1.34
124 19 8.7391 10.0429 -0.271601 -0.35
126 1 7.85377 10.8773 0.478353 0.22
132 11 8.5107 11.5382 1.00976 0.06
758 26 7.18371 13.8395 16.1342 -0.39
762 26 9.53407 13.643 16.2339 -0.39
759 26 9.59177 15.4681 14.9683 -0.39
129 11 10.2 10.8013 17.1588 0.06
236 11 8.68169 17.4212 18.8408 0.06
584 19 13.5285 14.1019 15.0116 -0.35
123 19 9.91815 10.204 19.0025 -0.35
463 11 13.8477 10.3406 18.0931 0.06
121 9 9.57765 10.713 20.2346 0.52
461 1 13.299 10.2135 19.0145 0.22
465 11 12.3185 10.6858 18.8817 0.06
587 11 11.7761 13.642 17.5073 0.06
122 20 10.3864 11.4783 -0.62816 -0.5
128 11 10.0133 12.1944 18.2205 0.06
125 1 9.67684 11.1877 18.0437 0.22
237 11 9.1737 15.9368 19.6535 0.06
127 11 8.6304 11.1861 17.7236 0.06
586 2 12.7469 14.1562 17.2806 0.22
583 19 13.3359 12.8645 17.0562 -0.35
581 9 14.0676 13.0935 15.8959 0.52
582 20 14.8186 12.2096 15.5113 -0.5
468 11 15.4917 13.6791 0.607928 0.06
105 11 15.4906 7.61325 13.5576 0.06
349 9 20.0435 11.076 17.6926 0.52
352 19 19.5093 12.0871 18.3907 -0.35
459 19 13.9554 10.7695 20.0912 -0.35
457 9 14.4293 12.0705 19.7785 0.52
359 11 18.1958 12.8049 16.7207 0.06
708 11 16.3962 15.51 17.009 0.06
458 20 15.346 12.1781 19.001 -0.5
360 11 17.7575 13.163 18.4732 0.06
354 1 18.5551 12.9291 17.7484 0.22
420 11 -0.193814 17.0576 20.2347 0.06
617 11 4.00214 19.3524 14.8578 0.06
248 11 3.21098 1.79864 -0.51107 0.06
426 1 4.32967 18.7319 -0.406253 0.22
432 11 3.39381 19.2422 -0.629094 0.06
430 11 4.35919 17.8086 20.3769 0.06
731 31 1.57006 0.534666 16.0454 1
753 26 0.43546 19.3197 17.0071 -0.39
756 26 2.17868 18.1044 16.5342 -0.39
750 27 1.98929 19.2661 17.5537 1.34
752 26 1.71565 18.1734 18.6073 -0.39
751 26 2.30813 20.3794 16.4837 -0.39
755 26 1.69115 20.2776 18.627 -0.39
754 26 3.46986 19.3117 18.0078 -0.39
427 11 8.52162 0.000198892 -0.234659 0.06
425 1 8.33963 20.3124 -0.435544 0.22
612 20 6.06969 -0.532244 16.8024 -0.5
619 11 4.68841 17.7591 16.417 0.06
424 19 5.37885 19.6516 -0.628599 -0.35
421 9 6.49569 19.2174 19.992 0.52
423 19 7.63243 20.0435 19.7516 -0.35
761 26 8.51424 15.6973 16.6615 -0.39
238 11 9.48702 20.0571 16.1874 0.06
422 20 6.41906 18.1212 19.4242 -0.5
234 1 9.34455 19.0004 16.4879 0.22
239 11 8.84255 18.4865 15.6848 0.06
240 11 8.62336 19.0661 17.3049 0.06
235 11 9.37283 17.5431 20.4318 0.06
233 1 9.4023 16.9937 19.4965 0.22
589 11 12.0506 14.5545 15.254 0.06
585 2 12.8754 14.9492 15.919 0.22
590 11 12.8004 16.0008 16.041 0.06
175 11 14.1166 20.3301 15.2746 0.06
588 11 12.9636 14.9097 18.0977 0.06
721 9 15.3395 -0.514138 18.1947 0.52
177 11 12.9379 19.5404 16.3802 0.06
231 19 10.6521 17.0089 18.8647 -0.35
232 19 10.6439 18.3788 16.7936 -0.35
229 9 10.8078 18.2374 18.1757 0.52
230 20 11.1944 19.264 18.8261 -0.5
730 11 13.6296 18.4423 19.0261 0.06
725 2 14.5081 19.0443 19.2076 0.22
724 19 15.3586 19.447 18.2349 -0.35
414 1 20.3837 16.8177 19.5542 0.22
702 20 15.3745 17.8708 13.6471 -0.5
709 11 17.5524 17.7491 17.5733 0.06
705 2 17.1928 17.4605 16.5473 0.22
418 11 20.4994 15.8403 19.2041 0.06
707 11 15.4215 16.7566 17.6543 0.06
706 2 16.0067 16.5082 16.7842 0.22
703 19 15.2257 16.5646 15.6116 -0.35
729 11 15.0454 18.4641 19.9327 0.06
701 9 15.9114 17.5565 14.744 0.52
ITEM: TIMESTEP
850
ITEM: NUMBER OF ATOMS
770
ITEM: BOX BOUNDS pp pp pp
-6.9879251777646978e-01 2.0698792517776532e+01
-6.9879251777646978e-01 2.0698792517776532e+01
-6.9879251777646978e-01 2.0698792517776532e+01
ITEM: ATOMS id type x y z c_charge
74 20 2.20915 -0.031261 3.029 -0.5
73 9 1.10636 0.441157 3.28845 0.52
75 19 0.38726 1.1273 2.28149 -0.35
77 1 -0.486953 2.13954 2.60391 0.22
81 11 19.9345 1.75849 2.87532 0.06
684 19 1.83979 3.45888 4.93839 -0.35
76 19 0.382625 0.111363 4.47783 -0.35
309 11 2.84417 2.25509 1.46551 0.06
249 11 3.11056 1.95884 20.3142 0.06
308 11 2.06839 3.70028 2.04904 0.06
305 1 3.04936 3.3183 1.67435 0.22
79 11 -0.218987 2.77686 3.46121 0.06
489 11 1.62497 18.9064 3.02452 0.06
488 11 3.03906 18.3048 2.15908 0.06
19 11 1.1956 20.6064 0.676851 0.06
303 19 3.50714 3.93694 0.401884 -0.35
692 20 6.54163 1.33387 1.27914 -0.5
691 9 6.52511 0.868418 2.36378 0.52
694 19 7.65823 0.340155 2.92867 -0.35
693 19 5.36002 0.685764 3.08947 -0.35
54 1 9.64374 3.13389 0.512522 0.22
60 11 9.29313 2.47349 1.33687 0.06
696 2 5.60365 -0.688672 3.50978 0.22
453 11 8.18294 3.77396 4.26555 0.06
698 11 4.95032 19.8831 3.85597 0.06
695 2 7.12555 20.5285 3.5429 0.22
58 11 9.52847 4.1789 0.808376 0.06
59 11 8.95108 2.81652 -0.39336 0.06
449 1 9.30845 3.64414 4.11412 0.22
451 11 9.4081 3.2943 3.13256 0.06
699 11 7.52903 20.4747 4.55332 0.06
697 11 5.36921 -0.0933782 4.37763 0.06
307 11 3.76628 3.39766 2.51988 0.06
52 19 11.0636 2.98647 0.209225 -0.35
348 11 16.9845 2.24327 0.229338 0.06
50 20 11.0564 0.604423 0.141918 -0.5
342 1 15.9404 1.91163 0.299971 0.22
347 11 15.492 2.00791 -0.709301 0.06
338 20 13.6208 4.01861 1.2292 -0.5
337 9 14.8497 3.89328 1.24032 0.52
346 11 15.8519 0.891628 0.598315 0.06
340 19 15.2902 2.59653 1.39177 -0.35
339 19 15.7885 4.93963 0.892612 -0.35
493 9 12.436 0.100004 4.68234 0.52
497 1 14.1993 20.4119 3.50262 0.22
494 20 12.5362 1.32075 4.65487 -0.5
499 11 13.8764 -0.453851 2.58245 0.06
343 11 16.9887 4.75087 20.666 0.06
345 11 15.6282 5.85487 20.5072 0.06
341 1 15.8908 4.87977 -0.556273 0.22
17 1 0.231426 20.4469 0.219216 0.22
20 11 -0.486226 20.0658 0.919697 0.06
80 11 20.7571 2.87357 1.81633 0.06
690 11 0.497419 5.29865 4.77736 0.06
306 1 3.01118 7.15792 0.879322 0.22
311 11 3.77283 7.94894 1.12981 0.06
312 11 2.22458 7.71361 0.390823 0.06
592 20 19.9702 7.36799 2.29268 -0.5
8 11 1.33072 9.51239 4.68928 0.06
9 11 2.56796 10.8167 4.35013 0.06
301 9 4.1474 5.15547 0.716227 0.52
304 19 3.68846 6.25585 0.00792995 -0.35
310 11 2.47081 6.83408 1.77115 0.06
452 11 9.55391 2.75985 4.89282 0.06
302 20 5.14695 5.24889 1.41976 -0.5
714 19 8.50358 7.03774 3.55737 -0.35
716 2 6.17855 7.22799 3.23604 0.22
713 19 6.53062 7.63869 4.47955 -0.35
711 9 7.79815 7.2173 4.73907 0.52
719 11 7.55087 6.11221 1.84738 0.06
720 11 7.91086 7.90259 1.99443 0.06
715 2 7.54213 7.03017 2.54548 0.22
717 11 5.74412 6.26211 3.64381 0.06
712 20 8.3695 7.55495 5.77445 -0.5
446 20 11.5621 4.78078 2.99001 -0.5
363 19 14.1977 7.92904 0.745298 -0.35
368 11 15.9285 8.59839 -0.280946 0.06
735 31 12.6973 5.21999 1.8261 1
361 9 13.7106 7.80395 2.01879 0.52
362 20 13.0818 6.82515 2.32139 -0.5
364 19 13.5079 9.00058 2.71072 -0.35
365 1 15.5409 8.34673 0.686486 0.22
369 11 15.7291 9.23937 1.32671 0.06
445 9 11.277 4.95677 4.13603 0.52
558 11 10.8454 4.80762 18.5836 0.06
591 9 19.7636 7.4672 1.07463 0.52
344 11 15.2156 4.05571 20.3869 0.06
597 11 18.0538 7.97995 20.1813 0.06
593 19 18.6408 8.05688 0.575392 -0.35
367 11 16.2132 7.51334 0.927367 0.06
480 11 15.7254 7.42199 5.77914 0.06
670 11 20.2569 10.5012 1.93852 0.06
669 11 0.0293632 10.6916 3.19846 0.06
665 2 -0.074814 10.7529 2.12038 0.22
664 19 0.986636 9.92541 1.75003 -0.35
661 9 1.744 10.6944 0.842672 0.52
663 19 1.39588 12.0278 0.645279 -0.35
666 2 0.190884 12.1314 1.40143 0.22
668 11 -0.52726 12.3938 0.625315 0.06
667 11 0.084425 12.9175 2.13108 0.06
662 20 2.58353 10.1586 0.0844461 -0.5
357 11 1.15534 11.4437 15.9892 0.06
380 11 6.63631 14.4251 20.0515 0.06
381 11 7.63443 14.3366 18.6425 0.06
377 1 6.6735 14.6476 18.9844 0.22
718 11 5.43626 7.75147 2.663 0.06
36 11 7.17178 12.7558 3.00568 0.06
26 20 8.37299 10.1963 3.60142 -0.5
25 9 7.78407 10.9867 4.357 0.52
227 11 10.8838 14.5675 0.082185 0.06
222 1 11.4366 15.1188 0.804505 0.22
30 1 6.28197 12.565 3.69805 0.22
34 11 5.43522 12.5369 2.98485 0.06
28 19 6.38492 11.2544 4.31262 -0.35
35 11 6.03323 13.3921 4.36807 0.06
130 11 7.7509 11.8179 0.328305 0.06
372 11 11.8937 10.3989 2.51139 0.06
370 11 13.3682 10.6163 1.45376 0.06
366 1 12.7203 9.9004 1.94172 0.22
371 11 12.0778 9.37831 1.14914 0.06
226 11 10.9454 15.0862 1.74958 0.06
737 26 14.8949 13.4979 3.56873 -0.39
228 11 12.3736 14.5678 0.919757 0.06
33 11 10.3239 11.0178 4.75149 0.06
460 19 13.8782 13.1831 20.3442 -0.35
467 11 14.4203 14.9999 -0.00761044 0.06
31 11 10.3229 11.5674 6.37905 0.06
462 1 14.7647 14.2328 -0.741056 0.22
466 11 14.9152 14.916 19.7945 0.06
266 20 19.397 11.6515 3.84974 -0.5
272 11 17.6176 11.2038 0.860974 0.06
273 11 16.2222 11.856 1.6183 0.06
271 11 17.7996 12.6339 1.70768 0.06
269 1 17.2686 11.6541 1.73617 0.22
267 19 17.4847 10.8087 2.81848 -0.35
265 9 18.1979 11.4473 3.92842 0.52
490 11 2.72493 13.8465 -0.249773 0.06
419 11 20.5363 17.1876 18.5471 0.06
486 1 3.29156 14.3305 0.546804 0.22
491 11 3.92867 15.0765 0.091829 0.06
492 11 3.83707 13.5484 1.0285 0.06
484 19 2.26049 14.9255 1.42427 -0.35
481 9 1.86546 16.2712 1.06652 0.52
482 20 2.2163 16.6819 -0.0417565 -0.5
483 19 1.25354 17.174 1.98694 -0.35
487 11 2.53368 17.4703 3.55151 0.06
485 1 2.13073 18.0077 2.67656 0.22
431 11 4.84848 18.0802 0.211743 0.06
295 11 20.4464 17.4264 3.81469 0.06
296 11 -0.636807 15.7297 3.4476 0.06
768 26 5.71788 15.1915 2.32618 -0.39
770 26 6.12914 17.4014 2.11091 -0.39
766 26 7.44173 16.0382 3.32871 -0.39
764 27 6.94 16.1014 1.85735 1.34
765 26 6.50762 16.0644 0.381732 -0.39
769 26 7.79584 14.852 1.58491 -0.39
429 11 9.45358 20.3165 -0.540918 0.06
767 26 8.13661 17.0074 1.41338 -0.39
700 11 7.44078 19.6955 2.90299 0.06
225 11 10.8807 18.782 3.14687 0.06
220 19 11.4515 16.4673 0.280572 -0.35
523 11 9.62944 16.29 4.95205 0.06
223 11 11.1844 19.7904 1.82036 0.06
500 11 15.2931 20.431 3.55704 0.06
501 11 13.9672 19.3897 3.33411 0.06
736 27 14.887 15.0267 3.92964 1.34
741 26 13.4592 14.8352 4.57282 -0.39
740 26 14.1989 15.3222 2.54916 -0.39
738 26 14.7903 16.584 4.20395 -0.39
728 11 13.1825 20.0649 20.381 0.06
217 9 12.4679 17.3198 0.763986 0.52
218 20 13.3913 17.6191 -0.0302338 -0.5
224 11 10.25 18.3153 1.63177 0.06
221 1 11.1283 18.7619 2.11859 0.22
219 19 12.3477 18.0457 1.97589 -0.35
727 11 14.7702 -0.702708 20.4441 0.06
723 19 14.4461 -0.0101291 18.8842 -0.35
726 2 14.0419 20.273 19.7278 0.22
742 26 16.2793 15.199 3.22777 -0.39
417 11 17.1619 16.8635 1.39299 0.06
409 9 19.2219 16.2451 0.00414511 0.52
410 20 19.0899 15.0552 -0.0798511 -0.5
413 1 17.9809 17.6001 1.37599 0.22
415 11 17.9947 18.0975 2.34744 0.06
416 11 17.9255 18.406 0.647314 0.06
411 19 19.2087 16.8435 1.2866 -0.35
293 1 20.6262 16.4891 4.2287 0.22
297 11 19.667 16.1015 4.7398 0.06
412 19 19.3948 17.0427 20.2271 -0.35
21 11 0.296628 19.7129 -0.621124 0.06
689 11 0.35564 4.10233 5.80125 0.06
78 1 1.28266 0.194307 5.63935 0.22
84 11 0.963399 -0.344889 6.53039 0.06
83 11 1.45925 1.25738 5.82248 0.06
82 11 2.23211 -0.342902 5.41404 0.06
510 1 -0.442882 1.78371 8.08709 0.22
506 20 1.34861 1.57465 10.2239 -0.5
508 19 0.870706 2.42639 8.2479 -0.35
505 9 1.34975 2.52254 9.51669 0.52
188 11 4.88833 -0.62274 7.99 0.06
681 9 3.12601 3.62051 5.33272 0.52
682 20 3.92058 2.6603 5.21101 -0.5
187 11 5.0433 0.995053 7.35612 0.06
513 11 3.46251 3.40967 10.7071 0.06
515 11 -0.437859 0.740123 8.36066 0.06
677 11 3.20383 20.3932 10.5958 0.06
503 11 10.5568 0.755699 6.15505 0.06
498 1 10.2509 -0.135114 5.5304 0.22
185 1 4.69954 0.430196 8.20363 0.22
189 11 3.62487 0.584756 8.0673 0.06
183 19 5.27623 0.707087 9.51481 -0.35
181 9 6.43261 1.59095 9.32047 0.52
184 19 7.52079 1.0294 8.6341 -0.35
504 11 9.34313 0.218726 5.0533 0.06
259 11 10.4011 4.63815 7.19897 0.06
257 1 10.3937 4.81794 8.25409 0.22
260 11 9.42483 4.83206 8.66322 0.06
186 1 8.57153 0.563959 9.44266 0.22
502 11 10.1098 20.448 6.22256 0.06
496 19 11.1992 -0.546447 4.58534 -0.35
495 19 13.5458 -0.647267 4.73435 -0.35
255 19 11.1223 3.77914 8.95524 -0.35
547 11 14.8398 2.71433 4.75297 0.06
546 2 15.377 2.74424 5.64172 0.22
548 11 15.0468 1.82803 6.17237 0.06
190 11 8.83502 1.38271 10.1968 0.06
253 9 12.5552 3.84 8.70235 0.52
256 19 13.2861 2.64231 8.61225 -0.35
334 11 19.0772 19.9897 5.3919 0.06
330 1 18.1184 20.4926 5.3232 0.22
336 11 18.2549 0.149537 5.00231 0.06
335 11 17.4203 20.0152 4.66082 0.06
328 19 17.4964 20.5579 6.553 -0.35
325 9 18.2739 -0.351861 7.61546 0.52
326 20 19.1777 20.3433 8.03736 -0.5
327 19 18.3352 1.04529 7.7412 -0.35
514 11 20.6654 1.89608 7.06289 0.06
543 19 16.7133 2.60385 5.06314 -0.35
329 1 17.3037 1.42672 8.64946 0.22
545 2 15.3665 4.02915 6.47328 0.22
550 11 15.3302 3.81735 7.53964 0.06
333 11 16.3044 1.43153 8.24425 0.06
685 2 1.14092 4.61965 5.30649 0.22
688 11 2.15531 6.46145 5.99253 0.06
686 2 2.07772 5.38797 6.24395 0.22
687 11 1.77477 5.27985 7.26505 0.06
683 19 3.30856 4.70939 6.15669 -0.35
157 9 -0.559667 7.72839 8.11337 0.52
158 20 0.218573 7.35174 7.19141 -0.5
3 19 2.07587 10.6023 6.31316 -0.35
165 11 20.5202 10.2256 7.17386 0.06
7 11 3.01345 9.29848 4.99201 0.06
5 1 2.23254 10.0426 5.02042 0.22
2 20 3.72041 10.2913 7.79246 -0.5
441 11 6.74858 6.05236 7.85445 0.06
437 1 5.94912 6.66551 8.16228 0.22
440 11 6.3655 7.65586 8.2637 0.06
439 11 5.19955 6.74788 7.36347 0.06
447 19 9.95907 4.88912 4.49602 -0.35
70 11 8.11107 9.64724 7.52618 0.06
66 1 8.66833 9.4213 8.47178 0.22
435 19 5.2775 6.26899 9.35978 -0.35
433 9 6.17019 6.41213 10.4349 0.52
71 11 8.9457 8.36911 8.2985 0.06
261 11 10.7813 5.88785 8.40803 0.06
72 11 7.98249 9.61914 9.28934 0.06
434 20 7.40543 6.34646 10.3129 -0.5
254 20 13.1421 4.87503 9.01076 -0.5
456 11 11.0316 6.76425 5.87714 0.06
454 11 12.4363 6.47716 7.05136 0.06
549 11 14.4418 4.59888 6.45425 0.06
448 19 12.2431 5.26093 5.15727 -0.35
455 11 12.6794 7.16865 5.57845 0.06
450 1 12.0087 6.41484 5.99286 0.22
61 9 10.4319 10.3747 9.83521 0.52
64 19 9.87069 10.2659 8.55058 -0.35
63 19 11.5126 9.69026 10.2318 -0.35
470 20 14.0576 8.74026 7.35684 -0.5
68 11 12.8317 10.96 9.19017 0.06
159 19 19.5936 8.46138 7.94116 -0.35
542 20 18.4154 4.06601 4.70157 -0.5
541 9 17.4052 3.78386 5.41148 0.52
544 19 16.6451 4.70711 6.25818 -0.35
474 1 16.0273 8.34552 5.40086 0.22
479 11 17.0314 8.22701 5.01539 0.06
472 19 15.9762 9.40282 6.40907 -0.35
287 11 16.2025 6.48348 8.65868 0.06
478 11 15.3474 8.60516 4.62133 0.06
469 9 14.6413 9.66885 6.86034 0.52
286 11 17.1416 8.01098 8.55197 0.06
288 11 15.5965 7.99463 9.3288 0.06
282 1 16.4854 7.39341 9.20367 0.22
163 11 20.0345 8.955 5.99896 0.06
161 1 19.7267 9.44754 6.96137 0.22
1 9 3.32013 10.9596 6.85975 0.52
630 11 2.64853 13.7982 8.53783 0.06
11 11 5.50731 11.8475 7.83451 0.06
4 19 3.8243 12.3061 6.67348 -0.35
6 1 5.10466 12.6776 7.26129 0.22
10 11 4.9235 13.48 7.9697 0.06
164 11 18.6848 9.81507 6.69209 0.06
93 11 2.68443 11.594 10.785 0.06
12 11 5.89869 13.0133 6.57269 0.06
387 19 7.3284 14.3543 9.83187 -0.35
388 19 9.01319 15.0414 8.22426 -0.35
385 9 7.65655 14.8021 8.56355 0.52
389 1 6.91584 15.4288 10.6762 0.22
392 11 7.01939 15.0625 11.6889 0.06
386 20 6.86894 14.9554 7.67305 -0.5
390 1 9.51196 13.9465 7.47383 0.22
395 11 10.5872 13.8219 7.6536 0.06
32 11 9.83156 9.96245 6.14568 0.06
27 19 8.55024 11.5784 5.36335 -0.35
29 1 9.76319 10.9722 5.63019 0.22
475 11 14.1633 11.2594 4.79045 0.06
394 11 9.27209 14.0369 6.37345 0.06
69 11 12.8755 11.0416 10.93 0.06
396 11 9.19514 12.9736 7.88876 0.06
65 1 12.7221 10.3613 10.1149 0.22
67 11 13.604 9.74845 10.1204 0.06
42 1 14.7688 14.8674 9.32852 0.22
274 11 18.4806 13.7701 5.12516 0.06
276 11 19.0319 12.736 6.35106 0.06
471 19 14.1908 11.037 6.92592 -0.35
268 19 17.6051 11.8604 5.08765 -0.35
473 1 13.7171 11.6163 5.75784 0.22
477 11 13.9329 12.6318 5.8898 0.06
476 11 12.7261 11.4085 5.68794 0.06
135 19 19.721 12.2197 8.87935 -0.35
133 9 20.3306 13.0667 9.82963 0.52
136 19 20.3461 14.4291 9.55721 -0.35
137 1 18.8037 11.3216 9.39854 0.22
141 11 19.3384 10.5274 9.9785 0.06
270 1 18.1381 13.0008 5.79621 0.22
275 11 17.4031 13.3917 6.45473 0.06
40 19 14.473 13.5318 9.44874 -0.35
140 11 18.1429 10.9103 8.64834 0.06
627 11 3.11504 15.6918 6.45921 0.06
629 11 1.28828 14.6152 7.60708 0.06
628 11 4.22905 15.3272 7.67004 0.06
291 19 0.360056 16.4348 5.14484 -0.35
626 2 3.1934 15.6598 7.54921 0.22
625 2 2.17752 14.7231 8.24982 0.22
624 19 1.76245 15.3323 9.44093 -0.35
622 20 3.228 16.8171 10.4282 -0.5
621 9 2.59272 16.5191 9.47212 0.52
623 19 3.07075 16.8464 8.23068 -0.35
289 9 0.424318 17.645 5.88481 0.52
290 20 1.41279 18.3487 6.03512 -0.5
393 11 7.57965 16.3342 10.6779 0.06
391 11 5.83286 15.6354 10.6294 0.06
528 11 4.92939 18.0015 6.40384 0.06
526 11 6.25133 16.9356 6.40735 0.06
520 19 6.94586 18.9314 6.40436 -0.35
527 11 5.98377 17.9027 7.84068 0.06
522 1 5.99321 17.8912 6.77166 0.22
519 19 9.21058 18.2368 5.67722 -0.35
521 1 9.53866 16.8439 5.86303 0.22
517 9 8.28601 18.5828 6.71624 0.52
518 20 8.58043 18.6525 7.89256 -0.5
525 11 8.78417 16.2229 6.27464 0.06
192 11 9.43661 0.341854 8.81422 0.06
739 26 15.5885 14.6962 5.27658 -0.39
524 11 10.3694 16.7728 6.51459 0.06
537 11 11.4053 19.173 7.07415 0.06
535 11 12.5868 18.0695 7.72198 0.06
536 11 11.6178 19.1154 8.6994 0.06
533 1 12.1523 19.0872 7.7779 0.22
531 19 12.9936 20.239 7.76288 -0.35
46 11 14.0728 15.3938 8.68256 0.06
529 9 14.3713 19.9673 7.88983 0.52
530 20 14.9973 20.6059 8.7634 -0.5
144 11 18.4465 14.8985 8.91663 0.06
300 11 0.600191 18.2856 8.37834 0.06
299 11 -0.303907 16.794 8.54731 0.06
538 11 16.1546 17.8603 6.22824 0.06
539 11 15.8055 17.8655 7.98322 0.06
532 19 15.1766 19.4686 6.92513 -0.35
534 1 15.4813 18.0988 7.00678 0.22
540 11 14.6569 17.3922 6.91924 0.06
292 19 20.7573 17.6676 6.80359 -0.35
138 1 19.1581 15.1605 9.76743 0.22
298 11 20.2021 18.2211 8.67855 0.06
294 1 -0.316874 17.8016 8.16713 0.22
142 11 18.8224 14.8687 10.7575 0.06
507 19 1.75675 3.84141 9.80425 -0.35
516 11 20.1697 2.18487 8.72179 0.06
509 1 3.15425 4.08917 9.97773 0.22
512 11 3.36981 5.06041 10.3728 0.06
678 11 3.90819 20.1016 12.1908 0.06
676 2 3.08939 20.5503 11.6895 0.22
673 19 3.23511 -0.0148524 12.9186 -0.35
321 11 2.11325 2.62982 12.9918 0.06
317 1 2.52866 3.37482 13.6824 0.22
316 19 5.41449 2.96941 14.1406 -0.35
319 11 2.78806 2.77413 14.4836 0.06
146 20 -0.273747 0.511886 16.4066 -0.5
313 9 4.57795 4.17458 14.0475 0.52
315 19 3.55909 4.13474 13.0382 -0.35
320 11 1.81229 4.00132 14.0801 0.06
323 11 5.00978 1.71434 12.4191 0.06
318 1 5.75455 2.32906 12.8711 0.22
322 11 6.5368 1.6224 13.0956 0.06
182 20 6.49504 2.74946 9.76144 -0.5
324 11 6.23455 2.96583 12.1667 0.06
191 11 8.38727 -0.33048 10.0807 0.06
744 26 8.04936 3.21382 16.4634 -0.39
264 11 13.1273 2.50032 10.7931 0.06
263 11 14.2993 1.47851 10.0338 0.06
258 1 13.3089 1.93201 9.87473 0.22
262 11 12.6821 1.08422 9.91664 0.06
608 11 13.746 3.11486 15.1213 0.06
603 19 14.9121 3.15996 13.1336 -0.35
604 19 16.5498 1.74883 13.9491 -0.35
170 20 12.9295 1.00183 13.9841 -0.5
331 11 17.165 0.748587 9.48859 0.06
332 11 17.4697 2.38221 9.07641 0.06
601 9 15.8466 2.23704 12.8355 0.52
602 20 15.6936 1.58509 11.8069 -0.5
283 11 18.9605 4.14183 12.3704 0.06
153 11 18.4499 20.24 14.3852 0.06
149 1 19.0841 -0.303563 14.5337 0.22
152 11 20.0477 20.6946 14.3064 0.06
511 11 3.80851 3.71726 9.12871 0.06
641 9 0.987272 7.03013 14.5192 0.52
649 11 3.58168 7.92654 15.8248 0.06
643 19 0.813524 8.29271 14.0296 -0.35
647 11 3.05177 8.91106 13.7358 0.06
646 2 2.12892 8.77915 14.2574 0.22
438 1 5.09315 7.85712 12.0098 0.22
443 11 5.3689 8.19464 12.9764 0.06
442 11 3.99628 7.88479 11.9611 0.06
167 11 1.67778 6.65546 9.98134 0.06
402 1 9.4646 3.37285 13.0379 0.22
408 11 8.44096 2.97955 12.993 0.06
314 20 4.40123 4.92494 15.0153 -0.5
400 19 9.50931 4.77885 13.3585 -0.35
444 11 5.49301 8.59859 11.3597 0.06
436 19 5.47774 6.50825 11.7148 -0.35
407 11 9.93403 2.71028 13.7555 0.06
406 11 9.90116 3.15403 12.0947 0.06
205 9 8.76297 8.57683 15.4237 0.52
208 19 8.28927 7.93662 14.2519 -0.35
398 20 10.9783 6.04394 14.7154 -0.5
397 9 10.8171 5.15408 13.8307 0.52
399 19 11.957 4.57611 13.1581 -0.35
404 11 13.6441 5.40183 12.3962 0.06
401 1 12.6191 5.47297 12.2887 0.22
405 11 12.3277 5.10813 11.2956 0.06
403 11 12.3972 6.5256 12.3124 0.06
102 1 12.053 11.6606 13.7874 0.22
108 11 11.0826 11.6149 13.3718 0.06
106 11 12.1014 11.9236 14.858 0.06
160 19 -0.0879932 7.77976 9.45334 -0.35
162 1 0.593687 6.66936 9.98956 0.22
166 11 0.257683 5.70004 9.61994 0.06
285 11 18.216 5.68858 12.8686 0.06
281 1 18.7057 5.15807 12.0382 0.22
284 11 19.6596 5.66892 11.7546 0.06
279 19 17.9241 4.90804 10.883 -0.35
98 20 12.0323 8.57317 14.1816 -0.5
580 11 18.667 7.65041 16.3648 0.06
642 20 0.332307 6.06261 14.1168 -0.5
168 11 0.42929 6.55727 11.0314 0.06
280 19 17.1746 7.18903 10.3998 -0.35
277 9 16.883 5.86065 10.9111 0.52
278 20 15.9211 5.67559 11.6188 -0.5
579 11 17.8775 8.65505 15.0772 0.06
575 2 17.6857 7.88803 15.8682 0.22
89 1 2.16322 11.0633 11.5938 0.22
115 11 19.4787 13.3285 13.9771 0.06
116 11 20.9251 13.9662 13.1569 0.06
113 1 20.556 13.3825 13.9622 0.22
117 11 -0.558214 12.3657 13.8537 0.06
111 19 -0.421854 13.9324 15.2034 -0.35
109 9 20.7071 15.3006 15.4776 0.52
95 11 4.93453 14.912 12.9165 0.06
96 11 3.89336 14.5372 14.1266 0.06
112 19 20.5121 16.1597 14.358 -0.35
87 19 2.10008 11.7727 12.795 -0.35
92 11 1.14235 10.896 11.2485 0.06
216 11 9.73788 7.43132 12.8279 0.06
86 20 3.95592 11.364 13.9375 -0.5
91 11 2.61568 10.0584 11.6363 0.06
210 1 9.04139 8.23958 13.0607 0.22
215 11 9.56567 9.1843 12.9588 0.06
85 9 3.399 12.0679 13.129 0.52
88 19 4.06073 13.137 12.5699 -0.35
637 11 10.3164 13.6649 10.3222 0.06
214 11 8.24082 8.32212 12.3279 0.06
90 1 4.61885 14.0691 13.4797 0.22
763 26 7.35453 15.5663 14.3787 -0.39
94 11 5.5083 13.6848 14.0194 0.06
760 26 8.52795 13.7226 14.0935 -0.39
47 11 14.8243 15.4077 10.2766 0.06
638 11 11.9306 13.6029 10.9029 0.06
636 2 11.0931 14.2699 10.7768 0.22
62 20 10.001 11.2183 10.6517 -0.5
639 11 9.60385 15.3925 11.9649 0.06
635 2 10.6106 15.0054 12.0125 0.22
640 11 10.7993 14.4158 12.9022 0.06
107 11 12.3424 12.5473 13.2243 0.06
634 19 11.2407 16.2912 11.9649 -0.35
100 19 12.8562 10.5823 13.3083 -0.35
97 9 12.9922 9.38475 14.0393 0.52
134 20 20.6919 12.6417 10.8789 -0.5
103 11 14.365 7.59451 12.3979 0.06
104 11 15.1343 9.16787 12.2376 0.06
38 20 15.4814 11.6587 10.4204 -0.5
139 11 18.0235 11.8326 9.99201 0.06
37 9 15.369 12.8612 10.3981 0.52
101 1 14.9409 8.37295 12.9327 0.22
39 19 16.2681 13.5864 11.1962 -0.35
43 11 17.2355 12.6964 12.7569 0.06
41 1 16.2394 13.1133 12.6087 0.22
44 11 16.1452 13.938 13.3136 0.06
99 19 14.3101 8.86804 14.1302 -0.35
45 11 15.638 12.1909 12.7626 0.06
110 20 20.177 15.5995 16.5622 -0.5
710 11 17.9416 16.7415 15.6884 0.06
680 11 1.98528 18.672 11.7331 0.06
118 11 1.01077 16.9783 14.1661 0.06
671 9 1.99249 -0.188706 13.4573 0.52
672 20 1.58254 0.586833 14.4371 -0.5
675 2 1.76882 19.7224 11.8514 0.22
679 11 1.21618 20.0032 11.0048 0.06
674 19 1.30053 20.0639 13.1656 -0.35
120 11 -0.183243 17.9898 15.0106 0.06
119 11 -0.142587 17.7513 13.3051 0.06
114 1 0.00579686 17.2339 14.2717 0.22
613 19 5.33125 20.2286 14.8795 -0.35
616 2 4.81666 18.969 14.4251 0.22
618 11 4.9939 18.6651 13.3988 0.06
652 20 6.41619 18.4854 10.7212 -0.5
651 9 7.14402 18.8907 11.6351 0.52
654 19 8.48756 18.5116 11.7232 -0.35
653 19 6.85189 20.0328 12.4089 -0.35
657 11 8.35452 0.0060383 12.7267 0.06
658 11 8.10268 20.3956 14.1253 0.06
655 2 9.13694 19.3703 12.5892 0.22
656 2 8.08978 20.3797 13.042 0.22
660 11 9.50035 18.7642 13.3791 0.06
659 11 9.89717 19.7642 11.882 0.06
611 9 5.79903 19.8729 16.0799 0.52
614 19 5.85888 18.5653 16.4515 -0.35
615 2 5.30113 17.9182 15.3932 0.22
620 11 5.53666 17.0097 14.792 0.06
179 11 12.8247 19.9681 10.7451 0.06
180 11 14.0646 -0.701109 11.687 0.06
48 11 15.7567 14.8579 8.85913 0.06
631 9 11.8597 16.35 10.7415 0.52
632 20 12.5845 17.2806 10.4409 -0.5
633 19 11.7131 15.1842 9.86018 -0.35
178 11 13.2429 19.2625 12.2008 0.06
174 1 13.0984 20.2791 11.7643 0.22
172 19 12.0574 -0.283669 12.3768 -0.35
169 9 12.4927 -0.0826408 13.6851 0.52
173 1 13.0547 20.4785 15.7595 0.22
171 19 12.1726 20.3076 14.6863 -0.35
176 11 12.9605 0.0116075 16.3075 0.06
568 11 15.6334 18.1182 11.1687 0.06
570 11 15.8541 19.7218 12.5754 0.06
569 11 16.4939 -0.685423 11.2176 0.06
143 11 19.299 16.2076 9.85862 0.06
567 11 16.7097 18.9312 9.90493 0.06
565 2 16.6445 19.7966 11.8419 0.22
562 20 19.7426 18.5313 11.74 -0.5
564 19 18.0185 20.0216 11.896 -0.35
561 9 18.5305 18.765 11.5893 0.52
563 19 17.6862 17.9139 10.8739 -0.35
566 2 16.5167 18.6197 10.9419 0.22
704 19 16.9062 17.8485 14.9718 -0.35
151 11 18.8001 0.469469 13.8267 0.06
155 11 -0.52393 3.92718 15.9562 0.06
244 19 3.33181 3.74791 17.6587 -0.35
242 20 2.31844 1.75683 16.9923 -0.5
241 9 3.1561 2.33174 17.705 0.52
245 1 3.72544 1.23435 19.7749 0.22
243 19 4.1333 1.59366 18.3798 -0.35
246 1 2.83948 4.52901 18.7713 0.22
251 11 2.15313 5.3024 18.4163 0.06
252 11 2.20173 3.92996 19.3995 0.06
250 11 3.5891 5.00499 19.3331 0.06
247 11 3.36963 0.275181 19.9865 0.06
14 20 19.1565 1.26463 -0.0341814 -0.5
154 11 19.8404 3.72758 14.6702 0.06
428 11 8.31057 19.843 0.511159 0.06
733 31 6.17501 0.487939 18.1551 1
749 26 6.14709 3.93941 17.4757 -0.39
743 27 7.54675 3.42634 17.9384 1.34
747 26 6.97995 2.00474 18.0387 -0.39
745 26 7.17377 3.66817 19.4387 -0.39
746 26 8.11068 4.8797 17.8617 -0.39
748 26 8.96113 2.89459 18.3568 -0.39
49 9 11.1323 1.71945 -0.469771 0.52
51 19 11.7074 1.75389 19.6758 -0.35
56 11 10.8419 1.45315 17.8869 0.06
607 11 14.9332 4.14238 14.2358 0.06
606 2 14.6646 3.11633 14.5128 0.22
605 2 15.7716 2.2743 15.0558 0.22
610 11 15.3319 1.44022 15.5493 0.06
57 11 11.6915 0.145913 18.3293 0.06
53 1 11.0649 0.953061 18.8042 0.22
560 11 12.2179 3.26361 17.6391 0.06
559 11 13.7324 3.97243 18.1669 0.06
609 11 16.282 2.93509 15.8194 0.06
55 11 10.1435 0.451376 19.0907 0.06
722 20 16.0849 0.272413 17.4365 -0.5
15 19 -0.254767 0.259527 -0.251198 -0.35
147 19 18.9828 -0.0344154 15.8899 -0.35
145 9 19.9794 0.94269 16.1425 0.52
22 11 18.8732 19.2629 18.794 0.06
16 19 19.0537 20.5381 20.4837 -0.35
13 9 19.7511 0.306884 -0.50842 0.52
18 1 19.3884 20.1851 19.1501 0.22
23 11 18.9107 -0.417451 18.4988 0.06
148 19 19.5893 2.33603 16.0187 -0.35
156 11 -0.0800576 2.70142 14.8524 0.06
150 1 20.4518 3.14953 15.3634 0.22
24 11 20.4495 20.1561 18.9321 0.06
644 19 1.72924 6.95087 15.7096 -0.35
645 2 2.52505 8.10707 15.675 0.22
648 11 1.51675 9.64925 14.3536 0.06
650 11 2.28222 8.76729 16.4856 0.06
356 11 1.29334 12.5553 17.4207 0.06
353 1 1.11873 11.5692 17.0773 0.22
201 11 3.34707 9.86897 18.9145 0.06
207 19 8.17725 9.69487 16.1122 -0.35
734 31 4.86983 4.95319 16.5785 1
197 1 3.85533 8.88177 19.0804 0.22
200 11 4.20751 8.84714 20.2251 0.06
195 19 4.85225 8.70981 18.0758 -0.35
206 20 9.85182 8.15416 15.8255 -0.5
193 9 5.36561 7.42702 18.3334 0.52
194 20 5.13794 6.4312 17.5753 -0.5
196 19 6.20998 7.26849 19.4934 -0.35
202 11 8.04731 7.22051 18.3333 0.06
203 11 7.40314 8.8189 18.7745 0.06
198 1 7.58662 7.78206 19.1332 0.22
204 11 8.24153 7.8877 19.976 0.06
199 11 3.11214 8.07937 18.9314 0.06
557 11 12.1294 4.53917 19.7401 0.06
555 2 12.7551 4.22111 17.7485 0.22
732 31 11.3387 7.42918 15.5955 1
556 2 11.9266 4.97748 18.7644 0.22
554 19 13.2382 5.18051 16.8316 -0.35
551 9 12.9125 6.43955 17.3713 0.52
553 19 12.0935 6.3182 18.5119 -0.35
552 20 12.7016 7.36744 16.6447 -0.5
464 11 12.604 9.39684 19.4039 0.06
599 11 19.5539 6.63524 19.8364 0.06
595 2 20.0433 7.44784 20.3231 0.22
594 19 20.6968 7.09443 0.0796195 -0.35
596 2 18.943 8.43445 20.6309 0.22
574 19 17.3109 6.55786 16.1753 -0.35
600 11 20.6851 7.83622 19.5215 0.06
577 11 16.031 9.29061 15.9731 0.06
571 9 16.5621 6.68083 17.3957 0.52
572 20 16.446 5.66151 18.1341 -0.5
573 19 16.3914 7.99966 17.7949 -0.35
576 2 16.7457 8.78364 16.6978 0.22
578 11 17.2644 9.67488 17.0905 0.06
598 11 19.1456 9.44536 20.0886 0.06
350 20 19.4929 10.4896 16.9915 -0.5
351 19 0.193009 10.8642 17.8341 -0.35
355 11 2.09998 11.1311 17.3356 0.06
382 11 2.1932 15.7379 17.8241 0.06
383 11 3.77084 16.1441 18.6695 0.06
378 1 3.22703 15.4352 18.0449 0.22
384 11 3.87049 15.3101 17.1384 0.06
376 19 3.17013 14.2034 18.6379 -0.35
373 9 4.44121 13.7441 19.1204 0.52
374 20 4.46184 12.7653 19.8462 -0.5
358 11 18.3342 13.9285 18.2626 0.06
379 11 6.51781 15.7316 18.8952 0.06
213 11 7.42011 10.4423 14.3482 0.06
211 11 6.18717 9.89603 15.5852 0.06
375 19 5.60556 13.9448 18.3382 -0.35
131 11 7.00405 10.2913 0.801234 0.06
209 1 7.2037 10.3513 15.4075 0.22
212 11 7.14179 11.3061 15.8965 0.06
757 27 8.30541 14.7236 15.3074 1.34
124 19 8.51427 10.0419 -0.403015 -0.35
126 1 7.96312 10.7663 0.678062 0.22
132 11 8.51948 10.9003 1.57716 0.06
758 26 7.17675 13.808 15.907 -0.39
762 26 9.30672 13.9267 16.2802 -0.39
759 26 9.51151 15.5874 14.7177 -0.39
129 11 9.8029 11.1409 17.127 0.06
236 11 8.50791 16.5683 18.865 0.06
584 19 13.5329 14.5077 15.3103 -0.35
123 19 9.81245 10.3936 19.1063 -0.35
463 11 14.1148 9.85785 18.4148 0.06
121 9 9.56026 10.7121 20.3978 0.52
461 1 13.3545 10.2014 19.1384 0.22
465 11 12.7654 10.8931 18.5397 0.06
587 11 11.8886 13.5863 17.732 0.06
122 20 10.2852 11.449 -0.442044 -0.5
128 11 9.89429 12.3194 18.4018 0.06
125 1 9.43873 11.3552 18.1169 0.22
237 11 9.31865 16.4284 20.4667 0.06
127 11 8.36403 11.5051 18.0654 0.06
586 2 12.7256 14.2299 17.5373 0.22
583 19 13.4329 13.0602 17.1477 -0.35
581 9 14.1307 13.4072 15.9708 0.52
582 20 14.714 12.5351 15.2991 -0.5
468 11 15.7288 13.8279 -0.288709 0.06
105 11 15.9408 8.07017 13.2372 0.06
349 9 20.195 11.2338 17.6735 0.52
352 19 19.6701 12.2839 18.4334 -0.35
459 19 13.9431 10.8462 20.3088 -0.35
457 9 14.4555 12.0394 19.8757 0.52
359 11 18.8403 13.1215 16.8494 0.06
708 11 16.1932 15.2518 16.4236 0.06
458 20 15.4786 12.1394 19.2014 -0.5
360 11 17.539 12.3901 17.8764 0.06
354 1 18.5057 12.9576 17.8837 0.22
420 11 0.0396888 17.4991 20.0564 0.06
617 11 3.70526 18.9711 14.4669 0.06
248 11 4.56524 1.2057 20.4567 0.06
426 1 4.52829 18.7232 -0.586914 0.22
432 11 3.57405 19.2364 -0.356453 0.06
430 11 4.34226 17.9861 20.0488 0.06
731 31 1.31503 0.439771 16.3376 1
753 26 0.531764 19.2284 17.1683 -0.39
756 26 2.42942 18.324 16.6664 -0.39
750 27 2.04165 19.4334 17.6365 1.34
752 26 1.75446 18.3722 18.738 -0.39
751 26 2.2663 20.4817 16.5772 -0.39
755 26 1.6156 20.6 18.5441 -0.39
754 26 3.57993 19.5418 18.092 -0.39
427 11 8.50479 0.075383 0.105134 0.06
425 1 8.47011 20.4959 -0.274566 0.22
612 20 5.94951 -0.555248 16.8846 -0.5
619 11 4.60618 17.5161 16.148 0.06
424 19 5.48508 19.7475 20.4734 -0.35
421 9 6.78432 19.2966 20.1007 0.52
423 19 7.67746 20.3829 19.9731 -0.35
761 26 8.07002 15.6932 16.5052 -0.39
238 11 9.62649 20.0764 16.3796 0.06
422 20 6.85088 18.4748 19.2416 -0.5
234 1 9.52787 19.0413 16.5725 0.22
239 11 9.05614 18.4993 15.765 0.06
240 11 8.78028 18.9726 17.339 0.06
235 11 9.06428 18.0098 19.7538 0.06
233 1 9.33189 16.9892 19.5091 0.22
589 11 11.6978 14.3926 15.5024 0.06
585 2 12.4486 14.8758 16.0825 0.22
590 11 12.253 15.9481 16.3094 0.06
175 11 14.144 20.3869 15.5806 0.06
588 11 12.7332 14.9365 18.3352 0.06
721 9 15.4253 -0.481068 18.1086 0.52
177 11 12.8139 19.6851 16.4606 0.06
231 19 10.6088 16.9453 18.8302 -0.35
232 19 10.6889 18.3386 16.8245 -0.35
229 9 10.9188 18.2017 18.2225 0.52
230 20 11.4798 19.0555 18.8991 -0.5
730 11 13.9295 18.1998 18.9634 0.06
725 2 14.7101 18.9619 19.0901 0.22
724 19 15.7023 19.5416 18.1939 -0.35
414 1 20.6603 16.8819 19.6006 0.22
702 20 15.0504 17.7364 13.6567 -0.5
709 11 17.6103 17.4915 17.1932 0.06
705 2 17.1675 17.2296 16.26 0.22
418 11 -0.351645 15.811 19.5984 0.06
707 11 15.5901 16.4205 17.6177 0.06
706 2 16.0057 16.3208 16.5912 0.22
703 19 15.0014 16.527 15.5621 -0.35
729 11 15.4495 18.566 19.8187 0.06
701 9 15.6329 17.4737 14.6861 0.52
ITEM: TIMESTEP
900
ITEM: NUMBER OF ATOMS
770
ITEM: BOX BOUNDS pp pp pp
-7.0520243673898442e-01 2.0705202436739050e+01
-7.0520243673898442e-01 2.0705202436739050e+01
-7.0520243673898442e-01 2.0705202436739050e+01
ITEM: ATOMS id type x y z c_charge
74 20 2.33865 0.0376369 3.11425 -0.5
73 9 1.17268 0.460087 3.35422 0.52
75 19 0.455249 1.03323 2.28889 -0.35
77 1 -0.62201 1.91073 2.74664 0.22
81 11 19.7703 1.5138 2.70321 0.06
684 19 1.94483 3.60435 4.79668 -0.35
76 19 0.43219 -0.06109 4.47334 -0.35
309 11 3.62 2.32497 2.03458 0.06
249 11 3.95075 2.20326 20.0711 0.06
308 11 2.12992 3.28915 1.99737 0.06
305 1 3.20914 3.3277 1.90988 0.22
79 11 -0.450903 2.33797 3.72368 0.06
489 11 1.38516 18.8751 2.84061 0.06
488 11 2.88766 18.3242 1.92788 0.06
19 11 1.27507 20.4434 0.465845 0.06
303 19 3.55313 3.8258 0.667205 -0.35
692 20 6.25754 1.27376 1.40609 -0.5
691 9 6.34871 0.819976 2.55387 0.52
694 19 7.55432 0.187231 2.8732 -0.35
693 19 5.20921 0.153346 2.99448 -0.35
54 1 9.43109 3.26071 0.116815 0.22
60 11 8.93854 2.34943 0.234809 0.06
696 2 5.78966 20.4105 3.68665 0.22
453 11 8.39273 3.06538 4.78657 0.06
698 11 5.22956 19.556 3.39995 0.06
695 2 7.25588 20.4163 3.45261 0.22
58 11 9.21263 3.92453 0.955149 0.06
59 11 9.19789 3.64666 20.576 0.06
449 1 9.3254 3.36393 4.37765 0.22
451 11 9.17615 3.42155 3.28314 0.06
699 11 7.59651 20.1267 4.43034 0.06
697 11 5.45298 20.5369 4.72519 0.06
307 11 3.60444 4.03525 2.61631 0.06
52 19 10.8201 3.02738 0.0843813 -0.35
348 11 16.8122 2.70266 0.44091 0.06
50 20 11.5729 0.869533 0.151997 -0.5
342 1 15.9935 2.00243 0.44999 0.22
347 11 15.673 1.8445 -0.575761 0.06
338 20 13.527 4.28009 0.997381 -0.5
337 9 14.6737 3.90493 0.874706 0.52
346 11 16.2995 1.03248 0.888579 0.06
340 19 14.9367 2.61429 1.21256 -0.35
339 19 15.7311 4.86163 0.830252 -0.35
493 9 12.4707 0.175472 4.63936 0.52
497 1 14.369 20.698 3.57409 0.22
494 20 12.5932 1.35137 4.64028 -0.5
499 11 13.8914 20.5998 2.60618 0.06
343 11 17.0575 5.49001 -0.660844 0.06
345 11 15.4132 6.17345 -0.788516 0.06
341 1 16.0171 5.22886 -0.512978 0.22
17 1 0.271389 20.3036 -0.0103397 0.22
20 11 -0.397607 19.7771 0.721053 0.06
80 11 -0.565054 2.76836 2.09733 0.06
690 11 0.239231 5.24997 5.24571 0.06
306 1 2.67747 6.85402 1.04013 0.22
311 11 3.05975 7.73317 1.49085 0.06
312 11 1.77055 7.15817 0.560305 0.06
592 20 20.0212 7.22043 2.24413 -0.5
8 11 1.36311 9.39637 5.02949 0.06
9 11 2.72496 10.2212 4.26548 0.06
301 9 4.13611 5.08652 0.638642 0.52
304 19 3.4337 6.2011 0.117306 -0.35
310 11 2.21678 6.21269 1.75921 0.06
452 11 9.99718 2.64897 4.59373 0.06
302 20 5.3103 5.2413 1.05095 -0.5
714 19 8.56395 6.99017 3.50776 -0.35
716 2 6.21603 6.99456 3.09406 0.22
713 19 6.47087 7.24335 4.53015 -0.35
711 9 7.84554 7.40774 4.6577 0.52
719 11 7.77587 6.2445 1.77732 0.06
720 11 7.78246 7.94536 1.89867 0.06
715 2 7.6048 7.01747 2.44759 0.22
717 11 5.83906 6.0218 3.30792 0.06
712 20 8.36645 7.47303 5.767 -0.5
446 20 11.5234 4.60908 3.18128 -0.5
363 19 14.2124 7.8748 0.669792 -0.35
368 11 15.5822 9.07124 -0.21704 0.06
735 31 12.4543 5.06495 1.96973 1
361 9 13.5405 7.74545 1.90947 0.52
362 20 13.0069 6.66839 2.25837 -0.5
364 19 13.2873 8.86537 2.75823 -0.35
365 1 15.5044 8.47123 0.712211 0.22
369 11 15.6193 9.18822 1.51081 0.06
445 9 11.1328 4.94156 4.31445 0.52
558 11 10.8346 4.73745 18.6798 0.06
591 9 19.8618 7.57968 1.09198 0.52
344 11 15.7184 4.51986 20.1334 0.06
597 11 18.5024 8.86123 19.7434 0.06
593 19 18.8518 8.40478 0.624371 -0.35
367 11 16.3205 7.78567 0.527193 0.06
480 11 15.4997 7.16138 5.94366 0.06
670 11 20.3508 10.0843 2.29266 0.06
669 11 0.130114 10.5431 3.22163 0.06
665 2 -0.0297193 10.3313 2.18278 0.22
664 19 1.0639 9.63879 1.74186 -0.35
661 9 1.56244 10.4156 0.655689 0.52
663 19 1.14408 11.7305 0.656764 -0.35
666 2 0.140762 11.737 1.60008 0.22
668 11 20.6047 11.9726 1.08887 0.06
667 11 0.186144 12.4901 2.41077 0.06
662 20 2.5375 10.156 -0.0104218 -0.5
357 11 1.49564 11.8975 16.5914 0.06
380 11 6.93144 14.0622 19.9009 0.06
381 11 7.70654 14.6244 18.4152 0.06
377 1 6.74122 14.6297 18.986 0.22
718 11 5.46196 7.52973 2.46079 0.06
36 11 6.81218 12.7089 2.92171 0.06
26 20 8.26566 10.3309 3.68835 -0.5
25 9 7.74454 11.0052 4.56026 0.52
227 11 10.2319 15.0394 1.09663 0.06
222 1 11.2937 15.3835 1.22889 0.22
30 1 6.19005 12.5693 3.79536 0.22
34 11 5.15533 12.7514 3.46607 0.06
28 19 6.36822 11.3877 4.52529 -0.35
35 11 6.34884 13.4778 4.4581 0.06
130 11 6.98564 11.6443 0.0834454 0.06
372 11 12.2641 10.5574 2.75843 0.06
370 11 13.4855 10.4616 1.52952 0.06
366 1 12.6586 9.91607 2.01884 0.22
371 11 11.8757 9.63736 1.39435 0.06
226 11 11.5224 15.6813 2.28836 0.06
737 26 15.0355 13.4331 3.64312 -0.39
228 11 11.9075 14.5144 1.04181 0.06
33 11 10.4365 12.0494 4.32303 0.06
460 19 13.8477 13.3223 20.0858 -0.35
467 11 14.0293 14.9698 -0.376748 0.06
31 11 10.6755 11.688 6.07528 0.06
462 1 14.5868 14.4641 20.3136 0.22
466 11 14.5036 15.275 19.6048 0.06
266 20 19.4498 11.6022 4.04267 -0.5
272 11 17.3631 11.7526 0.962483 0.06
273 11 15.8998 11.5302 1.92504 0.06
271 11 17.0224 12.8315 2.18632 0.06
269 1 16.9573 11.8025 1.9986 0.22
267 19 17.6345 10.8765 2.88716 -0.35
265 9 18.2323 11.5775 3.96629 0.52
490 11 2.90492 13.7573 -0.189182 0.06
419 11 -0.242851 17.358 18.8354 0.06
486 1 3.17054 14.1327 0.783538 0.22
491 11 4.05835 14.7562 0.67809 0.06
492 11 3.45727 13.2918 1.445 0.06
484 19 2.12835 14.8371 1.35254 -0.35
481 9 1.91147 16.2406 1.06415 0.52
482 20 2.35867 16.8044 0.0336946 -0.5
483 19 1.22911 16.9319 2.07686 -0.35
487 11 2.54203 17.7143 3.50253 0.06
485 1 2.03865 18.0254 2.59952 0.22
431 11 5.22891 18.3082 0.0673242 0.06
295 11 20.2493 17.3975 3.96945 0.06
296 11 20.5709 15.6643 3.47844 0.06
768 26 5.70533 15.3517 2.23841 -0.39
770 26 6.36016 17.5321 2.12823 -0.39
766 26 7.61586 16.1602 3.2074 -0.39
764 27 6.98377 16.1761 1.80302 1.34
765 26 6.47845 16.2492 0.379072 -0.39
769 26 7.59716 14.818 1.41634 -0.39
429 11 9.33278 20.0261 -0.477241 0.06
767 26 8.25958 16.9047 1.35429 -0.39
700 11 7.64323 19.7043 2.70944 0.06
225 11 10.997 18.9849 3.08367 0.06
220 19 11.6307 16.3905 0.307534 -0.35
523 11 10.4243 16.954 4.90293 0.06
223 11 11.3798 19.4507 1.33664 0.06
500 11 15.1181 0.0762374 3.49903 0.06
501 11 14.9288 19.7226 3.69351 0.06
736 27 14.9325 14.9244 4.04095 1.34
741 26 13.5148 14.6339 4.65728 -0.39
740 26 14.2033 15.1052 2.66532 -0.39
738 26 14.8339 16.4924 4.38789 -0.39
728 11 13.425 19.8086 20.267 0.06
217 9 12.6571 17.2758 0.748153 0.52
218 20 13.7221 17.3021 0.229062 -0.5
224 11 10.4024 17.9954 1.72005 0.06
221 1 11.2445 18.6001 2.05364 0.22
219 19 12.4339 17.835 2.02204 -0.35
727 11 14.8285 -0.571571 20.4902 0.06
723 19 14.5931 -0.0636169 19.0286 -0.35
726 2 14.3111 20.1957 19.7789 0.22
742 26 16.3204 15.171 3.32828 -0.39
417 11 17.0642 16.3744 0.686531 0.06
409 9 19.3144 16.0977 -0.115169 0.52
410 20 18.9138 15.0209 -0.421375 -0.5
413 1 17.7234 16.9939 1.25889 0.22
415 11 17.4094 16.9618 2.28838 0.06
416 11 17.7238 18.0668 1.01876 0.06
411 19 19.0724 16.6057 1.175 -0.35
293 1 20.5799 16.3726 4.29461 0.22
297 11 19.8969 15.9829 4.95003 0.06
412 19 19.587 16.955 20.1968 -0.35
21 11 0.399796 19.5564 20.6484 0.06
689 11 0.632564 3.77285 5.91977 0.06
78 1 1.23444 -0.0631974 5.61374 0.22
84 11 0.633068 -0.43052 6.44478 0.06
83 11 1.49374 0.984749 5.77158 0.06
82 11 2.05179 20.6739 5.59539 0.06
510 1 -0.498174 1.64039 8.18023 0.22
506 20 1.4229 1.26392 10.0997 -0.5
508 19 0.694316 2.24458 8.2754 -0.35
505 9 1.14356 2.32956 9.53887 0.52
188 11 4.92389 20.5738 7.98428 0.06
681 9 3.19658 3.65014 5.43829 0.52
682 20 4.16262 2.9758 5.16701 -0.5
187 11 4.49644 0.926507 7.58118 0.06
513 11 3.79815 2.98401 10.2173 0.06
515 11 -0.506076 0.6525 8.61534 0.06
677 11 2.78847 -0.0918845 10.8515 0.06
503 11 10.5267 1.00203 6.11781 0.06
498 1 10.2706 0.133137 5.61026 0.22
185 1 4.59604 0.159556 8.35863 0.22
189 11 3.52977 0.0969947 8.65353 0.06
183 19 5.36389 0.638881 9.42864 -0.35
181 9 6.38891 1.6311 9.09558 0.52
184 19 7.63866 1.07694 8.69985 -0.35
504 11 9.5211 0.48876 4.93394 0.06
259 11 10.1415 4.96322 7.30324 0.06
257 1 10.2499 4.81785 8.38954 0.22
260 11 9.29606 4.64521 8.97892 0.06
186 1 8.42688 0.506163 9.81398 0.22
502 11 9.87545 -0.580132 6.31414 0.06
496 19 11.2147 -0.466514 4.73544 -0.35
495 19 13.5717 -0.592977 4.66924 -0.35
255 19 11.0407 3.60582 8.47176 -0.35
547 11 14.6583 2.50242 4.95351 0.06
546 2 15.5235 2.71427 5.66601 0.22
548 11 15.5313 1.95057 6.43818 0.06
190 11 8.55323 1.26131 10.5374 0.06
253 9 12.5056 3.76363 8.47145 0.52
256 19 13.2425 2.56832 8.33748 -0.35
334 11 19.067 20.2603 4.94972 0.06
330 1 18.3119 -0.390129 5.28354 0.22
336 11 18.921 0.504167 5.46201 0.06
335 11 17.6574 -0.154314 4.40212 0.06
328 19 17.5364 20.5116 6.42495 -0.35
325 9 18.0736 -0.485185 7.67474 0.52
326 20 18.9959 20.1877 7.98554 -0.5
327 19 18.1513 0.876002 7.995 -0.35
514 11 20.6477 1.62259 7.1173 0.06
543 19 16.7632 2.74764 4.89023 -0.35
329 1 17.3163 1.33373 9.04839 0.22
545 2 15.4727 4.11796 6.21792 0.22
550 11 15.424 4.2581 7.30302 0.06
333 11 16.2713 1.45735 8.66832 0.06
685 2 1.15005 4.60692 5.37198 0.22
688 11 2.31876 6.30485 6.01803 0.06
686 2 2.07179 5.32308 6.38382 0.22
687 11 1.55386 5.29185 7.36413 0.06
683 19 3.2699 4.62615 6.40204 -0.35
157 9 -0.464022 8.01091 8.16976 0.52
158 20 0.202428 7.48653 7.27593 -0.5
3 19 2.17778 10.9353 6.09852 -0.35
165 11 20.2703 9.62739 6.48203 0.06
7 11 2.96394 9.00264 5.50337 0.06
5 1 2.31233 9.84149 5.21279 0.22
2 20 3.77531 10.213 7.65936 -0.5
441 11 6.69097 5.83107 7.74464 0.06
437 1 5.8387 6.52837 7.92379 0.22
440 11 6.31924 7.49908 7.78717 0.06
439 11 5.12971 6.41604 7.13264 0.06
447 19 9.79837 4.59027 4.79631 -0.35
70 11 8.34993 9.38456 7.41118 0.06
66 1 8.68556 9.3716 8.41582 0.22
435 19 5.33154 6.2344 9.22853 -0.35
433 9 6.13637 6.48426 10.411 0.52
71 11 9.02406 8.3478 8.54076 0.06
261 11 10.7959 5.62715 8.74893 0.06
72 11 7.89021 9.72882 9.07324 0.06
434 20 7.39427 6.52786 10.3307 -0.5
254 20 13.0688 4.8028 8.8956 -0.5
456 11 10.9423 6.60844 6.09238 0.06
454 11 12.6746 6.62539 6.29575 0.06
549 11 14.5811 4.64583 5.83726 0.06
448 19 12.1962 5.22512 5.19707 -0.35
455 11 12.2505 7.40109 4.97189 0.06
450 1 11.9654 6.55538 5.58139 0.22
61 9 10.2823 10.2237 9.87569 0.52
64 19 9.75446 10.2378 8.57326 -0.35
63 19 11.3243 9.39356 10.0959 -0.35
470 20 14.025 8.67451 7.45173 -0.5
68 11 12.7582 10.3787 8.86548 0.06
159 19 19.4973 8.37595 7.99071 -0.35
542 20 18.6787 4.10828 5.1803 -0.5
541 9 17.5169 3.8524 5.4478 0.52
544 19 16.7841 4.65124 6.36355 -0.35
474 1 15.9931 8.04228 5.43199 0.22
479 11 17.0575 7.75356 5.40088 0.06
472 19 15.8633 9.24258 6.13411 -0.35
287 11 16.1361 6.57671 8.59637 0.06
478 11 15.5423 8.11029 4.41254 0.06
469 9 14.5758 9.49719 6.64536 0.52
286 11 16.3745 8.2987 8.69265 0.06
288 11 15.1414 7.55926 9.61689 0.06
282 1 16.2013 7.42328 9.29098 0.22
163 11 19.5436 8.23486 5.86494 0.06
161 1 19.4264 8.95193 6.6789 0.22
1 9 3.40281 11.0388 6.82257 0.52
630 11 2.70284 13.8771 8.76482 0.06
11 11 5.81637 11.5791 7.38067 0.06
4 19 3.99273 12.3257 6.79534 -0.35
6 1 5.21709 12.4589 7.46269 0.22
10 11 5.18458 12.9025 8.4518 0.06
164 11 18.5167 9.46155 6.41866 0.06
93 11 2.78518 11.3417 11.0234 0.06
12 11 5.65586 13.3049 6.98229 0.06
387 19 7.4696 14.2069 9.83149 -0.35
388 19 9.2158 14.927 8.32866 -0.35
385 9 7.82249 14.7125 8.62118 0.52
389 1 7.13523 15.243 10.6899 0.22
392 11 6.9463 14.8999 11.7077 0.06
386 20 6.96203 14.8621 7.77975 -0.5
390 1 9.78972 13.9438 7.50659 0.22
395 11 10.8361 14.1641 7.31248 0.06
32 11 10.3909 10.5091 5.18711 0.06
27 19 8.6169 11.5736 5.52331 -0.35
29 1 10.0814 11.4858 5.25161 0.22
475 11 14.5134 11.1736 4.75695 0.06
394 11 9.27025 13.9727 6.58857 0.06
69 11 12.8286 10.8996 10.5342 0.06
396 11 9.85201 12.9521 7.92192 0.06
65 1 12.5396 10.0669 9.86231 0.22
67 11 13.3206 9.35094 10.0707 0.06
42 1 14.864 14.8317 9.04912 0.22
274 11 18.296 13.7163 5.76794 0.06
276 11 19.0124 12.2649 6.38902 0.06
471 19 14.3147 10.8407 6.85199 -0.35
268 19 17.4209 11.9477 4.9826 -0.35
473 1 13.9324 11.4348 5.58514 0.22
477 11 13.9896 12.5607 5.6834 0.06
476 11 12.9081 11.0791 5.21436 0.06
135 19 19.8497 12.2361 8.91863 -0.35
133 9 20.339 13.1583 9.90885 0.52
136 19 20.4039 14.5125 9.6318 -0.35
137 1 18.8112 11.3077 9.41686 0.22
141 11 19.208 10.3428 9.50644 0.06
270 1 18.0574 12.6659 6.03728 0.22
275 11 17.3026 12.6898 6.86581 0.06
40 19 14.4124 13.5694 9.68057 -0.35
140 11 18.0061 11.2854 8.68561 0.06
627 11 3.11466 15.4491 6.4578 0.06
629 11 1.37244 14.6053 7.72042 0.06
628 11 4.31591 15.2594 7.62123 0.06
291 19 0.439389 16.5425 4.92135 -0.35
626 2 3.29122 15.6076 7.52185 0.22
625 2 2.27374 14.7837 8.29106 0.22
624 19 1.82618 15.4354 9.451 -0.35
622 20 3.15439 17.0254 10.4506 -0.5
621 9 2.73117 16.5122 9.41351 0.52
623 19 3.16512 16.8872 8.18414 -0.35
289 9 0.52056 17.5156 5.94073 0.52
290 20 1.44948 18.3785 5.8905 -0.5
393 11 7.96434 15.9246 10.769 0.06
391 11 6.2071 15.7172 10.3699 0.06
528 11 4.86616 18.3161 6.07817 0.06
526 11 6.148 17.0854 5.92153 0.06
520 19 6.74389 18.9562 6.53794 -0.35
527 11 5.56144 17.6895 7.67534 0.06
522 1 5.74466 17.9267 6.59105 0.22
519 19 9.01576 18.2016 5.70248 -0.35
521 1 9.55162 16.9183 5.60209 0.22
517 9 8.08354 18.4217 6.82435 0.52
518 20 8.56781 18.8605 7.89146 -0.5
525 11 8.93171 16.1609 5.06638 0.06
192 11 9.2789 -0.0861562 9.4755 0.06
739 26 15.6302 14.7502 5.41765 -0.39
524 11 9.81318 16.5441 6.62927 0.06
537 11 11.3888 19.1011 6.95046 0.06
535 11 12.773 18.1984 7.5619 0.06
536 11 11.811 19.0414 8.6966 0.06
533 1 12.2665 19.1322 7.6771 0.22
531 19 13.0347 20.2682 7.58484 -0.35
46 11 14.186 15.0329 8.21394 0.06
529 9 14.4102 19.9299 7.69925 0.52
530 20 15.0278 20.4664 8.55515 -0.5
144 11 18.4322 14.8481 9.07989 0.06
300 11 0.562096 18.7404 8.32296 0.06
299 11 0.197353 16.985 8.46964 0.06
538 11 16.0123 17.5163 6.11756 0.06
539 11 16.1684 17.8073 7.96331 0.06
532 19 15.033 19.1786 6.69934 -0.35
534 1 15.5658 17.9163 7.0499 0.22
540 11 14.8386 17.1669 7.28747 0.06
292 19 -0.554725 17.9924 6.71434 -0.35
138 1 19.1197 15.1619 9.79567 0.22
298 11 20.3163 18.0547 8.75318 0.06
294 1 -0.23416 17.9445 8.11505 0.22
142 11 18.7773 15.2471 10.8195 0.06
507 19 1.64198 3.53562 9.98758 -0.35
516 11 20.1632 2.19829 8.70488 0.06
509 1 2.97232 3.54327 9.63052 0.22
512 11 3.20357 4.61599 9.7251 0.06
678 11 3.8065 20.2938 11.8095 0.06
676 2 2.85288 -0.55537 11.7496 0.22
673 19 2.90291 0.360328 12.8043 -0.35
321 11 1.57857 3.07342 13.0685 0.06
317 1 2.28824 3.43122 13.7929 0.22
316 19 5.59275 3.29278 14.0017 -0.35
319 11 2.63954 2.49126 14.3434 0.06
146 20 -0.342079 0.813708 16.7737 -0.5
313 9 4.46032 4.13698 14.2039 0.52
315 19 3.38268 4.10639 13.2386 -0.35
320 11 1.85506 4.08967 14.6115 0.06
323 11 4.96029 2.31719 12.3859 0.06
318 1 5.9117 2.76117 12.7328 0.22
322 11 6.69631 1.98829 12.615 0.06
182 20 6.41824 2.606 9.93436 -0.5
324 11 6.22001 3.67449 12.1761 0.06
191 11 7.75544 -0.187656 10.2564 0.06
744 26 7.86174 3.17785 16.3676 -0.39
264 11 13.3084 2.41304 10.4556 0.06
263 11 13.7506 0.905051 9.59123 0.06
258 1 13.12 1.80499 9.53085 0.22
262 11 12.0437 1.45147 9.54989 0.06
608 11 13.8891 3.02759 14.8051 0.06
603 19 14.7525 3.03207 13.1228 -0.35
604 19 16.4576 1.62361 13.7466 -0.35
170 20 12.8407 0.860999 13.8858 -0.5
331 11 17.2449 0.615712 9.88187 0.06
332 11 17.6886 2.35032 9.40131 0.06
601 9 15.7058 2.17578 12.7139 0.52
602 20 15.8163 1.80364 11.5711 -0.5
283 11 19.8665 4.56338 12.1353 0.06
153 11 18.669 20.3559 14.3183 0.06
149 1 19.2344 -0.187678 14.603 0.22
152 11 20.2572 -0.362962 14.2632 0.06
511 11 3.1981 3.26797 8.64752 0.06
641 9 0.724543 7.14817 14.678 0.52
649 11 3.39374 7.63562 15.5707 0.06
643 19 0.863042 8.29713 13.9635 -0.35
647 11 2.64375 8.98477 13.7 0.06
646 2 1.8941 8.93658 14.5251 0.22
438 1 5.01014 7.94372 11.9053 0.22
443 11 4.47793 8.0558 12.8676 0.06
442 11 4.29331 8.11169 11.1263 0.06
167 11 1.69786 6.73145 9.52076 0.06
402 1 9.49089 3.37131 13.2659 0.22
408 11 8.68831 2.98522 12.6444 0.06
314 20 4.51736 4.89177 15.2485 -0.5
400 19 9.69243 4.75618 13.1776 -0.35
444 11 5.90359 8.61191 11.9187 0.06
436 19 5.48189 6.58057 11.7255 -0.35
407 11 9.20249 3.1419 14.2874 0.06
406 11 10.4466 2.80455 13.0624 0.06
205 9 8.73677 8.84178 15.3038 0.52
208 19 8.11405 8.39342 14.1651 -0.35
398 20 10.8241 5.9597 14.8426 -0.5
397 9 10.853 5.16881 13.8734 0.52
399 19 12.1144 4.74524 13.3658 -0.35
404 11 13.4998 5.82005 12.14 0.06
401 1 12.4658 5.34836 12.0733 0.22
405 11 12.4754 4.64318 11.2954 0.06
403 11 11.8265 6.20132 11.796 0.06
102 1 12.1608 11.3257 13.9838 0.22
108 11 11.1301 11.6272 13.6716 0.06
106 11 12.2193 10.9951 15.0135 0.06
160 19 0.00939869 7.92082 9.51955 -0.35
162 1 0.658789 6.70223 9.7954 0.22
166 11 0.223169 5.91838 9.2398 0.06
285 11 18.6179 5.45819 13.0071 0.06
281 1 19.0839 5.30235 12.0474 0.22
284 11 19.5549 6.2392 11.8424 0.06
279 19 18.1159 5.07468 11.0092 -0.35
98 20 12.1393 8.56783 14.341 -0.5
580 11 18.4319 8.66032 15.7554 0.06
642 20 0.469115 6.12471 14.1245 -0.5
168 11 0.717726 6.3136 10.8146 0.06
280 19 17.1212 7.23624 10.3544 -0.35
277 9 17.0331 5.97167 10.9723 0.52
278 20 16.0083 5.76407 11.6118 -0.5
579 11 17.1403 8.04728 14.8638 0.06
575 2 17.5787 8.04067 15.8325 0.22
89 1 1.90365 11.1 11.6191 0.22
115 11 19.7513 13.9861 13.6437 0.06
116 11 -0.0142244 13.2209 13.4475 0.06
113 1 20.5794 13.4804 14.1651 0.22
117 11 20.1078 12.5242 14.4843 0.06
111 19 -0.25575 14.0409 15.3621 -0.35
109 9 20.5495 15.2486 15.705 0.52
95 11 4.61081 14.8602 12.7998 0.06
96 11 4.14263 14.1737 14.3069 0.06
112 19 20.2809 16.1777 14.6597 -0.35
87 19 1.91466 11.6652 12.9095 -0.35
92 11 0.983079 11.425 11.1022 0.06
216 11 9.87105 8.34938 13.1083 0.06
86 20 3.93668 11.1808 13.877 -0.5
91 11 1.85127 10.0173 11.7029 0.06
210 1 8.81152 8.45783 12.9139 0.22
215 11 8.63446 9.43141 12.4305 0.06
85 9 3.23829 11.962 13.2605 0.52
88 19 3.90144 12.9306 12.5749 -0.35
637 11 10.3199 13.5901 10.187 0.06
214 11 8.41051 7.74663 12.2193 0.06
90 1 4.58504 13.8888 13.3399 0.22
763 26 7.24745 15.5419 14.0149 -0.39
94 11 5.58199 13.5001 13.4089 0.06
760 26 8.68086 13.7579 14.2192 -0.39
47 11 14.7376 15.7151 9.68176 0.06
638 11 11.6685 13.089 11.0935 0.06
636 2 11.1453 14.0025 10.7811 0.22
62 20 10.0801 11.1305 10.6061 -0.5
639 11 9.62972 14.802 12.108 0.06
635 2 10.7074 14.8878 11.964 0.22
640 11 11.152 14.5708 12.9217 0.06
107 11 12.6284 12.307 13.979 0.06
634 19 11.1184 16.1941 11.7643 -0.35
100 19 12.7784 10.3725 13.1922 -0.35
97 9 13.0527 9.21836 13.9258 0.52
134 20 20.467 12.8065 11.0516 -0.5
103 11 14.2689 7.88039 12.2838 0.06
104 11 15.0026 9.39762 12.1021 0.06
38 20 15.4601 11.6928 10.4858 -0.5
139 11 18.2873 11.588 10.2889 0.06
37 9 15.4678 12.9282 10.4322 0.52
101 1 14.9137 8.54108 12.8006 0.22
39 19 16.0716 13.6559 11.4661 -0.35
43 11 16.8043 12.4256 13.0529 0.06
41 1 16.0251 13.1412 12.7779 0.22
44 11 16.0461 14.0301 13.4062 0.06
99 19 14.3902 8.80135 14.0921 -0.35
45 11 15.0977 12.6151 12.9033 0.06
110 20 20.0273 15.4435 16.7838 -0.5
710 11 18.1887 16.5048 15.5912 0.06
680 11 2.4104 18.9628 12.4557 0.06
118 11 0.780464 17.1115 14.888 0.06
671 9 1.91671 -0.0649413 13.6661 0.52
672 20 1.57174 0.549424 14.5522 -0.5
675 2 1.81351 19.7578 12.0066 0.22
679 11 1.38786 19.45 11.0023 0.06
674 19 1.21384 20.1963 13.2157 -0.35
120 11 -0.669182 17.8923 15.7039 0.06
119 11 -0.304538 18.0346 14.0321 0.06
114 1 -0.336883 17.3182 14.822 0.22
613 19 5.01074 20.2936 15.0274 -0.35
616 2 4.55238 19.0342 14.5243 0.22
618 11 4.51666 18.7374 13.4545 0.06
652 20 6.19946 18.6575 11.0402 -0.5
651 9 7.09592 19.0456 11.7687 0.52
654 19 8.35331 18.3979 11.7958 -0.35
653 19 6.9473 20.1791 12.5462 -0.35
657 11 8.55036 -0.282906 12.5049 0.06
658 11 8.59966 20.6051 14.0952 0.06
655 2 9.26161 19.0736 12.5605 0.22
656 2 8.31849 20.2596 13.0893 0.22
660 11 10.0876 18.7889 13.2679 0.06
659 11 9.74871 19.2064 11.6093 0.06
611 9 5.86033 19.9698 16.1621 0.52
614 19 5.93876 18.5444 16.3914 -0.35
615 2 5.32037 17.9257 15.311 0.22
620 11 5.36645 16.9506 14.8793 0.06
179 11 13.1598 20.316 10.5696 0.06
180 11 14.1288 -0.59783 11.9737 0.06
48 11 15.8929 14.8179 8.6683 0.06
631 9 11.754 16.0806 10.5595 0.52
632 20 12.5012 16.9603 10.1498 -0.5
633 19 11.6638 14.8602 9.79673 -0.35
178 11 13.2385 19.3031 11.9702 0.06
174 1 13.1732 20.3198 11.6539 0.22
172 19 12.1016 -0.492105 12.2423 -0.35
169 9 12.2986 -0.222949 13.5954 0.52
173 1 13.0651 20.11 15.6819 0.22
171 19 12.1204 20.1651 14.6346 -0.35
176 11 12.9202 -0.612962 16.5109 0.06
568 11 15.4968 18.0272 11.1405 0.06
570 11 16.4346 19.921 12.7335 0.06
569 11 16.3446 20.6958 11.1743 0.06
143 11 19.3723 16.1942 9.49446 0.06
567 11 16.6968 18.6337 9.86588 0.06
565 2 16.7863 19.8848 11.6878 0.22
562 20 19.8379 18.6449 11.4424 -0.5
564 19 18.1709 19.9309 12.0067 -0.35
561 9 18.6769 18.8121 11.4741 0.52
563 19 17.7879 17.9232 10.9245 -0.35
566 2 16.5104 18.5327 10.9259 0.22
704 19 16.8287 17.8338 14.6596 -0.35
151 11 18.8846 0.617754 14.001 0.06
155 11 -0.62743 4.13994 15.6731 0.06
244 19 3.34549 3.65344 17.6639 -0.35
242 20 2.27252 1.6392 16.8534 -0.5
241 9 3.10825 2.25231 17.595 0.52
245 1 4.42623 1.45169 19.4573 0.22
243 19 4.16386 1.52601 18.1105 -0.35
246 1 2.53693 4.20045 18.6664 0.22
251 11 1.83955 4.8223 18.1172 0.06
252 11 2.04021 3.55937 19.4297 0.06
250 11 3.21856 4.95214 19.1675 0.06
247 11 3.98848 0.469644 19.7741 0.06
14 20 19.3053 1.21026 0.0688286 -0.5
154 11 19.5969 3.50312 14.6165 0.06
428 11 7.87368 19.8785 0.53866 0.06
733 31 5.70409 0.555095 17.9915 1
749 26 6.13851 3.77969 17.3691 -0.39
743 27 7.50753 3.42072 17.8846 1.34
747 26 7.03651 1.95239 17.8624 -0.39
745 26 7.05837 3.65556 19.3272 -0.39
746 26 7.97346 4.87844 17.7906 -0.39
748 26 8.98688 3.02967 18.2721 -0.39
49 9 11.2559 1.82896 -0.535891 0.52
51 19 11.5135 1.89263 19.4812 -0.35
56 11 11.5058 0.52585 17.8417 0.06
607 11 15.2026 4.22433 14.9397 0.06
606 2 14.9167 3.25079 14.5207 0.22
605 2 15.9309 2.20142 14.9541 0.22
610 11 15.3854 1.22203 15.0756 0.06
57 11 11.7087 -0.166049 19.2834 0.06
53 1 11.2686 0.636797 18.8794 0.22
560 11 11.708 4.23165 16.6613 0.06
559 11 12.7578 3.41512 17.6882 0.06
609 11 16.3145 2.37863 15.9257 0.06
55 11 10.2189 0.39718 18.8829 0.06
722 20 16.2549 0.31035 17.5351 -0.5
15 19 -0.210329 0.110086 -0.635173 -0.35
147 19 19.0325 0.236993 15.9531 -0.35
145 9 19.9558 1.15481 16.4639 0.52
22 11 18.6878 19.245 19.1411 0.06
16 19 18.9482 20.6014 20.5929 -0.35
13 9 19.784 0.277196 -0.555221 0.52
18 1 19.016 20.2584 19.2426 0.22
23 11 18.4075 -0.618147 18.5505 0.06
148 19 19.5992 2.48137 16.5173 -0.35
156 11 -0.345372 2.6135 15.052 0.06
150 1 20.2529 3.19944 15.4309 0.22
24 11 20.0423 20.264 18.8677 0.06
644 19 1.58239 7.00253 15.7647 -0.35
645 2 2.39117 8.12444 15.6839 0.22
648 11 1.76283 9.94203 14.9548 0.06
650 11 2.39731 8.71126 16.6551 0.06
356 11 0.969675 12.942 17.9261 0.06
353 1 1.21328 11.9136 17.6048 0.22
201 11 3.60078 10.1589 18.8699 0.06
207 19 8.27498 9.83826 16.1665 -0.35
734 31 5.43139 5.06495 16.615 1
197 1 3.93715 9.12247 18.9281 0.22
200 11 4.47267 9.12987 19.7611 0.06
195 19 4.81144 8.58571 17.9004 -0.35
206 20 9.66031 8.20272 15.6595 -0.5
193 9 5.4457 7.35474 18.3563 0.52
194 20 5.18227 6.31124 17.7507 -0.5
196 19 6.54084 7.34498 19.3558 -0.35
202 11 7.9203 7.58497 18.0056 0.06
203 11 7.56604 9.04925 18.9938 0.06
198 1 7.67185 7.99291 18.9732 0.22
204 11 8.37796 7.61181 19.732 0.06
199 11 3.11586 8.45491 19.2169 0.06
557 11 12.2587 4.75628 19.558 0.06
555 2 12.4849 4.41994 17.3763 0.22
732 31 11.2811 7.43246 15.3982 1
556 2 11.8499 5.11237 18.6002 0.22
554 19 13.3116 5.46997 16.8987 -0.35
551 9 12.7516 6.60771 17.3865 0.52
553 19 12.0316 6.47868 18.496 -0.35
552 20 12.5373 7.60898 16.6732 -0.5
464 11 12.4891 9.52228 19.7797 0.06
599 11 20.3043 6.94259 19.5825 0.06
595 2 20.378 7.67011 20.4117 0.22
594 19 -0.559008 7.32901 0.188743 -0.35
596 2 19.0389 8.51082 20.644 0.22
574 19 17.4963 6.74708 16.2595 -0.35
600 11 -0.333261 8.33319 19.9411 0.06
577 11 15.864 9.17753 16.4196 0.06
571 9 16.6258 6.81455 17.4315 0.52
572 20 16.4632 5.79313 18.1021 -0.5
573 19 16.3878 8.11506 17.8974 -0.35
576 2 16.7965 8.96737 16.8386 0.22
578 11 17.238 9.96594 16.8511 0.06
598 11 19.3008 9.41139 -0.337011 0.06
350 20 19.8289 10.659 16.7592 -0.5
351 19 0.29342 10.9132 17.9234 -0.35
355 11 2.21541 11.8174 17.9912 0.06
382 11 2.27882 15.637 17.8722 0.06
383 11 3.62619 16.3035 18.744 0.06
378 1 3.31314 15.494 18.0933 0.22
384 11 3.90323 15.6607 17.2335 0.06
376 19 3.37924 14.1485 18.7043 -0.35
373 9 4.67029 13.6298 18.7563 0.52
374 20 4.79906 12.675 19.5524 -0.5
358 11 18.1777 13.481 18.8981 0.06
379 11 6.52442 15.6617 19.2808 0.06
213 11 7.3277 11.2439 14.8646 0.06
211 11 6.50066 9.79021 15.0183 0.06
375 19 5.78289 14.1612 18.0781 -0.35
131 11 7.35159 10.3029 1.29661 0.06
209 1 7.07929 10.451 15.6268 0.22
212 11 6.30632 10.7673 16.3569 0.06
757 27 8.16876 14.8702 15.172 1.34
124 19 8.46153 10.1945 -0.425976 -0.35
126 1 7.73163 10.9711 0.488528 0.22
132 11 8.45148 11.6036 1.05284 0.06
758 26 6.99456 13.8774 15.484 -0.39
762 26 9.0314 14.1615 16.2344 -0.39
759 26 9.42144 15.8089 14.7677 -0.39
129 11 9.76732 11.7071 17.3615 0.06
236 11 8.77881 17.0838 19.0791 0.06
584 19 13.0417 14.4849 15.2719 -0.35
123 19 9.88047 10.6795 19.081 -0.35
463 11 14.0107 9.59093 18.8475 0.06
121 9 9.74938 10.5783 20.4691 0.52
461 1 13.2406 10.1561 19.3775 0.22
465 11 12.7436 10.7537 18.585 0.06
587 11 11.3623 13.7433 17.8222 0.06
122 20 10.5158 11.2665 -0.251167 -0.5
128 11 9.80001 12.7996 18.8133 0.06
125 1 9.42216 11.8606 18.3995 0.22
237 11 9.33531 15.5974 19.7348 0.06
127 11 8.33276 11.919 18.2968 0.06
586 2 12.362 14.0013 17.4534 0.22
583 19 13.6453 13.4906 17.2715 -0.35
581 9 13.9556 13.6207 15.9162 0.52
582 20 14.7116 12.8462 15.3117 -0.5
468 11 15.5255 14.4542 -0.585581 0.06
105 11 15.9243 8.12992 12.8226 0.06
349 9 20.3956 11.4098 17.5929 0.52
352 19 19.8568 12.2875 18.5662 -0.35
459 19 13.9294 10.8371 20.3765 -0.35
457 9 14.5616 12.0699 19.9566 0.52
359 11 18.6704 13.4649 17.0936 0.06
708 11 16.2174 15.2927 16.1626 0.06
458 20 15.6537 12.167 19.3839 -0.5
360 11 18.0169 12.0525 17.9921 0.06
354 1 18.674 12.9125 18.0482 0.22
420 11 0.138334 17.3316 20.5298 0.06
617 11 3.49178 18.9355 14.6893 0.06
248 11 5.46535 1.34317 19.7996 0.06
426 1 4.77177 18.783 20.5738 0.22
432 11 3.71289 18.9478 -0.652141 0.06
430 11 4.8291 17.958 19.8535 0.06
731 31 1.19401 0.362884 16.2581 1
753 26 0.614772 19.1329 17.3044 -0.39
756 26 2.61783 18.3002 16.9251 -0.39
750 27 2.04498 19.4718 17.7521 1.34
752 26 1.8459 18.5296 18.9516 -0.39
751 26 2.22393 20.3317 16.5628 -0.39
755 26 1.50171 20.7161 18.535 -0.39
754 26 3.55612 19.83 18.2417 -0.39
427 11 8.63613 0.0731694 0.298683 0.06
425 1 8.39194 20.531 -0.209045 0.22
612 20 5.96442 -0.591975 16.993 -0.5
619 11 4.94845 17.7157 16.3007 0.06
424 19 5.39377 19.9787 20.1466 -0.35
421 9 6.74944 19.8131 19.9104 0.52
423 19 7.64218 -0.559246 20.0417 -0.35
761 26 7.68896 15.9198 16.2065 -0.39
238 11 9.86336 19.9906 16.6554 0.06
422 20 7.07857 18.8031 19.2654 -0.5
234 1 9.524 18.9198 16.6824 0.22
239 11 8.99393 18.6499 15.7484 0.06
240 11 8.73861 18.982 17.4712 0.06
235 11 9.63157 17.1986 20.5089 0.06
233 1 9.593 16.626 19.5627 0.22
589 11 11.626 14.396 15.6305 0.06
585 2 12.2248 15.0054 16.3235 0.22
590 11 11.7098 15.8951 16.6191 0.06
175 11 14.0397 20.397 15.3195 0.06
588 11 12.845 14.5924 18.2535 0.06
721 9 15.6876 -0.462872 18.2692 0.52
177 11 13.2285 19.1098 16.1459 0.06
231 19 10.7886 16.7513 18.8192 -0.35
232 19 10.7174 18.1556 16.9039 -0.35
229 9 10.9936 18.0493 18.2782 0.52
230 20 11.6424 18.8433 18.8833 -0.5
730 11 14.3917 18.696 18.3261 0.06
725 2 15.0308 19.0835 19.118 0.22
724 19 15.8884 19.5335 18.1394 -0.35
414 1 -0.47184 16.8508 19.7642 0.22
702 20 14.8667 17.723 13.7777 -0.5
709 11 17.7236 18.0292 16.3672 0.06
705 2 17.3453 17.1576 15.775 0.22
418 11 -0.0918696 15.8494 19.7056 0.06
707 11 15.9816 16.5395 17.3205 0.06
706 2 16.2314 16.3546 16.3062 0.22
703 19 15.0072 16.9497 15.9083 -0.35
729 11 15.4819 18.4171 19.8304 0.06
701 9 15.5567 17.5033 14.7179 0.52
ITEM: TIMESTEP
950
ITEM: NUMBER OF ATOMS
770
ITEM: BOX BOUNDS pp pp pp
-7.1119868949576492e-01 2.0711198689495816e+01
-7.1119868949576492e-01 2.0711198689495816e+01
-7.1119868949576492e-01 2.0711198689495816e+01
ITEM: ATOMS id type x y z c_charge
74 20 2.30319 0.0132135 3.13922 -0.5
73 9 1.19309 0.391991 3.40891 0.52
75 19 0.44626 1.07769 2.44764 -0.35
77 1 -0.617683 1.90169 2.87442 0.22
81 11 20.011 1.14083 3.00838 0.06
684 19 2.07439 3.8063 4.72836 -0.35
76 19 0.481172 -0.216612 4.51878 -0.35
309 11 4.06223 2.35057 2.21478 0.06
249 11 4.86797 2.69146 19.7528 0.06
308 11 2.53518 2.96515 2.28636 0.06
305 1 3.55252 3.282 2.01968 0.22
79 11 -0.394499 2.36293 3.86547 0.06
489 11 1.38702 18.6401 3.18046 0.06
488 11 2.35531 18.692 1.7167 0.06
19 11 1.36973 20.1641 -0.41608 0.06
303 19 3.61012 3.7822 0.687607 -0.35
692 20 6.09222 1.4487 1.54811 -0.5
691 9 6.27331 0.472303 2.26675 0.52
694 19 7.51419 0.149687 2.78759 -0.35
693 19 5.23881 -0.268057 2.8668 -0.35
54 1 9.31291 3.34898 -0.0569177 0.22
60 11 8.92943 3.04132 -1.07845 0.06
696 2 5.81387 20.2226 3.70238 0.22
453 11 8.70155 2.46596 5.29725 0.06
698 11 5.40313 19.3919 3.0919 0.06
695 2 7.35693 20.3974 3.50598 0.22
58 11 8.82336 2.85782 0.776846 0.06
59 11 9.19171 4.39386 0.0460255 0.06
449 1 9.15772 3.10388 4.50583 0.22
451 11 8.25888 3.41367 3.99439 0.06
699 11 7.95222 20.8821 4.30603 0.06
697 11 5.42823 19.9817 4.68028 0.06
307 11 3.85252 3.97209 2.81358 0.06
52 19 10.7643 3.13832 0.120733 -0.35
348 11 16.8497 2.61723 1.21369 0.06
50 20 11.8061 1.14971 0.299694 -0.5
342 1 16.0674 1.98319 0.777356 0.22
347 11 16.2548 1.80286 -0.271831 0.06
338 20 13.4896 4.46447 0.693623 -0.5
337 9 14.5895 3.89559 0.533542 0.52
346 11 16.0951 1.00846 1.24333 0.06
340 19 14.7285 2.52995 0.898815 -0.35
339 19 15.6823 4.83798 0.708897 -0.35
493 9 12.3757 0.267165 4.68368 0.52
497 1 14.4121 -0.401261 3.5405 0.22
494 20 12.4677 1.46123 4.42521 -0.5
499 11 14.3004 20.229 2.80746 0.06
343 11 16.7064 6.3781 -0.26778 0.06
345 11 15.5182 5.58936 20.1984 0.06
341 1 16.1616 5.43228 -0.440454 0.22
17 1 0.36158 20.341 -0.136561 0.22
20 11 0.490764 20.6757 0.863253 0.06
80 11 20.4907 2.65609 2.10823 0.06
690 11 1.22715 5.02358 4.58201 0.06
306 1 2.42062 6.46939 1.19625 0.22
311 11 2.98552 6.56521 2.13619 0.06
312 11 2.02989 7.47134 1.10798 0.06
592 20 19.9874 7.21732 2.16404 -0.5
8 11 1.2456 9.13824 5.54854 0.06
9 11 2.54498 9.42629 4.27974 0.06
301 9 4.1495 5.04923 0.450134 0.52
304 19 3.26746 6.10402 0.101921 -0.35
310 11 1.50127 5.86046 1.37573 0.06
452 11 9.66336 2.36901 3.81493 0.06
302 20 5.29077 5.22417 0.653372 -0.5
714 19 8.60523 7.30543 3.46003 -0.35
716 2 6.31154 7.02282 3.10263 0.22
713 19 6.48618 6.95314 4.57378 -0.35
711 9 7.89235 7.09602 4.7254 0.52
719 11 7.73621 6.01427 1.78946 0.06
720 11 7.92203 7.74432 1.89982 0.06
715 2 7.65698 6.88722 2.49663 0.22
717 11 5.76715 6.03277 3.14728 0.06
712 20 8.38876 7.4337 5.81844 -0.5
446 20 11.2904 4.69692 3.22266 -0.5
363 19 14.128 8.0575 0.635912 -0.35
368 11 16.063 8.89112 0.137643 0.06
735 31 12.5572 5.05877 2.05476 1
361 9 13.3506 7.80665 1.75254 0.52
362 20 13.2332 6.6719 2.14964 -0.5
364 19 13.2052 8.83787 2.714 -0.35
365 1 15.4047 8.60489 0.952307 0.22
369 11 15.2586 9.49667 1.59907 0.06
445 9 11.0771 4.70379 4.43411 0.52
558 11 10.5829 4.78438 18.612 0.06
591 9 19.9093 7.59409 1.01798 0.52
344 11 16.9795 4.8523 20.5229 0.06
597 11 18.5731 8.03777 20.6265 0.06
593 19 18.9688 8.57073 0.602786 -0.35
367 11 15.9836 7.83112 1.50204 0.06
480 11 15.3001 6.868 6.0319 0.06
670 11 20.5389 9.90423 2.63872 0.06
669 11 0.703202 10.0942 3.24048 0.06
665 2 0.130817 10.1643 2.30375 0.22
664 19 1.08907 9.42639 1.60922 -0.35
661 9 1.60263 10.2997 0.71618 0.52
663 19 0.846573 11.4391 0.544134 -0.35
666 2 -0.00423099 11.5368 1.68765 0.22
668 11 20.3699 11.7021 1.52232 0.06
667 11 0.21648 12.1899 2.51137 0.06
662 20 2.47591 9.94167 -0.0595137 -0.5
357 11 1.84301 12.5861 17.2862 0.06
380 11 6.88643 14.2342 19.8943 0.06
381 11 7.72524 14.6791 18.5633 0.06
377 1 6.74643 14.7539 18.9342 0.22
718 11 5.68765 7.63342 2.48488 0.06
36 11 5.94969 12.2968 2.86529 0.06
26 20 7.96715 10.3527 3.52237 -0.5
25 9 7.83982 11.1753 4.42102 0.52
227 11 10.3824 15.4651 1.74691 0.06
222 1 11.4097 15.3045 1.53203 0.22
30 1 6.13073 12.6658 3.87773 0.22
34 11 5.18423 13.0775 4.10336 0.06
28 19 6.54003 11.6808 4.74416 -0.35
35 11 6.70771 13.4898 3.75894 0.06
130 11 6.84031 11.3992 -0.603926 0.06
372 11 12.3992 10.7912 2.9006 0.06
370 11 13.0128 10.3587 1.31363 0.06
366 1 12.5298 9.97462 2.16661 0.22
371 11 11.4933 9.58142 1.93641 0.06
226 11 11.9203 15.3446 2.45156 0.06
737 26 15.0942 13.3513 3.86895 -0.39
228 11 11.4339 14.2466 1.21543 0.06
33 11 9.87987 12.7859 4.64425 0.06
460 19 13.8399 13.228 20.0085 -0.35
467 11 14.426 14.8458 0.0422045 0.06
31 11 10.8111 11.6792 5.73717 0.06
462 1 14.5681 14.393 20.4831 0.22
466 11 14.3358 15.2361 19.8769 0.06
266 20 19.3981 11.5739 4.14656 -0.5
272 11 17.1102 11.6773 1.05971 0.06
273 11 15.8951 11.7722 2.35359 0.06
271 11 17.3508 12.9926 2.24211 0.06
269 1 16.9632 11.9185 2.10994 0.22
267 19 17.6631 10.9961 2.86761 -0.35
265 9 18.1838 11.4614 4.10273 0.52
490 11 2.66139 13.5311 -0.197861 0.06
419 11 -0.233987 16.9606 18.9687 0.06
486 1 3.03949 14.0816 0.693978 0.22
491 11 3.97713 14.6167 0.446763 0.06
492 11 3.32136 13.3184 1.41255 0.06
484 19 1.95266 14.8134 1.28693 -0.35
481 9 2.25101 16.2023 1.20584 0.52
482 20 2.63252 16.5722 0.142551 -0.5
483 19 1.38195 16.9727 1.96003 -0.35
487 11 3.00651 17.8585 3.074 0.06
485 1 2.06234 18.0855 2.53466 0.22
431 11 5.40172 18.9055 0.229215 0.06
295 11 20.2641 17.3664 3.88541 0.06
296 11 20.5 15.6729 3.63835 0.06
768 26 5.73162 15.685 2.25315 -0.39
770 26 6.5552 17.5864 2.04584 -0.39
766 26 7.72514 16.0193 3.06436 -0.39
764 27 7.07625 16.2107 1.68844 1.34
765 26 6.37784 16.3455 0.350124 -0.39
769 26 7.67045 14.8338 1.31768 -0.39
429 11 9.18428 19.9353 -0.474382 0.06
767 26 8.3549 16.8081 1.06 -0.39
700 11 7.62409 19.3626 3.47842 0.06
225 11 11.39 19.1086 3.09682 0.06
220 19 11.9088 16.1924 0.525761 -0.35
523 11 10.0746 16.9068 4.8741 0.06
223 11 11.5363 19.6476 1.42457 0.06
500 11 14.4432 0.545711 3.00491 0.06
501 11 15.396 20.8518 3.8504 0.06
736 27 14.8786 14.8511 4.12755 1.34
741 26 13.4748 14.5956 4.77592 -0.39
740 26 14.2705 14.9717 2.71037 -0.39
738 26 14.6723 16.3948 4.40855 -0.39
728 11 13.6614 20.0705 20.404 0.06
217 9 12.8733 17.1831 0.952536 0.52
218 20 13.9582 17.2934 0.311897 -0.5
224 11 10.5641 18.174 1.862 0.06
221 1 11.4416 18.7891 2.0805 0.22
219 19 12.6694 18.0219 2.06264 -0.35
727 11 15.2153 20.1071 -0.348998 0.06
723 19 14.8634 -0.105846 19.2951 -0.35
726 2 14.7179 20.1498 20.1015 0.22
742 26 16.3154 15.1675 3.54421 -0.39
417 11 17.0432 15.6989 1.49783 0.06
409 9 19.1418 15.9619 -0.342733 0.52
410 20 18.7866 14.8069 -0.737365 -0.5
413 1 17.5395 16.6571 1.19269 0.22
415 11 17.2865 17.3871 1.99024 0.06
416 11 16.9887 17.0665 0.340738 0.06
411 19 18.9295 16.4022 0.964016 -0.35
293 1 20.5311 16.4624 4.39901 0.22
297 11 19.6177 16.1255 5.00747 0.06
412 19 19.6865 16.8474 20.1847 -0.35
21 11 -0.16838 19.3818 0.0102041 0.06
689 11 0.0824138 4.58811 5.77657 0.06
78 1 1.22593 -0.141858 5.74765 0.22
84 11 0.952207 -0.884571 6.47427 0.06
83 11 1.29122 0.823565 6.23953 0.06
82 11 2.2764 20.9193 5.59429 0.06
510 1 -0.704523 1.71191 8.04553 0.22
506 20 1.14376 1.18146 10.2224 -0.5
508 19 0.638498 2.29362 8.22335 -0.35
505 9 1.19147 2.16694 9.53526 0.52
188 11 5.33663 20.7266 7.79182 0.06
681 9 3.16808 3.72455 5.59262 0.52
682 20 4.19467 3.11729 5.28515 -0.5
187 11 4.76057 1.05084 7.43237 0.06
513 11 3.62596 2.55251 10.1767 0.06
515 11 -0.825548 0.633425 8.33156 0.06
677 11 3.81187 20.4704 11.2129 0.06
503 11 10.9562 0.995141 6.50735 0.06
498 1 10.4462 0.221644 5.85355 0.22
185 1 4.80019 0.175383 8.13205 0.22
189 11 3.78063 -0.112656 8.29508 0.06
183 19 5.382 0.472208 9.42902 -0.35
181 9 6.35044 1.54434 9.25579 0.52
184 19 7.62114 1.07207 8.77075 -0.35
504 11 9.54242 0.723109 5.4998 0.06
259 11 9.60115 5.06893 7.74214 0.06
257 1 10.084 4.61398 8.57164 0.22
260 11 9.48073 4.28039 9.34615 0.06
186 1 8.43264 0.291314 9.75174 0.22
502 11 10.1452 -0.605048 6.50116 0.06
496 19 11.1046 -0.317764 4.74687 -0.35
495 19 13.5213 -0.467503 4.69165 -0.35
255 19 10.8604 3.43973 8.1317 -0.35
547 11 15.2489 2.99662 4.50624 0.06
546 2 15.6953 2.78415 5.4598 0.22
548 11 15.0833 1.99491 5.93802 0.06
190 11 8.86529 1.05237 10.4307 0.06
253 9 12.3118 3.67679 8.22488 0.52
256 19 13.0958 2.53575 7.99202 -0.35
334 11 18.9676 20.6382 4.80428 0.06
330 1 18.418 -0.0103717 5.26992 0.22
336 11 19.1454 0.70978 5.60753 0.06
335 11 17.8152 0.442986 4.52666 0.06
328 19 17.579 20.8326 6.16727 -0.35
325 9 17.9329 -0.404636 7.53227 0.52
326 20 18.6335 20.1803 8.09028 -0.5
327 19 17.84 0.877007 8.02817 -0.35
514 11 20.4392 1.80366 6.9947 0.06
543 19 16.9728 2.7909 4.95292 -0.35
329 1 17.28 0.823631 9.33409 0.22
545 2 15.5707 4.05325 6.28937 0.22
550 11 15.3891 3.73281 7.32461 0.06
333 11 16.3585 0.312923 9.41014 0.06
685 2 1.11577 4.50732 5.50926 0.22
688 11 2.09419 6.24865 6.11068 0.06
686 2 1.95883 5.2371 6.54083 0.22
687 11 1.51255 5.09463 7.49937 0.06
683 19 3.19267 4.61293 6.64833 -0.35
157 9 -0.460183 8.01933 8.12908 0.52
158 20 0.318906 7.64057 7.17198 -0.5
3 19 2.37088 10.9 5.89806 -0.35
165 11 19.8035 8.93294 5.9094 0.06
7 11 2.93065 8.8799 5.88891 0.06
5 1 2.27285 9.55348 5.3402 0.22
2 20 3.76093 10.1915 7.70788 -0.5
441 11 6.9205 5.87833 7.84386 0.06
437 1 5.98261 6.3982 7.98735 0.22
440 11 6.27527 7.4528 7.88993 0.06
439 11 5.33452 6.23952 7.07879 0.06
447 19 9.90042 4.25698 5.07729 -0.35
70 11 8.27745 9.40191 7.37128 0.06
66 1 8.6498 9.22669 8.38863 0.22
435 19 5.29927 6.12876 9.23599 -0.35
433 9 6.14763 6.52202 10.3385 0.52
71 11 9.01304 8.21962 8.24047 0.06
261 11 10.7231 5.38039 9.04762 0.06
72 11 7.77147 9.34065 9.03235 0.06
434 20 7.34356 6.72642 10.1945 -0.5
254 20 12.7834 4.76996 8.59378 -0.5
456 11 10.8197 7.01968 5.34366 0.06
454 11 12.5718 7.45917 5.81384 0.06
549 11 14.7184 4.63055 5.97651 0.06
448 19 12.0375 5.39101 5.15108 -0.35
455 11 12.0867 7.25529 4.27439 0.06
450 1 11.8322 6.79957 5.22659 0.22
61 9 10.2554 10.1008 9.82019 0.52
64 19 9.67297 10.2111 8.56318 -0.35
63 19 11.2724 9.22446 10.0387 -0.35
470 20 14.0598 8.42822 7.23455 -0.5
68 11 12.4512 9.90872 8.53716 0.06
159 19 19.5704 8.49846 7.89755 -0.35
542 20 18.8394 4.04438 5.65054 -0.5
541 9 17.6201 3.90821 5.52656 0.52
544 19 16.8422 4.73582 6.30248 -0.35
474 1 15.7696 7.56797 5.36957 0.22
479 11 16.739 7.10727 5.1873 0.06
472 19 15.9237 8.89132 5.88919 -0.35
287 11 16.4184 6.94562 8.35352 0.06
478 11 15.1693 7.55139 4.47224 0.06
469 9 14.7543 9.25178 6.69032 0.52
286 11 15.912 8.34877 9.21566 0.06
288 11 15.1969 6.8571 9.56491 0.06
282 1 16.1209 7.28762 9.32963 0.22
163 11 19.1304 7.48737 6.11321 0.06
161 1 19.1577 8.43474 6.57082 0.22
1 9 3.35924 11.0758 6.91957 0.52
630 11 2.77553 14.1575 9.06928 0.06
11 11 5.84933 11.097 7.42293 0.06
4 19 4.08868 12.2628 6.97947 -0.35
6 1 5.41632 12.1307 7.44372 0.22
10 11 5.49822 12.5581 8.4161 0.06
164 11 18.204 8.8594 6.36056 0.06
93 11 2.44916 10.9171 10.956 0.06
12 11 6.10411 12.8414 7.06283 0.06
387 19 7.61966 14.1382 9.78045 -0.35
388 19 9.37082 14.9405 8.37317 -0.35
385 9 7.97797 14.7115 8.58271 0.52
389 1 7.30615 15.1832 10.7517 0.22
392 11 6.78847 14.7184 11.5792 0.06
386 20 7.12086 15.2779 7.88018 -0.5
390 1 9.98704 13.9471 7.58632 0.22
395 11 11.0082 14.2015 7.38057 0.06
32 11 10.4529 11.1605 4.01822 0.06
27 19 8.83133 11.3456 5.41633 -0.35
29 1 10.0459 11.793 4.8899 0.22
475 11 15.0761 11.3213 5.06031 0.06
394 11 9.45954 13.7735 6.62447 0.06
69 11 12.8997 10.4826 10.1546 0.06
396 11 10.1817 13.0348 8.13997 0.06
65 1 12.5331 9.63917 9.60621 0.22
67 11 13.3043 8.84055 9.6653 0.06
42 1 15.0056 14.4585 8.86885 0.22
274 11 18.3127 13.528 5.96663 0.06
276 11 18.7333 12.0048 6.58703 0.06
471 19 14.321 10.6014 6.78742 -0.35
268 19 17.2997 11.9196 5.08037 -0.35
473 1 14.1072 11.1832 5.58256 0.22
477 11 13.6563 12.1138 5.6853 0.06
476 11 13.633 10.5225 4.90937 0.06
135 19 19.6906 12.2671 9.09579 -0.35
133 9 20.0648 13.2532 10.0074 0.52
136 19 20.2738 14.5241 9.53618 -0.35
137 1 18.842 11.2695 9.56686 0.22
141 11 19.561 10.5276 10.0513 0.06
270 1 17.8736 12.5634 6.17957 0.22
275 11 17.1428 12.6612 6.9512 0.06
40 19 14.3476 13.616 9.73609 -0.35
140 11 18.2069 10.8459 8.77578 0.06
627 11 2.73421 15.9906 6.53902 0.06
629 11 1.50234 14.2262 7.86742 0.06
628 11 4.1022 15.2559 7.33694 0.06
291 19 0.359412 16.4304 5.05244 -0.35
626 2 3.11345 15.7053 7.52955 0.22
625 2 2.2488 14.8166 8.4082 0.22
624 19 2.15416 15.4479 9.6433 -0.35
622 20 2.96916 17.4147 10.439 -0.5
621 9 2.9065 16.6399 9.51235 0.52
623 19 3.60904 16.773 8.36328 -0.35
289 9 0.492793 17.6543 5.70002 0.52
290 20 1.53224 18.1633 5.64577 -0.5
393 11 8.16902 15.7302 11.1277 0.06
391 11 6.55358 15.9018 10.4515 0.06
528 11 4.86519 18.1917 6.7064 0.06
526 11 5.91343 17.2665 5.69057 0.06
520 19 6.74736 18.9259 6.58913 -0.35
527 11 6.03933 17.2616 7.49679 0.06
522 1 5.86888 17.7912 6.58791 0.22
519 19 8.65815 18.3032 5.67082 -0.35
521 1 9.5723 17.193 5.77449 0.22
517 9 8.03467 18.5651 6.83125 0.52
518 20 8.72818 18.9399 7.73247 -0.5
525 11 9.13449 16.2723 6.02224 0.06
192 11 9.10432 -0.363839 9.19091 0.06
739 26 15.5233 14.6368 5.52445 -0.39
524 11 10.2362 17.3462 6.61375 0.06
537 11 11.5054 19.2832 6.81919 0.06
535 11 12.441 17.9936 7.455 0.06
536 11 11.3461 19.0594 8.46158 0.06
533 1 12.059 19.0374 7.66292 0.22
531 19 13.0148 20.0977 7.67205 -0.35
46 11 14.3054 14.9701 8.20946 0.06
529 9 14.3461 19.6547 7.66269 0.52
530 20 15.0665 19.9233 8.61245 -0.5
144 11 18.1801 14.7409 9.70686 0.06
300 11 0.524086 18.8009 8.15545 0.06
299 11 0.121385 17.1923 8.32307 0.06
538 11 16.3183 17.7212 6.07232 0.06
539 11 16.3025 18.1258 7.79996 0.06
532 19 14.8461 18.9387 6.58568 -0.35
534 1 15.7126 17.8892 6.93135 0.22
540 11 15.3291 16.9348 7.26812 0.06
292 19 -0.616146 18.1049 6.59266 -0.35
138 1 19.163 15.3117 9.85462 0.22
298 11 20.2944 18.3006 8.55875 0.06
294 1 -0.22269 18.1212 7.95103 0.22
142 11 19.2998 15.6237 10.9113 0.06
507 19 1.83291 3.27403 10.0895 -0.35
516 11 19.8601 2.21039 8.58211 0.06
509 1 3.13369 3.24389 9.63674 0.22
512 11 3.68848 4.15254 9.76343 0.06
678 11 3.77094 20.9495 12.8861 0.06
676 2 3.09431 -0.586051 12.0251 0.22
673 19 2.58726 0.4362 12.8072 -0.35
321 11 1.5239 3.84416 13.2049 0.06
317 1 2.30798 3.73745 13.9943 0.22
316 19 5.66939 3.41815 14.0736 -0.35
319 11 2.39298 2.72583 14.1821 0.06
146 20 -0.388578 0.83085 17.0026 -0.5
313 9 4.57817 4.22284 14.4261 0.52
315 19 3.53114 4.34431 13.4963 -0.35
320 11 1.97949 4.22639 14.8777 0.06
323 11 4.90549 2.76299 12.1358 0.06
318 1 5.72949 3.29747 12.6027 0.22
322 11 6.50527 2.58528 12.3565 0.06
182 20 5.98846 2.69349 9.38347 -0.5
324 11 6.09205 4.17782 12.1119 0.06
191 11 7.80412 -0.378127 10.3622 0.06
744 26 7.86677 3.10485 16.2332 -0.39
264 11 13.6479 2.23239 9.97751 0.06
263 11 13.6338 0.86414 8.95159 0.06
258 1 13.0823 1.74296 9.20697 0.22
262 11 12.11 1.44072 9.53653 0.06
608 11 14.1387 3.07707 14.6015 0.06
603 19 14.6644 3.01962 13.0932 -0.35
604 19 16.3752 1.48178 13.4884 -0.35
170 20 12.491 0.811561 13.8034 -0.5
331 11 18.0091 0.390361 9.9958 0.06
332 11 17.1267 1.82823 9.57804 0.06
601 9 15.6219 2.1926 12.5643 0.52
602 20 15.6962 1.82964 11.4061 -0.5
283 11 20.1454 5.25212 11.887 0.06
153 11 18.6406 20.4802 14.7218 0.06
149 1 19.2555 -0.0238089 14.889 0.22
152 11 20.2765 -0.421544 14.8604 0.06
511 11 3.33956 2.82264 8.6244 0.06
641 9 0.813399 7.01945 14.5853 0.52
649 11 3.32197 8.06785 15.4398 0.06
643 19 0.837534 8.21295 14.0347 -0.35
647 11 2.03477 9.0603 14.0162 0.06
646 2 1.52413 9.03489 14.9482 0.22
438 1 5.0414 8.01996 11.691 0.22
443 11 4.01125 8.02861 12.0325 0.06
442 11 4.97387 8.5002 10.681 0.06
167 11 1.68961 6.74815 9.32852 0.06
402 1 9.55496 3.43488 13.3892 0.22
408 11 9.44428 2.82536 12.4897 0.06
314 20 4.76179 5.06939 15.2857 -0.5
400 19 10.0691 4.74781 13.0116 -0.35
444 11 5.6651 8.53454 12.3966 0.06
436 19 5.53265 6.65739 11.6394 -0.35
407 11 8.51656 3.41139 13.7761 0.06
406 11 10.2088 2.85963 14.0114 0.06
205 9 8.54426 9.11491 15.1647 0.52
208 19 7.90547 8.83575 13.8982 -0.35
398 20 10.8202 6.04283 14.8481 -0.5
397 9 11.0726 5.25187 13.9338 0.52
399 19 12.4026 5.16487 13.4261 -0.35
404 11 13.4422 5.26742 11.7043 0.06
401 1 12.451 5.10509 12.0197 0.22
405 11 12.1136 4.04754 11.7239 0.06
403 11 11.8136 5.87071 11.5669 0.06
102 1 11.9359 11.2692 14.0423 0.22
108 11 10.9289 10.9899 14.257 0.06
106 11 12.4686 11.6783 14.9347 0.06
160 19 -0.0534394 7.99337 9.46964 -0.35
162 1 0.75991 6.88048 9.89732 0.22
166 11 0.217122 5.8723 9.98592 0.06
285 11 18.8153 5.21827 13.0239 0.06
281 1 19.1305 5.66952 12.0614 0.22
284 11 19.294 6.73596 12.323 0.06
279 19 18.3129 5.28787 10.9954 -0.35
98 20 12.089 8.32893 14.1512 -0.5
580 11 17.8856 9.09353 15.1175 0.06
642 20 0.169324 6.1122 14.1036 -0.5
168 11 1.18532 7.13996 10.8778 0.06
280 19 17.1688 7.24129 10.2395 -0.35
277 9 17.1389 6.06039 10.9849 0.52
278 20 16.1912 5.86067 11.7599 -0.5
579 11 16.5564 7.96649 15.2512 0.06
575 2 17.4378 8.35635 15.811 0.22
89 1 1.59959 10.9308 11.6538 0.22
115 11 20.0808 13.8496 13.7855 0.06
116 11 -0.0602916 12.7146 13.9666 0.06
113 1 20.6183 13.2298 14.5367 0.22
117 11 19.8706 12.5346 14.8856 0.06
111 19 -0.141177 14.0209 15.5334 -0.35
109 9 20.5541 15.1988 15.8132 0.52
95 11 4.24511 14.8457 13.1154 0.06
96 11 4.42984 13.7061 14.3106 0.06
112 19 20.3901 16.2724 14.8527 -0.35
87 19 1.87217 11.5842 12.916 -0.35
92 11 0.763765 11.3856 11.1897 0.06
216 11 9.48806 9.50971 12.7447 0.06
86 20 4.00613 11.0252 13.7454 -0.5
91 11 1.31524 9.89459 11.8278 0.06
210 1 8.72053 8.73337 12.7454 0.22
215 11 8.11148 8.79892 11.8436 0.06
85 9 3.28168 11.7997 13.1327 0.52
88 19 3.83226 12.8991 12.4389 -0.35
637 11 10.368 13.3569 10.5465 0.06
214 11 9.18545 7.7182 12.6268 0.06
90 1 4.57734 13.8289 13.2425 0.22
763 26 7.30627 15.5092 13.7857 -0.39
94 11 5.64867 13.693 12.9625 0.06
760 26 8.71951 13.9216 14.3049 -0.39
47 11 15.4744 15.2429 9.4725 0.06
638 11 11.8396 13.0736 11.3333 0.06
636 2 11.2365 13.8925 10.9217 0.22
62 20 9.84539 10.8262 10.6817 -0.5
639 11 9.81358 15.1169 12.2057 0.06
635 2 10.889 14.9238 12.0536 0.22
640 11 11.0883 14.4072 12.9807 0.06
107 11 11.5817 12.1048 13.471 0.06
634 19 10.9707 16.2294 11.5415 -0.35
100 19 12.621 10.3534 13.1573 -0.35
97 9 12.9897 9.07229 13.7092 0.52
134 20 20.1682 13.0438 11.2522 -0.5
103 11 14.4875 8.26321 11.8063 0.06
104 11 15.4246 9.5895 12.4775 0.06
38 20 15.5503 11.7851 10.374 -0.5
139 11 18.128 11.7704 10.2825 0.06
37 9 15.2248 12.9472 10.6029 0.52
101 1 15.0353 8.62439 12.7331 0.22
39 19 15.9565 13.7184 11.4772 -0.35
43 11 16.1964 12.3058 13.0349 0.06
41 1 15.8335 13.3151 12.8199 0.22
44 11 16.3449 14.0579 13.4528 0.06
99 19 14.3272 8.64587 13.9325 -0.35
45 11 14.8005 13.2698 13.2259 0.06
110 20 20.1628 15.3746 16.9715 -0.5
710 11 17.5794 16.7379 14.4413 0.06
680 11 2.31142 18.8058 12.2002 0.06
118 11 0.401066 17.4475 15.6774 0.06
671 9 1.48721 -0.00335699 13.4399 0.52
672 20 1.24424 0.469115 14.6032 -0.5
675 2 1.95512 19.8348 12.0697 0.22
679 11 1.32783 19.9133 11.2158 0.06
674 19 1.16629 20.1314 13.2181 -0.35
120 11 20.1745 18.1197 15.8036 0.06
119 11 -0.262317 18.1804 14.3886 0.06
114 1 -0.543807 17.5494 15.238 0.22
613 19 4.71131 20.1321 15.1154 -0.35
616 2 4.39805 18.8412 14.5468 0.22
618 11 4.60925 18.6493 13.5171 0.06
652 20 5.96344 19.0477 11.4904 -0.5
651 9 7.0371 19.1187 12.071 0.52
654 19 8.19584 18.3396 11.6695 -0.35
653 19 7.3454 20.3099 12.7228 -0.35
657 11 9.45718 -0.600343 13.095 0.06
658 11 8.50268 19.8218 14.1727 0.06
655 2 9.2032 18.7562 12.4805 0.22
656 2 8.69039 20.0195 13.1325 0.22
660 11 9.54671 17.9922 13.139 0.06
659 11 9.87949 18.9025 11.606 0.06
611 9 5.82986 19.8785 16.0265 0.52
614 19 6.21853 18.5602 16.1191 -0.35
615 2 5.24301 17.8481 15.3517 0.22
620 11 5.98618 17.4339 14.6513 0.06
179 11 12.834 19.9462 10.4328 0.06
180 11 13.8959 -0.405642 11.2233 0.06
48 11 15.7654 13.8954 8.3366 0.06
631 9 11.712 15.9658 10.3582 0.52
632 20 12.42 16.7619 9.76626 -0.5
633 19 11.7704 14.6015 9.88135 -0.35
178 11 13.8675 19.3044 11.6669 0.06
174 1 13.2466 20.1894 11.4133 0.22
172 19 12.112 -0.920493 12.2546 -0.35
169 9 12.3936 -0.394556 13.5442 0.52
173 1 12.9889 19.615 15.3406 0.22
171 19 11.921 20.1682 14.5763 -0.35
176 11 12.861 20.0876 16.3121 0.06
568 11 15.7674 17.9816 11.6477 0.06
570 11 16.7416 19.989 12.7058 0.06
569 11 16.5183 20.6851 11.1517 0.06
143 11 19.0002 16.1856 9.22968 0.06
567 11 16.5002 18.2194 10.0718 0.06
565 2 16.9617 19.8115 11.6556 0.22
562 20 19.9694 18.6335 11.0851 -0.5
564 19 18.3052 19.8808 11.9464 -0.35
561 9 18.78 18.7888 11.3297 0.52
563 19 17.8535 17.9471 10.7795 -0.35
566 2 16.5754 18.4161 11.1707 0.22
704 19 16.7825 17.817 14.3986 -0.35
151 11 19.0749 0.683264 14.0166 0.06
155 11 19.6983 4.47982 15.8445 0.06
244 19 3.21326 3.59856 17.7331 -0.35
242 20 2.40208 1.57019 16.8945 -0.5
241 9 3.2424 2.17815 17.4743 0.52
245 1 4.35534 1.73937 19.6277 0.22
243 19 4.2221 1.5296 18.1652 -0.35
246 1 2.05909 4.12333 18.4454 0.22
251 11 1.20334 4.38429 17.794 0.06
252 11 1.71392 3.28771 19.0463 0.06
250 11 2.2464 4.91687 19.1161 0.06
247 11 3.45932 1.80001 20.2317 0.06
14 20 19.497 1.05655 0.22278 -0.5
154 11 18.7118 3.36437 15.1315 0.06
428 11 7.88814 20.3475 0.663366 0.06
733 31 5.92086 0.694636 17.9354 1
749 26 6.12189 3.69028 17.2377 -0.39
743 27 7.51872 3.34355 17.7268 1.34
747 26 7.24093 1.82177 17.8838 -0.39
745 26 7.03493 3.48662 19.1757 -0.39
746 26 7.77447 4.8178 17.4589 -0.39
748 26 8.9365 2.97182 18.1624 -0.39
49 9 11.3474 1.979 -0.478978 0.52
51 19 11.3386 1.92648 19.4835 -0.35
56 11 11.6099 0.733315 17.8231 0.06
607 11 15.4696 4.16955 14.8722 0.06
606 2 15.168 3.29403 14.3351 0.22
605 2 15.9724 2.05569 14.6986 0.22
610 11 15.3613 1.39416 15.2386 0.06
57 11 11.9611 -0.224332 19.3941 0.06
53 1 11.2941 0.619451 18.8904 0.22
560 11 11.757 4.30129 16.4965 0.06
559 11 13.0338 3.71924 17.6136 0.06
609 11 16.7492 2.30532 15.4654 0.06
55 11 10.2616 0.250015 18.7541 0.06
722 20 16.3418 0.2771 17.6841 -0.5
15 19 -0.250208 -0.110426 20.5225 -0.35
147 19 18.9541 0.457117 16.1522 -0.35
145 9 19.9418 1.35926 16.6646 0.52
22 11 18.1262 19.6482 18.8742 0.06
16 19 18.8818 20.5914 20.5739 -0.35
13 9 19.8496 0.0823476 -0.449307 0.52
18 1 18.9107 20.333 19.1919 0.22
23 11 18.6139 -0.224647 18.6123 0.06
148 19 19.7391 2.75477 16.7762 -0.35
156 11 -0.842343 3.29203 14.8833 0.06
150 1 19.7034 3.44143 15.5674 0.22
24 11 19.8442 19.9771 18.7532 0.06
644 19 1.4445 6.91137 15.811 -0.35
645 2 2.3046 8.08377 15.7915 0.22
648 11 1.74803 10.0418 15.2761 0.06
650 11 2.41463 8.32851 16.8241 0.06
356 11 0.691847 13.0764 18.625 0.06
353 1 1.30159 12.2778 18.2235 0.22
201 11 4.0236 10.2396 18.7738 0.06
207 19 8.02452 10.0319 16.1517 -0.35
734 31 5.64805 5.18525 16.7363 1
197 1 4.42031 9.31454 19.0722 0.22
200 11 5.0282 9.53013 20.0386 0.06
195 19 4.95915 8.7074 17.9541 -0.35
206 20 9.63511 8.55768 15.4195 -0.5
193 9 5.40273 7.46512 18.3777 0.52
194 20 5.2428 6.52761 17.6123 -0.5
196 19 6.54477 7.31043 19.269 -0.35
202 11 8.05702 7.4787 17.6433 0.06
203 11 7.38416 8.98377 18.24 0.06
198 1 7.71574 7.96333 18.5959 0.22
204 11 8.60853 8.18247 19.1648 0.06
199 11 3.59763 8.76028 19.437 0.06
557 11 12.0543 4.55226 19.4026 0.06
555 2 12.4018 4.59326 17.3586 0.22
732 31 11.246 7.59427 15.3303 1
556 2 11.6228 5.06706 18.5663 0.22
554 19 13.2112 5.64491 16.9763 -0.35
551 9 12.7047 6.7518 17.6457 0.52
553 19 12.0111 6.37205 18.8365 -0.35
552 20 12.2772 7.6401 16.9484 -0.5
464 11 12.5109 9.55873 19.8399 0.06
599 11 20.681 7.46937 19.6278 0.06
595 2 20.7333 8.16213 20.4591 0.22
594 19 -0.536398 7.20314 0.0642721 -0.35
596 2 19.3542 8.77575 20.7109 0.22
574 19 17.6336 7.03332 16.2946 -0.35
600 11 0.0372136 8.91291 20.0755 0.06
577 11 15.7438 9.54271 16.8582 0.06
571 9 16.9156 7.04929 17.5729 0.52
572 20 16.483 5.99667 18.0004 -0.5
573 19 16.2738 8.18543 17.9353 -0.35
576 2 16.8024 9.1631 17.0035 0.22
578 11 17.392 10.0461 17.2188 0.06
598 11 18.8981 9.56189 20.0036 0.06
350 20 20.067 10.8811 16.7011 -0.5
351 19 0.562817 11.1206 17.8838 -0.35
355 11 2.10469 12.169 18.9323 0.06
382 11 2.34648 15.7121 18.6649 0.06
383 11 4.13677 15.9604 18.9786 0.06
378 1 3.39349 15.4147 18.4039 0.22
384 11 3.67008 15.754 17.3729 0.06
376 19 3.56709 14.0837 18.4706 -0.35
373 9 4.83303 13.5521 18.7986 0.52
374 20 5.00606 12.4629 19.2772 -0.5
358 11 18.536 13.667 18.3601 0.06
379 11 6.52668 15.7696 19.2377 0.06
213 11 7.0844 11.3682 15.0124 0.06
211 11 5.95293 10.1433 15.6469 0.06
375 19 5.81597 14.1839 18.0355 -0.35
131 11 7.12314 10.8235 1.01223 0.06
209 1 6.87286 10.7324 15.8372 0.22
212 11 6.78311 11.2659 16.7553 0.06
757 27 8.03205 15.0117 15.1118 1.34
124 19 8.52693 10.2432 -0.379241 -0.35
126 1 7.62537 11.239 0.154945 0.22
132 11 8.00387 12.2173 0.410348 0.06
758 26 6.80945 14.0172 15.2799 -0.39
762 26 8.7135 14.4057 16.3242 -0.39
759 26 9.25501 16.0312 14.9487 -0.39
129 11 9.66562 12.2308 17.6136 0.06
236 11 8.99499 16.2544 18.7402 0.06
584 19 12.9321 14.4034 15.0911 -0.35
123 19 9.94468 10.9638 19.2409 -0.35
463 11 13.7568 9.93845 18.6292 0.06
121 9 9.72913 10.8449 20.6284 0.52
461 1 13.2403 10.3085 19.4995 0.22
465 11 12.5165 10.9556 19.0684 0.06
587 11 11.4323 13.8018 17.7323 0.06
122 20 10.7083 10.9344 -0.0648507 -0.5
128 11 9.40424 12.9162 19.2147 0.06
125 1 9.30187 12.0205 18.6039 0.22
237 11 9.92687 15.4059 20.0468 0.06
127 11 8.22961 11.8689 18.5076 0.06
586 2 12.2392 14.4088 17.3456 0.22
583 19 13.5307 13.8462 17.2348 -0.35
581 9 13.9025 13.9009 15.915 0.52
582 20 14.6327 13.082 15.4129 -0.5
468 11 15.6151 14.2322 20.4872 0.06
105 11 15.9447 8.06434 12.8725 0.06
349 9 20.5818 11.3734 17.7258 0.52
352 19 19.9009 12.0503 18.7656 -0.35
459 19 13.9971 10.8875 20.5838 -0.35
457 9 14.5946 11.9982 20.0063 0.52
359 11 18.6613 12.543 17.1909 0.06
708 11 16.3266 15.6382 16.324 0.06
458 20 15.7111 11.9779 19.5426 -0.5
360 11 17.7416 12.1429 18.5561 0.06
354 1 18.686 12.6014 18.2752 0.22
420 11 0.330262 17.124 20.5565 0.06
617 11 3.35331 18.4925 14.4925 0.06
248 11 4.96454 0.980986 20.1234 0.06
426 1 4.88078 18.9971 20.7364 0.22
432 11 3.85126 19.299 20.9453 0.06
430 11 4.88634 17.9844 20.3278 0.06
731 31 1.23338 0.453733 16.4715 1
753 26 0.636203 19.0208 17.4804 -0.39
756 26 2.59626 18.0604 17.2974 -0.39
750 27 2.03977 19.4475 17.8557 1.34
752 26 2.04598 18.7754 19.2543 -0.39
751 26 2.16895 20.1234 16.4998 -0.39
755 26 1.45152 -0.639485 18.4392 -0.39
754 26 3.47459 20.0637 18.1856 -0.39
427 11 9.07775 0.210721 0.217854 0.06
425 1 8.46947 20.7769 -0.16433 0.22
612 20 6.30979 -0.621673 16.7936 -0.5
619 11 4.77387 16.9536 15.8253 0.06
424 19 5.4527 20.0174 19.9322 -0.35
421 9 6.85906 19.9955 19.7699 0.52
423 19 7.58584 -0.279168 20.1999 -0.35
761 26 7.32926 16.0808 15.9386 -0.39
238 11 9.65282 19.7645 17.068 0.06
422 20 7.38733 19.0414 19.2461 -0.5
234 1 9.54329 18.7473 16.7548 0.22
239 11 9.26859 18.5928 15.7319 0.06
240 11 8.74775 18.3157 17.3202 0.06
235 11 9.4605 17.1479 20.1668 0.06
233 1 9.7916 16.3634 19.5098 0.22
589 11 11.1473 14.2863 15.5257 0.06
585 2 11.8855 14.9494 15.9975 0.22
590 11 11.3262 15.8588 16.2224 0.06
175 11 14.0145 19.9241 15.079 0.06
588 11 12.6333 15.0771 18.0843 0.06
721 9 15.5762 -0.497919 18.1851 0.52
177 11 12.8771 18.5874 15.547 0.06
231 19 11.0552 16.5434 18.9662 -0.35
232 19 10.7012 17.949 16.9915 -0.35
229 9 11.0517 17.7961 18.3147 0.52
230 20 11.7646 18.7197 18.8578 -0.5
730 11 14.4753 18.447 18.6216 0.06
725 2 15.2467 18.9967 19.1747 0.22
724 19 16.0006 19.5916 18.13 -0.35
414 1 -0.384553 16.5846 19.9726 0.22
702 20 14.6792 18.0258 13.8398 -0.5
709 11 18.3482 17.014 15.9194 0.06
705 2 17.458 17.2299 15.4262 0.22
418 11 -0.0916012 15.5393 19.9599 0.06
707 11 16.3919 16.9256 17.4051 0.06
706 2 16.3486 16.7387 16.3169 0.22
703 19 15.1528 17.2615 15.97 -0.35
729 11 15.9892 18.3324 19.6449 0.06
701 9 15.4883 17.7746 14.6944 0.52
ITEM: TIMESTEP
1000
ITEM: NUMBER OF ATOMS
770
ITEM: BOX BOUNDS pp pp pp
-7.1839236991893074e-01 2.0718392369918977e+01
-7.1839236991893074e-01 2.0718392369918977e+01
-7.1839236991893074e-01 2.0718392369918977e+01
ITEM: ATOMS id type x y z c_charge
74 20 2.25667 -0.100161 3.18742 -0.5
73 9 1.18342 0.405242 3.49692 0.52
75 19 0.501454 1.17946 2.55764 -0.35
77 1 -0.526398 2.00974 3.15739 0.22
76 19 0.484402 -0.130196 4.64064 -0.35
309 11 3.61514 2.22795 2.04574 0.06
308 11 2.79139 3.60651 2.50878 0.06
305 1 3.6923 3.32707 1.99048 0.22
79 11 -0.166753 2.54167 4.01198 0.06
19 11 1.52629 -0.459348 0.269934 0.06
303 19 3.74955 3.67688 0.616099 -0.35
307 11 4.52712 3.5883 2.62966 0.06
692 20 6.27513 1.42976 1.45557 -0.5
691 9 6.41247 0.421926 2.16188 0.52
694 19 7.61582 0.034209 2.69818 -0.35
693 19 5.36604 -0.468194 2.44458 -0.35
54 1 9.36153 3.23543 0.33104 0.22
60 11 8.87465 2.93858 -0.521484 0.06
58 11 9.11551 2.64118 1.22365 0.06
59 11 8.95142 4.30053 0.446197 0.06
449 1 9.24324 3.54247 4.21462 0.22
451 11 8.69105 4.21972 3.50144 0.06
452 11 9.67833 2.62524 3.78453 0.06
429 11 9.53612 -0.700466 -0.557355 0.06
427 11 8.7886 0.376772 0.472091 0.06
425 1 8.67065 -0.464777 -0.146032 0.22
52 19 10.7307 3.19883 0.0998221 -0.35
50 20 11.7484 1.20738 0.344022 -0.5
338 20 13.456 4.54858 0.561455 -0.5
337 9 14.5388 3.93374 0.527949 0.52
340 19 14.708 2.5395 0.840189 -0.35
493 9 12.231 0.458073 4.50416 0.52
497 1 14.3421 -0.299002 3.63269 0.22
494 20 12.3077 1.64473 4.23406 -0.5
500 11 13.9065 0.0582869 2.70236 0.06
501 11 15.3493 0.188333 3.78924 0.06
49 9 11.27 2.03984 -0.448005 0.52
81 11 20.0517 1.44279 3.40236 0.06
348 11 16.4366 2.15932 1.87106 0.06
342 1 16.0515 2.0474 0.850843 0.22
347 11 16.8146 2.53721 0.167431 0.06
346 11 16.1222 0.971999 0.614826 0.06
80 11 20.6207 2.70894 2.41353 0.06
547 11 15.3714 3.22953 4.4174 0.06
335 11 18.2692 0.0880751 4.04325 0.06
14 20 19.5914 0.829348 0.468676 -0.5
13 9 19.9058 -0.0617822 -0.345959 0.52
306 1 2.20935 6.03309 1.09773 0.22
311 11 2.56364 5.78247 2.11921 0.06
312 11 2.00413 7.10757 1.09164 0.06
301 9 4.14874 4.96927 0.299222 0.52
304 19 3.13179 5.93021 0.0488241 -0.35
310 11 1.26454 5.6491 0.764507 0.06
670 11 -0.46495 9.46387 2.69994 0.06
664 19 1.18968 9.5378 1.79842 -0.35
662 20 2.36365 9.93197 -0.0482794 -0.5
594 19 -0.511893 7.19326 -0.151598 -0.35
302 20 5.3531 5.21473 0.550636 -0.5
714 19 8.66871 7.26608 3.58927 -0.35
716 2 6.34936 6.90734 3.19101 0.22
713 19 6.48365 6.74898 4.57519 -0.35
719 11 8.00187 6.18335 1.94041 0.06
720 11 7.85719 7.84499 1.76363 0.06
715 2 7.76093 7.04296 2.52818 0.22
717 11 5.86799 6.07052 2.81113 0.06
718 11 5.63 7.66777 2.83438 0.06
446 20 11.1755 4.74769 2.97815 -0.5
363 19 14.1681 8.1957 0.709267 -0.35
735 31 12.3398 5.18053 1.72412 1
361 9 13.4394 7.86122 1.85978 0.52
362 20 13.0845 6.68422 2.00521 -0.5
364 19 13.0896 8.88041 2.8629 -0.35
369 11 15.3205 9.87861 0.987049 0.06
445 9 11.1733 4.6758 4.20674 0.52
366 1 12.1916 9.83134 2.30741 0.22
371 11 11.1456 9.5965 2.41066 0.06
455 11 10.9681 7.46147 4.35126 0.06
478 11 14.6286 7.5236 4.3952 0.06
339 19 15.5961 4.85892 0.710751 -0.35
343 11 16.3216 6.3211 -0.598652 0.06
341 1 16.1872 5.2911 -0.552966 0.22
592 20 20.064 7.19833 2.00975 -0.5
368 11 16.1038 8.59676 0.136846 0.06
365 1 15.4276 8.79279 0.992616 0.22
591 9 19.8912 7.48077 0.815842 0.52
344 11 17.1943 5.00248 -0.653746 0.06
593 19 18.9723 8.52808 0.499427 -0.35
367 11 15.9977 8.48744 1.85656 0.06
479 11 16.3051 7.1418 4.3071 0.06
598 11 19.4803 9.89621 -0.32263 0.06
669 11 0.582734 10.682 3.39044 0.06
665 2 0.175106 10.3119 2.47333 0.22
661 9 1.5149 10.3125 0.737934 0.52
663 19 0.635973 11.3346 0.439199 -0.35
666 2 -0.236405 11.4628 1.57452 0.22
667 11 -0.157515 12.3855 2.18136 0.06
490 11 2.4301 13.7078 -0.37837 0.06
486 1 2.92341 13.809 0.561273 0.22
491 11 3.9346 14.1468 0.447775 0.06
492 11 2.92124 12.8281 1.02316 0.06
484 19 2.16858 14.7586 1.36728 -0.35
36 11 5.43991 12.3141 3.31068 0.06
26 20 7.63205 10.4721 3.19276 -0.5
25 9 7.78948 11.1156 4.26421 0.52
30 1 6.19318 12.7973 3.88793 0.22
34 11 5.7087 13.71 4.25206 0.06
35 11 6.88141 13.2369 3.08673 0.06
33 11 9.57723 13.0392 4.43491 0.06
769 26 7.4243 14.7091 1.16963 -0.39
29 1 9.95378 11.9319 4.48553 0.22
131 11 6.78075 10.8822 0.718687 0.06
124 19 8.46977 10.3097 -0.325191 -0.35
126 1 7.5256 11.2857 -0.0194395 0.22
132 11 7.98245 12.1908 0.487931 0.06
227 11 10.769 15.0096 1.68005 0.06
372 11 12.3697 10.7718 2.84044 0.06
370 11 12.4388 10.1224 1.23166 0.06
737 26 15.0398 13.2716 4.11874 -0.39
228 11 12.3428 14.5179 1.87732 0.06
467 11 14.74 13.9134 0.454934 0.06
462 1 14.5541 14.2091 -0.608773 0.22
466 11 13.7505 14.9945 -0.490815 0.06
736 27 14.7768 14.8324 4.25148 1.34
740 26 14.3761 14.9903 2.79536 -0.39
32 11 10.212 11.5939 3.52169 0.06
475 11 14.3939 10.594 4.62275 0.06
122 20 10.6162 10.9289 -0.0272258 -0.5
668 11 20.1175 11.2509 1.43717 0.06
266 20 19.4434 11.5452 4.09793 -0.5
272 11 17.9087 11.7172 1.08248 0.06
273 11 16.2739 11.8402 1.6772 0.06
271 11 17.5414 12.951 2.21818 0.06
269 1 17.3023 11.9708 1.94664 0.22
267 19 17.6447 10.9387 2.93044 -0.35
265 9 18.2181 11.3723 4.12465 0.52
742 26 16.2851 15.1165 3.90114 -0.39
489 11 1.75435 18.6994 3.09607 0.06
488 11 2.5852 18.9682 1.46122 0.06
17 1 0.533499 20.5068 0.138473 0.22
20 11 0.105797 20.2729 1.11307 0.06
481 9 2.22187 16.1642 1.14357 0.52
482 20 2.99384 16.5766 0.251037 -0.5
483 19 1.52792 17.0932 1.91228 -0.35
487 11 3.22779 17.9686 2.73652 0.06
485 1 2.28864 18.2322 2.27363 0.22
21 11 0.726678 19.5135 -0.192866 0.06
432 11 4.16414 19.9388 -0.0629992 0.06
696 2 5.67756 20.2734 3.6258 0.22
698 11 5.42353 19.262 3.34351 0.06
695 2 7.23744 20.5159 3.7227 0.22
431 11 5.69352 19.0002 0.372336 0.06
768 26 5.97617 15.6714 2.28757 -0.39
770 26 6.88111 17.6163 1.95338 -0.39
766 26 7.92598 16.0383 2.88412 -0.39
764 27 7.21236 16.1844 1.5609 1.34
765 26 6.44739 16.417 0.257479 -0.39
767 26 8.49365 16.7846 0.932606 -0.39
700 11 7.90847 19.6679 3.46091 0.06
428 11 8.5344 20.1961 0.548686 0.06
426 1 5.02923 19.3761 -0.441766 0.22
499 11 14.5182 20.0603 3.4922 0.06
222 1 11.7798 15.4193 1.82261 0.22
226 11 11.7377 15.8342 2.87091 0.06
225 11 11.3338 19.3149 2.87965 0.06
220 19 12.097 16.3245 0.800843 -0.35
223 11 11.9603 19.6874 1.22882 0.06
738 26 14.4894 16.3366 4.44535 -0.39
217 9 13.1564 17.2236 1.13778 0.52
218 20 14.0431 17.4752 0.326833 -0.5
224 11 10.9145 18.3452 1.54927 0.06
221 1 11.7264 18.9228 1.94309 0.22
219 19 12.8857 18.1223 2.19596 -0.35
295 11 20.6705 17.2092 3.47004 0.06
296 11 20.5651 15.3905 3.58269 0.06
727 11 15.4036 19.753 -0.140112 0.06
417 11 16.8696 15.4795 0.902368 0.06
409 9 19.0074 15.8317 -0.536977 0.52
413 1 17.3443 16.4136 0.993357 0.22
415 11 17.0453 16.7464 1.96311 0.06
416 11 16.8171 17.1537 0.394554 0.06
411 19 18.7105 16.3923 0.744223 -0.35
293 1 20.5098 16.3292 4.12868 0.22
297 11 19.5169 16.3468 4.4479 0.06
684 19 2.0669 3.74089 4.84833 -0.35
689 11 0.0900482 4.48004 5.49415 0.06
78 1 1.29011 -0.124995 5.78448 0.22
84 11 0.680307 -0.462206 6.6557 0.06
83 11 1.46359 0.950084 5.9709 0.06
82 11 2.19908 -0.695308 5.77665 0.06
508 19 0.577428 2.30192 8.24298 -0.35
505 9 1.14262 2.16407 9.5484 0.52
681 9 3.19221 3.82995 5.64065 0.52
682 20 4.04767 3.00283 5.43847 -0.5
187 11 4.59237 1.05243 7.51018 0.06
189 11 4.00173 -0.530403 7.90548 0.06
683 19 3.10721 4.59705 6.84186 -0.35
509 1 3.28277 2.87099 9.96255 0.22
511 11 3.49212 2.73743 8.91856 0.06
453 11 8.52109 3.17528 4.94456 0.06
188 11 5.76478 -0.321669 7.48114 0.06
185 1 4.8867 0.152302 7.93786 0.22
183 19 5.36916 0.448066 9.25276 -0.35
181 9 6.37733 1.45699 9.15684 0.52
184 19 7.65406 1.12825 8.81802 -0.35
504 11 9.46928 0.338174 6.24884 0.06
257 1 9.8139 4.35898 8.62762 0.22
260 11 8.9418 3.79612 9.11246 0.06
186 1 8.32571 0.169127 9.56956 0.22
192 11 9.21173 -0.0192977 8.98856 0.06
182 20 6.04247 2.62641 9.00862 -0.5
503 11 10.9338 1.2113 6.44824 0.06
498 1 10.5453 0.239254 6.20167 0.22
502 11 10.8939 -0.424252 6.97049 0.06
496 19 10.9968 -0.214291 4.91048 -0.35
495 19 13.4207 -0.235044 4.6535 -0.35
255 19 10.61 3.43466 7.94558 -0.35
253 9 12.0618 3.63169 7.92033 0.52
256 19 12.8321 2.49097 7.6792 -0.35
447 19 10.1856 4.06344 4.97337 -0.35
549 11 14.5309 4.04276 6.46143 0.06
264 11 13.2319 2.48228 9.71659 0.06
263 11 14.2319 1.2849 8.82751 0.06
258 1 13.24 1.77888 8.87111 0.22
262 11 12.4586 1.0367 9.0594 0.06
510 1 20.6556 2.10523 8.22275 0.22
515 11 20.4666 1.07014 8.22914 0.06
546 2 15.8915 2.86747 5.33478 0.22
548 11 15.3973 1.97992 5.74797 0.06
334 11 19.487 -0.57821 5.20695 0.06
330 1 18.5617 0.0340342 5.12206 0.22
336 11 18.9398 1.02582 5.40688 0.06
328 19 17.4246 -0.323848 5.93934 -0.35
325 9 17.7482 -0.29932 7.32453 0.52
327 19 17.7119 0.928846 7.9081 -0.35
514 11 20.2045 2.5463 7.33486 0.06
543 19 17.2115 2.81518 5.05455 -0.35
329 1 17.4897 0.890164 9.30669 0.22
545 2 15.6413 3.92357 6.49436 0.22
550 11 15.7873 3.36909 7.42356 0.06
333 11 16.4484 0.61333 9.54386 0.06
542 20 18.8768 3.91341 6.01547 -0.5
541 9 17.7027 3.85714 5.73216 0.52
516 11 20.2021 2.51391 9.08147 0.06
331 11 18.2068 0.255146 9.84138 0.06
332 11 17.521 1.95164 9.65771 0.06
690 11 1.27646 5.62248 4.71165 0.06
8 11 1.26959 9.4712 5.34365 0.06
9 11 2.84413 9.16115 4.69697 0.06
685 2 1.17173 4.73974 5.39881 0.22
688 11 2.28036 6.06578 6.72635 0.06
686 2 1.77874 5.12869 6.7953 0.22
687 11 0.920881 5.07629 7.47174 0.06
157 9 -0.438798 8.01205 8.14694 0.52
158 20 0.366209 7.72949 7.30759 -0.5
7 11 2.47814 8.70461 6.37448 0.06
5 1 2.29443 9.44044 5.58436 0.22
167 11 1.7892 7.17098 9.36454 0.06
160 19 -0.0793922 8.14085 9.46231 -0.35
162 1 0.827297 7.14266 9.90907 0.22
166 11 0.347 6.23073 9.77974 0.06
711 9 7.82611 7.11332 4.77324 0.52
712 20 8.23845 7.42786 5.8788 -0.5
259 11 9.49816 5.16812 7.90847 0.06
441 11 6.97209 5.71964 7.89907 0.06
437 1 6.00353 6.22707 7.96363 0.22
440 11 6.18174 7.27011 7.75889 0.06
439 11 5.32577 5.88943 7.23089 0.06
70 11 8.01107 9.32326 7.45275 0.06
66 1 8.66385 9.15777 8.30716 0.22
435 19 5.46366 5.99753 9.24503 -0.35
71 11 9.1213 8.17388 8.09371 0.06
72 11 7.98873 9.18281 9.15807 0.06
480 11 15.2566 6.51519 5.6164 0.06
261 11 10.2017 4.88361 9.50062 0.06
254 20 12.5886 4.64821 8.38701 -0.5
456 11 10.6701 6.90508 6.02035 0.06
454 11 12.1979 7.47026 5.33316 0.06
448 19 11.9481 5.58091 5.01539 -0.35
450 1 11.3704 6.8794 5.15616 0.22
61 9 10.2804 9.96351 9.72549 0.52
63 19 11.1578 8.99624 9.99658 -0.35
470 20 14.0209 8.16842 7.17212 -0.5
68 11 12.4777 9.79493 8.5627 0.06
469 9 14.7662 8.93828 6.57434 0.52
65 1 12.4696 9.32728 9.55244 0.22
67 11 13.0501 8.43222 9.52789 0.06
165 11 19.8652 7.96719 5.69131 0.06
159 19 19.6653 8.44111 7.80456 -0.35
544 19 16.7927 4.71744 6.30361 -0.35
474 1 15.5124 7.35997 4.99829 0.22
472 19 15.8286 8.5498 5.73291 -0.35
287 11 16.7153 7.16849 8.22017 0.06
286 11 15.5392 8.12961 9.16709 0.06
288 11 15.4731 6.31542 9.21578 0.06
282 1 16.163 7.22807 9.16717 0.22
163 11 18.7546 7.0017 6.63327 0.06
161 1 19.1833 8.03136 6.58597 0.22
164 11 18.3184 8.66441 6.32652 0.06
3 19 2.71227 10.7647 5.79958 -0.35
2 20 3.41407 10.1989 7.93001 -0.5
1 9 3.57014 10.8472 6.92246 0.52
630 11 2.57861 13.7205 8.61879 0.06
4 19 4.21047 12.1196 7.07075 -0.35
629 11 1.2068 14.8153 8.4416 0.06
628 11 3.95347 15.2713 7.1895 0.06
625 2 2.27773 14.7944 8.65185 0.22
28 19 6.80235 11.9258 4.80114 -0.35
64 19 9.66239 10.0844 8.47852 -0.35
11 11 6.19305 11.6257 7.19956 0.06
6 1 5.46183 12.1777 7.7218 0.22
10 11 5.57963 11.9354 8.78345 0.06
12 11 5.80375 13.2144 7.85524 0.06
387 19 7.80966 14.2389 9.80233 -0.35
388 19 9.4761 15.0609 8.25267 -0.35
385 9 8.10146 14.8062 8.51929 0.52
386 20 7.30871 15.3177 7.74953 -0.5
27 19 8.95377 11.0448 5.05067 -0.35
394 11 9.46661 13.7096 6.75554 0.06
31 11 10.862 11.9069 5.02207 0.06
741 26 13.319 14.5131 4.69937 -0.39
390 1 10.0411 13.9201 7.64202 0.22
395 11 11.1195 13.975 7.3607 0.06
396 11 10.0694 13.0492 8.31243 0.06
42 1 14.9162 14.1706 8.57563 0.22
471 19 14.5939 10.2696 6.76877 -0.35
473 1 13.948 10.7927 5.58006 0.22
477 11 13.8798 11.8748 5.81869 0.06
476 11 12.9401 10.4069 5.43547 0.06
40 19 14.3335 13.552 9.739 -0.35
739 26 15.2361 14.782 5.73404 -0.39
46 11 14.1057 14.7563 8.14635 0.06
48 11 15.1609 13.3573 7.87085 0.06
274 11 18.298 13.4318 5.70787 0.06
276 11 18.8048 12.1759 6.62696 0.06
268 19 17.3464 11.6469 5.20279 -0.35
135 19 19.4986 12.2109 9.1907 -0.35
136 19 20.1295 14.5077 9.4119 -0.35
137 1 18.8745 11.1456 9.9772 0.22
270 1 17.9183 12.5169 6.15406 0.22
275 11 17.2511 12.8266 6.97641 0.06
140 11 18.621 10.3428 9.273 0.06
47 11 15.7537 14.8607 8.63174 0.06
627 11 2.54905 16.2174 7.01912 0.06
291 19 -0.103489 16.3738 5.24687 -0.35
626 2 3.13263 15.6796 7.75692 0.22
624 19 2.36055 15.4553 9.87393 -0.35
621 9 3.1112 16.671 9.73755 0.52
623 19 3.77444 16.6511 8.54309 -0.35
289 9 0.301473 17.6297 5.61896 0.52
290 20 1.54929 17.9599 5.59427 -0.5
300 11 0.68298 18.7667 8.19135 0.06
299 11 -0.113236 17.1779 8.2843 0.06
292 19 -0.575654 18.3082 6.51006 -0.35
294 1 -0.283475 18.213 7.91443 0.22
699 11 7.26287 20.6755 4.78481 0.06
697 11 5.33575 20.2765 4.69241 0.06
523 11 9.79457 16.8649 4.68303 0.06
528 11 5.0264 18.0596 6.23635 0.06
526 11 6.45968 17.0285 6.23943 0.06
520 19 6.76731 19.0449 6.6824 -0.35
527 11 5.68768 17.7751 7.80845 0.06
522 1 5.97022 17.8814 6.77216 0.22
519 19 8.77003 18.1862 5.55208 -0.35
521 1 9.4056 16.9683 5.70773 0.22
517 9 8.16949 18.7871 6.69407 0.52
518 20 8.81583 19.1417 7.67642 -0.5
525 11 8.78801 16.031 5.69844 0.06
191 11 7.82059 20.6579 9.5511 0.06
524 11 10.1287 16.8366 6.4975 0.06
537 11 11.6873 18.9679 6.32741 0.06
535 11 12.4466 17.8528 7.4253 0.06
536 11 11.237 18.8996 8.0975 0.06
533 1 12.06 18.824 7.36745 0.22
531 19 12.9814 19.7979 7.90085 -0.35
529 9 14.3467 19.4193 7.85122 0.52
530 20 14.9903 19.3257 8.93789 -0.5
532 19 14.7016 18.7498 6.65495 -0.35
632 20 12.3102 16.6935 9.52886 -0.5
326 20 18.2111 20.1225 7.83702 -0.5
538 11 16.1996 17.7698 5.65406 0.06
539 11 16.7105 18.2815 7.35465 0.06
534 1 15.8939 17.9893 6.70691 0.22
540 11 15.6396 17.0545 7.22698 0.06
138 1 19.2801 15.5432 9.909 0.22
298 11 20.3205 18.5688 8.46418 0.06
143 11 19.1188 16.3555 9.17765 0.06
506 20 0.772584 1.23042 10.2536 -0.5
513 11 3.63992 1.87962 10.4381 0.06
677 11 3.2627 -0.304813 11.0821 0.06
507 19 1.91682 3.22686 10.1416 -0.35
512 11 3.91081 3.64042 10.4164 0.06
678 11 3.99861 -0.489402 12.4605 0.06
676 2 2.97557 -0.338013 12.1118 0.22
673 19 2.43173 0.620308 13.026 -0.35
321 11 1.53231 4.03009 13.7877 0.06
317 1 2.45293 3.99401 14.32 0.22
319 11 2.81829 2.92582 14.3247 0.06
320 11 2.27928 4.32472 15.3585 0.06
671 9 1.35139 -0.0198754 13.672 0.52
672 20 0.797928 0.384033 14.6705 -0.5
190 11 8.40883 0.54606 10.5775 0.06
316 19 5.55521 3.45897 13.9032 -0.35
313 9 4.67627 4.56118 14.2236 0.52
323 11 5.36148 2.50156 12.1331 0.06
318 1 5.90678 3.31613 12.6187 0.22
322 11 6.90743 2.91441 12.5343 0.06
324 11 6.03171 4.26028 12.0696 0.06
402 1 9.92736 3.59396 13.5165 0.22
407 11 9.23307 3.08534 12.891 0.06
406 11 9.52603 3.70497 14.5349 0.06
608 11 14.1472 3.2814 14.9307 0.06
603 19 14.9185 3.20406 12.8378 -0.35
170 20 12.2457 0.654848 13.4214 -0.5
602 20 15.1424 1.44169 11.3982 -0.5
408 11 10.8233 2.96859 13.5751 0.06
405 11 12.5708 4.10375 11.7431 0.06
180 11 13.4346 -0.304223 10.9448 0.06
169 9 12.2956 -0.55808 13.3956 0.52
606 2 15.0181 3.09467 14.2585 0.22
610 11 15.1629 1.09719 15.1432 0.06
604 19 16.2771 1.31629 13.376 -0.35
601 9 15.5214 2.03989 12.4087 0.52
153 11 18.1197 -0.188381 14.6657 0.06
149 1 19.0739 0.020139 15.0722 0.22
151 11 19.6177 0.520377 14.3334 0.06
154 11 18.7449 3.26493 15.1359 0.06
607 11 15.7213 3.9587 14.3785 0.06
605 2 15.8317 1.83496 14.5961 0.22
315 19 3.40653 4.77192 13.6842 -0.35
641 9 0.760403 6.9095 14.5286 0.52
643 19 0.732526 8.1824 14.1107 -0.35
647 11 2.25799 9.56291 14.7539 0.06
646 2 1.43186 8.94468 15.1838 0.22
443 11 3.9603 8.30469 11.368 0.06
642 20 -0.0884026 6.10523 14.2118 -0.5
168 11 1.06882 7.3177 10.965 0.06
433 9 6.17582 6.65938 10.26 0.52
434 20 7.42896 6.76875 10.2341 -0.5
438 1 5.00229 8.14499 11.6449 0.22
442 11 5.47242 8.9017 11.0472 0.06
314 20 4.98482 5.26062 15.1852 -0.5
444 11 5.1295 8.39859 12.7151 0.06
436 19 5.44416 6.82256 11.4907 -0.35
205 9 8.50255 9.47057 15.0523 0.52
208 19 7.749 9.19134 13.9261 -0.35
216 11 9.52581 9.59599 12.7789 0.06
210 1 8.6355 8.95199 12.8326 0.22
215 11 8.16592 9.03628 11.84 0.06
214 11 8.96541 7.94262 12.7848 0.06
206 20 9.53779 8.87114 15.3266 -0.5
69 11 12.9586 9.97617 10.3368 0.06
400 19 10.1253 4.87423 13.0402 -0.35
398 20 10.8901 6.17288 14.8076 -0.5
397 9 11.1726 5.53818 13.7542 0.52
399 19 12.564 5.4367 13.3872 -0.35
404 11 13.9453 5.14827 11.7332 0.06
401 1 12.8599 5.0597 11.9786 0.22
403 11 12.3651 5.73354 11.2868 0.06
98 20 11.9221 8.32965 14.0409 -0.5
97 9 12.8181 8.94806 13.4929 0.52
103 11 14.7307 8.05543 12.0808 0.06
104 11 14.8995 9.75189 12.1303 0.06
101 1 15.013 8.8194 12.7321 0.22
99 19 14.1755 8.79456 13.8946 -0.35
283 11 20.233 5.85129 12.0066 0.06
285 11 18.8889 5.47123 13.0459 0.06
281 1 19.1823 5.95069 12.1409 0.22
284 11 19.0386 6.9922 12.3739 0.06
279 19 18.4691 5.5364 11.0186 -0.35
280 19 17.0693 7.22764 10.2834 -0.35
277 9 17.1791 6.04833 11.041 0.52
278 20 16.4106 5.77972 11.941 -0.5
579 11 16.4966 8.59731 15.1706 0.06
105 11 16.1068 8.72772 12.9225 0.06
93 11 2.12232 10.5856 11.0297 0.06
89 1 1.38898 10.934 11.7572 0.22
95 11 4.45755 14.696 12.7805 0.06
96 11 3.81773 13.797 14.0703 0.06
87 19 1.92046 11.4631 12.9612 -0.35
92 11 0.712398 11.649 11.2008 0.06
86 20 4.12314 10.8541 13.4537 -0.5
91 11 0.81064 10.0243 11.9246 0.06
85 9 3.34201 11.5931 12.7785 0.52
88 19 3.74931 12.8279 12.1931 -0.35
90 1 4.39286 13.6737 13.1498 0.22
389 1 7.21928 15.1112 10.6835 0.22
392 11 6.90691 14.6098 11.594 0.06
94 11 5.35516 13.2569 13.2566 0.06
760 26 8.74175 14.0233 14.1813 -0.39
62 20 9.80112 10.6701 10.6297 -0.5
639 11 9.99685 15.2142 12.2057 0.06
213 11 6.53798 11.0707 14.5718 0.06
757 27 8.02851 14.9941 15.1021 1.34
758 26 6.81995 13.9669 15.2086 -0.39
102 1 11.8522 11.1229 14.006 0.22
108 11 11.3437 10.6721 14.8678 0.06
106 11 12.706 11.6947 14.2541 0.06
637 11 10.2245 13.5001 11.0375 0.06
638 11 11.7493 13.0574 11.6631 0.06
636 2 11.2528 13.9013 11.1858 0.22
635 2 11.0501 15.064 12.1688 0.22
640 11 11.2137 14.6839 13.1987 0.06
107 11 11.0855 11.7938 13.6133 0.06
100 19 12.5077 10.2479 13.0914 -0.35
37 9 15.3228 12.9318 10.534 0.52
45 11 14.664 14.109 12.8332 0.06
633 19 11.825 14.4433 10.0191 -0.35
584 19 13.0491 14.4331 14.9198 -0.35
133 9 19.8134 13.2794 10.1065 0.52
141 11 19.5256 10.7014 10.6725 0.06
144 11 18.2427 15.338 10.0848 0.06
115 11 20.5522 13.6237 13.7988 0.06
116 11 20.71 12.2477 14.8306 0.06
113 1 20.5142 13.3208 14.8176 0.22
117 11 19.4805 13.4862 15.1477 0.06
134 20 19.8772 13.1309 11.3071 -0.5
38 20 15.4912 11.7458 10.4278 -0.5
139 11 17.9408 11.3877 10.4132 0.06
39 19 16.107 13.6878 11.3921 -0.35
43 11 15.3695 12.5756 12.9607 0.06
41 1 15.6179 13.6107 12.7297 0.22
44 11 16.2848 14.0564 13.4484 0.06
622 20 2.67055 17.7111 10.1886 -0.5
680 11 2.44086 18.9219 12.5309 0.06
118 11 0.929772 17.4228 15.0708 0.06
675 2 2.04271 19.8934 12.3179 0.22
679 11 1.46337 19.6184 11.3959 0.06
674 19 0.964742 20.2334 13.1153 -0.35
119 11 -0.487418 18.0645 14.3911 0.06
114 1 -0.182112 17.3754 15.1742 0.22
613 19 4.55155 20.1538 15.0737 -0.35
616 2 4.16307 18.8228 14.9245 0.22
618 11 4.16157 19.1362 13.8609 0.06
617 11 3.21397 18.3807 15.1077 0.06
393 11 7.93704 15.9289 10.9031 0.06
391 11 6.28096 15.5567 10.2963 0.06
763 26 7.52155 15.6816 13.8499 -0.39
652 20 5.86694 19.4369 11.9225 -0.5
651 9 7.0718 19.4215 12.0625 0.52
654 19 7.88729 18.3451 11.5904 -0.35
653 19 7.61994 20.2318 13.0136 -0.35
657 11 9.62261 20.5579 13.0759 0.06
658 11 8.74701 19.5681 14.3245 0.06
655 2 9.07655 18.5081 12.3576 0.22
656 2 8.9342 19.7529 13.2516 0.22
660 11 8.66404 17.5448 12.7309 0.06
659 11 9.97228 18.4441 11.7705 0.06
615 2 5.27688 17.8344 15.244 0.22
620 11 6.13669 17.8849 14.5725 0.06
759 26 9.24407 15.9709 14.9343 -0.39
634 19 11.0256 16.2854 11.4201 -0.35
179 11 13.2507 19.3379 10.6876 0.06
631 9 11.7953 15.8736 10.308 0.52
178 11 14.0537 19.9928 12.1022 0.06
174 1 13.2279 20.1506 11.4229 0.22
172 19 12.0519 20.238 12.1731 -0.35
171 19 11.6749 20.2283 14.5094 -0.35
590 11 11.5176 15.5471 15.2645 0.06
177 11 12.612 18.5513 15.2986 0.06
702 20 14.7357 18.37 13.7785 -0.5
142 11 19.7098 15.9933 10.8 0.06
152 11 19.5302 20.4984 15.2911 0.06
112 19 20.6428 16.1439 14.933 -0.35
710 11 17.97 15.9909 15.2609 0.06
568 11 15.7966 17.8053 11.4679 0.06
570 11 17.0716 19.7873 12.9481 0.06
569 11 16.5414 20.511 11.4809 0.06
567 11 16.6567 18.4168 10.1727 0.06
565 2 17.0246 19.6475 11.8792 0.22
562 20 20.1465 18.5772 10.9616 -0.5
564 19 18.4126 19.832 11.9421 -0.35
561 9 18.9494 18.8466 11.0904 0.52
563 19 17.9312 17.9659 10.6323 -0.35
566 2 16.763 18.3394 11.2244 0.22
704 19 16.9225 17.7309 14.2729 -0.35
705 2 17.4875 16.9558 15.3075 0.22
701 9 15.5992 17.8884 14.5385 0.52
146 20 -0.365317 1.00891 16.7625 -0.5
244 19 2.96653 3.607 17.791 -0.35
242 20 2.69089 1.51784 16.7569 -0.5
241 9 3.31512 2.24814 17.5853 0.52
245 1 4.02115 1.77107 19.8627 0.22
243 19 4.20412 1.67939 18.4992 -0.35
246 1 1.61759 3.82677 18.0961 0.22
251 11 1.07613 3.78585 17.1861 0.06
252 11 1.16129 3.25758 18.903 0.06
247 11 3.02453 2.15553 20.0276 0.06
15 19 -0.222042 -0.166646 20.6414 -0.35
248 11 3.96049 0.817163 20.3809 0.06
731 31 1.15528 0.218701 16.4313 1
755 26 1.4357 -0.519173 18.1925 -0.39
249 11 4.79694 2.48479 20.2155 0.06
744 26 7.88496 2.86776 16.0577 -0.39
733 31 5.89329 0.385046 17.7783 1
749 26 6.03632 3.41729 17.1195 -0.39
743 27 7.54335 3.25533 17.4872 1.34
747 26 7.2067 1.73976 17.7482 -0.39
745 26 7.2387 3.60701 18.9774 -0.39
748 26 8.96422 3.11741 17.8347 -0.39
612 20 6.3411 -0.603494 16.443 -0.5
423 19 7.63887 -0.254647 20.3395 -0.35
723 19 15.1466 -0.181024 19.5659 -0.35
51 19 11.4398 2.05114 19.6564 -0.35
56 11 11.5249 0.849481 18.068 0.06
57 11 12.0468 0.216292 19.6 0.06
53 1 11.3171 0.776592 19.1332 0.22
560 11 12.255 3.55159 17.2651 0.06
559 11 13.528 4.50819 17.805 0.06
55 11 10.3059 0.37606 19.1675 0.06
557 11 11.6345 4.5576 19.7579 0.06
555 2 12.467 4.52988 17.6246 0.22
155 11 18.7991 4.61354 16.1612 0.06
609 11 16.4932 2.09557 15.4005 0.06
722 20 16.2756 0.301424 17.6149 -0.5
147 19 18.9011 0.842617 16.2527 -0.35
145 9 20.0167 1.55636 16.6368 0.52
23 11 18.5196 -0.391051 18.5204 0.06
148 19 19.8018 2.87038 17.0064 -0.35
156 11 20.2541 4.09967 15.4038 0.06
150 1 19.3984 3.72892 15.8975 0.22
721 9 15.6871 -0.519828 18.3512 0.52
649 11 3.03655 8.02624 16.3232 0.06
250 11 1.67007 4.9177 18.2782 0.06
644 19 1.67993 6.69513 15.5932 -0.35
645 2 1.92488 7.95537 16.1589 0.22
648 11 0.941303 9.73982 15.747 0.06
650 11 1.6359 8.34974 17.1646 0.06
197 1 4.54803 9.45595 19.3444 0.22
199 11 4.39928 8.71774 20.1998 0.06
599 11 -0.575925 7.58198 19.7606 0.06
595 2 -0.49493 8.40721 20.4678 0.22
600 11 0.204261 9.08001 20.0186 0.06
746 26 7.71103 4.75948 17.2632 -0.39
734 31 5.55868 5.21025 16.8224 1
195 19 5.07166 8.97412 18.1189 -0.35
193 9 5.62196 7.68628 18.2829 0.52
194 20 5.21459 6.72183 17.5492 -0.5
196 19 6.81061 7.46788 19.1393 -0.35
202 11 8.01442 7.7996 17.513 0.06
203 11 8.12677 8.9204 18.7835 0.06
198 1 7.97766 7.88703 18.5738 0.22
204 11 8.85645 7.3027 18.9302 0.06
558 11 10.5127 5.02843 18.4588 0.06
732 31 11.0772 7.64998 15.5118 1
556 2 11.5722 5.03171 18.7736 0.22
554 19 13.0003 5.68597 16.9681 -0.35
551 9 12.491 6.79827 17.7176 0.52
553 19 11.9382 6.42812 19.012 -0.35
552 20 11.8191 7.61867 17.0966 -0.5
464 11 12.5981 9.44457 19.8413 0.06
345 11 15.6158 4.94496 19.9648 0.06
597 11 18.7292 8.81714 19.9592 0.06
580 11 18.1275 9.22122 15.6605 0.06
575 2 17.2155 8.71323 15.9519 0.22
596 2 19.563 8.97773 20.6613 0.22
574 19 17.7109 7.41632 16.3419 -0.35
571 9 16.8966 7.22707 17.5395 0.52
572 20 16.7021 6.08821 17.9546 -0.5
573 19 16.3886 8.37285 18.1204 -0.35
576 2 16.5794 9.36078 17.1396 0.22
578 11 17.2244 9.87321 17.9002 0.06
357 11 1.7101 12.8829 18.0095 0.06
111 19 -0.00971764 13.9924 15.6522 -0.35
109 9 -0.639722 15.2193 16.0008 0.52
356 11 0.58723 12.7674 19.5333 0.06
353 1 1.23576 12.318 18.7545 0.22
201 11 3.63868 10.1586 19.2733 0.06
351 19 0.66699 11.1424 18.1289 -0.35
355 11 2.06382 11.8279 19.3509 0.06
376 19 3.66553 14.0115 18.5953 -0.35
349 9 -0.703762 11.3217 17.67 0.52
418 11 0.00201607 15.3571 20.3969 0.06
380 11 6.16103 14.926 19.9016 0.06
381 11 7.72365 14.4776 19.2465 0.06
377 1 6.73312 14.881 18.9943 0.22
130 11 6.89905 11.5787 20.5515 0.06
207 19 7.87658 10.1348 16.0457 -0.35
200 11 5.31448 10.009 19.756 0.06
373 9 4.93875 13.4331 18.5571 0.52
374 20 5.03888 12.3847 19.2486 -0.5
211 11 5.79919 10.3926 15.9391 0.06
375 19 6.06845 14.1035 18.0535 -0.35
209 1 6.71276 10.9166 15.6634 0.22
212 11 6.68075 11.8837 16.2211 0.06
762 26 8.58529 14.4253 16.4453 -0.39
129 11 9.13085 11.9865 17.6286 0.06
123 19 9.90624 11.0003 19.2797 -0.35
121 9 9.65038 10.9919 20.6869 0.52
128 11 9.69099 13.0881 18.8628 0.06
125 1 9.20838 12.1248 18.7127 0.22
127 11 8.16953 12.3107 18.9375 0.06
460 19 13.9327 13.2186 20.1275 -0.35
463 11 13.939 10.0507 18.7622 0.06
461 1 13.2065 10.2883 19.5684 0.22
465 11 12.4759 10.9712 19.1013 0.06
587 11 11.4803 14.5384 17.7632 0.06
586 2 12.2402 14.7294 17.0122 0.22
583 19 13.5082 14.1229 17.1559 -0.35
581 9 13.8514 13.8242 15.8433 0.52
582 20 14.7419 13.0941 15.4362 -0.5
459 19 13.9454 10.8059 20.6108 -0.35
457 9 14.6149 11.9433 20.1431 0.52
589 11 10.8982 14.106 15.5411 0.06
585 2 11.8424 14.5545 15.6017 0.22
410 20 18.6969 14.7035 20.6205 -0.5
110 20 20.1194 15.3558 17.0185 -0.5
577 11 15.9154 10.0846 16.737 0.06
350 20 20.3079 10.6522 16.7166 -0.5
358 11 19.1029 13.5483 18.6721 0.06
468 11 15.5692 14.5161 20.4027 0.06
352 19 19.8813 11.6368 18.7797 -0.35
359 11 18.3362 12.608 17.5279 0.06
458 20 15.725 11.7995 19.5532 -0.5
360 11 17.9899 12.5454 19.1962 0.06
354 1 18.8158 12.5154 18.4815 0.22
419 11 0.191924 16.4964 19.003 0.06
120 11 -0.631302 17.8625 16.0537 0.06
382 11 2.45222 15.655 18.9298 0.06
383 11 4.0702 15.8955 19.6589 0.06
378 1 3.49756 15.4728 18.826 0.22
384 11 3.87408 16.1054 18.0482 0.06
420 11 0.367033 17.1061 20.6018 0.06
753 26 0.523763 18.9228 17.8369 -0.39
756 26 2.59702 18.0477 17.4075 -0.39
750 27 1.96208 19.4438 17.8939 1.34
752 26 1.99719 19.0772 19.3866 -0.39
751 26 1.79542 19.9532 16.4212 -0.39
754 26 3.39116 19.9719 17.8849 -0.39
414 1 -0.240457 16.3789 20.008 0.22
611 9 5.79209 19.9257 15.8483 0.52
614 19 6.35975 18.6609 15.7909 -0.35
379 11 6.88218 15.8974 18.5942 0.06
236 11 9.28375 16.2432 18.8394 0.06
237 11 9.71142 15.5706 20.3343 0.06
430 11 4.67778 18.4334 20.5921 0.06
619 11 4.92084 16.834 15.3994 0.06
424 19 5.69709 19.9976 19.8922 -0.35
421 9 7.10813 19.9239 19.9253 0.52
761 26 7.19106 15.9094 15.9912 -0.39
238 11 9.5064 19.234 17.6299 0.06
422 20 7.71539 19.1041 19.2175 -0.5
234 1 9.58705 18.3494 16.9904 0.22
239 11 9.63345 18.6597 15.9338 0.06
240 11 8.6792 17.7305 17.1259 0.06
235 11 9.40284 17.3622 20.0707 0.06
233 1 9.89615 16.4298 19.7042 0.22
728 11 14.027 20.2328 20.5096 0.06
726 2 15.0796 20.045 20.2867 0.22
173 1 12.4543 19.6734 15.534 0.22
176 11 11.9123 19.7907 16.4612 0.06
175 11 13.4206 20.1733 15.6168 0.06
588 11 12.5157 15.7737 17.1652 0.06
231 19 11.251 16.724 19.31 -0.35
232 19 10.8577 17.7255 17.1623 -0.35
229 9 11.3273 17.8751 18.4398 0.52
230 20 11.8022 18.869 18.797 -0.5
730 11 14.6545 18.0699 19.2769 0.06
703 19 15.2593 17.4344 15.815 -0.35
412 19 19.8072 16.672 20.0693 -0.35
22 11 18.3541 19.4221 18.8428 0.06
16 19 18.9462 20.4912 20.5317 -0.35
18 1 18.9572 20.2484 19.1395 0.22
24 11 19.9522 20.0611 18.7851 0.06
708 11 15.9708 16.0618 16.8801 0.06
725 2 15.3621 18.898 19.2407 0.22
724 19 15.5826 19.5342 18.0435 -0.35
709 11 18.3004 17.7415 15.5037 0.06
707 11 16.9253 17.2641 17.3347 0.06
706 2 16.3903 16.9553 16.4555 0.22
729 11 16.3254 18.422 19.417 0.06
