LAMMPS data file via write_data, version 23 Jun 2022, timestep = 3000

770 atoms
31 atom types
715 bonds
17 bond types
1087 angles
18 angle types
455 dihedrals
9 dihedral types
0 impropers
2 improper types

-0.5420733981030548 20.542073398103128 xlo xhi
-0.5420733981030548 20.542073398103128 ylo yhi
-0.5420733981030548 20.542073398103128 zlo zhi

Masses

1 12.011
2 12.011
3 12.011
4 12.011
5 12.011
6 12.011
7 12.011
8 12.011
9 12.011
10 12.011
11 1.008
12 1.008
13 1.008
14 1.008
15 1.008
16 1.008
17 1.008
18 15.999
19 15.999
20 15.999
21 15.999
22 14.007
23 14.007
24 14.007
25 14.007
26 18.998
27 30.974
28 6.941
29 32.065
30 32.065
31 6.941

Pair Coeffs # lj/cut/coul/cut

1 0.066 3.5
2 0.066 3.5
3 0.066 3.5
4 0.066 3.5
5 0.07 3.55
6 0.07 3.55
7 0.07 3.55
8 0.07 3.55
9 0.105 3.75
10 0.105 3.75
11 0.03 2.5
12 0.03 2.5
13 0.03 2.5
14 0.03 2.42
15 0.03 2.5
16 0.03 2.5
17 0.03 2.5
18 0.17 3
19 0.17 3
20 0.17 2.96
21 0.17 3
22 0.17 3.25
23 0.17 3.25
24 0.17 3.25
25 0.17 3.25
26 0.255 2.95
27 0.2 3.7
28 0.0025 1.506
29 0.25 3.55
30 0.25 3.55
31 0.00034 2.126

Bond Coeffs # harmonic

1 268 1.529
2 414 1.33
3 320 1.4
4 340 1.09
5 340 1.08
6 340 1.08
7 320 1.41
8 570 1.229
9 320 1.36
10 300 1.47
11 440 1.27
12 350 1.34
13 340 0.96
14 340 1.01
15 420 1.56
16 200 1.81
17 300 1.43

Angle Coeffs # harmonic

1 50 109.5
2 80 120
3 60 120
4 37.5 110.7
5 40 120
6 33 106.4
7 33 107.8
8 35 120
9 60 109.5
10 60 124
11 80 123
12 80 120.4
13 50 109.5
14 50 109.5
15 50 109.5
16 50 120
17 80 90
18 80 180

Atoms # full

74 7 20 -0.5 1.4819066852557365 1.7220936603531287 1.6591632382443922 0 0 0
73 7 9 0.52 0.5848677684535715 1.8821385406334605 2.5263147024607764 0 0 0
75 7 19 -0.35 0.26369532318730926 3.1751862037154845 2.8644747756676003 0 0 0
77 7 1 0.22 0.3384882766496341 4.1680936814065355 1.8720929971459292 0 0 0
81 7 11 0.06 1.3662189454323344 4.331128457461487 1.5740516810754324 0 0 0
684 60 19 -0.35 2.2724662979607797 4.095594941327343 4.585957342863962 0 0 0
76 7 19 -0.35 0.3548477624542734 0.8472643678430016 3.496674853864926 0 0 0
309 26 11 0.06 4.674486858600442 2.1194591854686373 0.9424683974474373 0 0 0
249 21 11 0.06 3.157924743262044 -0.10257298248331248 -0.32006771379276716 0 0 1
303 26 19 -0.35 5.868952423958798 3.731812362345841 0.46514478575702656 0 0 0
308 26 11 0.06 3.7592815884781325 3.6470314671001898 0.6044967755141775 0 0 0
692 61 20 -0.5 7.144225604485829 1.150257477752073 0.9062629577766661 0 0 0
691 61 9 0.52 7.40433706215128 1.0225787313644576 2.0981469297377067 0 0 0
694 61 19 -0.35 7.75753391389355 -0.22441173745794535 2.662844506057862 0 0 0
693 61 19 -0.35 6.590806539942242 1.831514144825062 2.842979078958565 0 0 0
54 5 1 0.22 9.490057499664825 3.777940301267267 0.37733820812624963 0 0 0
60 5 11 0.06 9.602618109576984 4.047146900497661 1.477601759572051 0 0 0
696 61 2 0.22 6.423662078148701 1.1564801092351416 4.032730656521712 0 0 0
453 38 11 0.06 8.459333673426375 3.442160355475465 3.888979370813339 0 0 0
305 26 1 0.22 4.676526035523628 3.196802414311951 1.0193243007985733 0 0 0
698 61 11 0.06 5.38737331336657 1.2588098057086374 4.3606965367021875 0 0 0
695 61 2 0.22 6.915859397230736 -0.21566759314783418 3.83841586074636 0 0 0
52 5 19 -0.35 10.820791438097919 3.282618825377623 0.006560812371782743 0 0 0
49 5 9 0.52 10.774887127560772 1.9967501394718106 20.52828257808769 0 0 -1
348 29 11 0.06 13.643403533552776 2.1268810546139294 -0.18200558786832227 0 0 0
50 5 20 -0.5 10.499041893678436 1.0402086093804523 0.14826653598373307 0 0 0
342 29 1 0.22 14.205522315433223 1.7065114279331457 0.7235998055489536 0 0 0
51 5 19 -0.35 11.472292577425824 1.958828588029685 19.347829726452005 0 0 -1
347 29 11 0.06 13.55433753197716 0.8728606960042362 1.0200843779200985 0 0 0
338 29 20 -0.5 13.259322548118604 4.497026089502696 1.7103372441644011 0 0 0
337 29 9 0.52 14.173667936166927 3.8468207999268547 1.3506912063708858 0 0 0
223 19 11 0.06 10.588359989342923 19.764852577879864 2.5583796513688895 0 0 0
500 42 11 0.06 14.046446925867869 20.230883045992336 4.464923358407656 0 -1 0
501 42 11 0.06 12.378321693150165 19.668023562401316 4.133123550937509 0 -1 0
56 5 11 0.06 12.009640675276996 0.0031919026668300043 19.655028950628733 0 0 -1
79 7 11 0.06 -0.22609347427901128 3.8336994384866525 1.0228728881425733 0 0 0
346 29 11 0.06 15.200805786825246 1.339136455042761 0.3488301416055619 0 0 0
340 29 19 -0.35 14.310724597301757 2.5621148010551256 1.7495872865880973 0 0 0
15 2 19 -0.35 19.367482836253096 0.10565854180307566 19.925624911886665 0 0 -1
334 28 11 0.06 16.88798164759082 1.23168573383998 4.979233694125421 0 0 0
330 28 1 0.22 17.820627622161012 1.4010659391545586 5.501680576303058 0 0 0
336 28 11 0.06 18.659408654407613 1.2010519213919395 4.853096266312736 0 0 0
343 29 11 0.06 16.989813638555063 4.05132700505773 0.45693274084334823 0 0 0
80 7 11 0.06 -0.11706214366261869 5.069498069592189 2.3124237743463354 0 0 0
690 60 11 0.06 0.7638575987319498 5.827554775464645 4.505977436410937 0 0 0
306 26 1 0.22 4.435379801678754 6.125260149554013 2.1496431333364554 0 0 0
311 26 11 0.06 3.6934817111985954 6.88791833428578 2.266733089559432 0 0 0
689 60 11 0.06 0.6805604135743109 4.418461710195135 5.459588555155187 0 0 0
685 60 2 0.22 1.3934496634956892 5.128715183685072 5.106614185899867 0 0 0
301 26 9 0.52 6.104961617398337 5.004701696224888 0.9245401586396345 0 0 0
670 58 11 0.06 0.14622905161416266 10.691523547998086 1.1374839599630304 0 0 0
688 60 11 0.06 2.0881845662810106 6.915643293134125 6.094793236036178 0 0 0
304 26 19 -0.35 5.10266929892514 5.948821907157784 0.8789976940637525 0 0 0
310 26 11 0.06 5.050805022982738 6.222177464191409 3.122661832548924 0 0 0
312 26 11 0.06 3.828569014867491 5.275407363499847 2.5006569540278236 0 0 0
58 5 11 0.06 9.073878295865487 4.633632105890115 -0.34199823683892694 0 0 0
59 5 11 0.06 8.620542575248717 3.0957090923813237 0.46098596612438647 0 0 0
452 38 11 0.06 8.349551639271146 4.916653221567672 3.271422665436856 0 0 0
302 26 20 -0.5 7.294101786918669 5.307272729991818 1.2262520118596731 0 0 0
714 63 19 -0.35 8.693061859103937 7.629718221663225 3.3679910396087003 0 0 0
716 63 2 0.22 7.738060185516732 9.01662014429372 1.5671010485574732 0 0 0
713 63 19 -0.35 6.882748148233981 9.035600770144102 2.66950691198489 0 0 0
711 63 9 0.52 7.344204547389645 8.05324813824625 3.5988971757360284 0 0 0
719 63 11 0.06 8.899245206162119 7.173346768668405 1.4522204261177816 0 0 0
720 63 11 0.06 9.843723288653962 8.59737329258653 1.8903744460546248 0 0 0
715 63 2 0.22 8.902802857275457 8.123682412033386 2.053016799378485 0 0 0
717 63 11 0.06 7.174880555735697 8.598173666489213 0.697963019559696 0 0 0
446 38 20 -0.5 10.826450887223348 5.181705066798548 3.4299287181094287 0 0 0
363 31 19 -0.35 14.2265389673019 7.979147556608819 0.8964509385128743 0 0 0
368 31 11 0.06 14.635029295742928 8.561061803069892 2.8250122123919574 0 0 0
735 69 31 1 12.103051938953344 5.4842119411102095 2.318382134418191 0 0 0
361 31 9 0.52 12.95778200957424 8.127030549271916 1.348492344304631 0 0 0
362 31 20 -0.5 12.268086110873908 7.060376207581191 1.5957187742501033 0 0 0
364 31 19 -0.35 12.612497541295756 9.236542288479608 2.114007446617619 0 0 0
372 31 11 0.06 12.42515698539396 11.272188564347092 2.1042897393198987 0 0 0
365 31 1 0.22 15.066672969291425 7.914879966136359 2.008477456351236 0 0 0
369 31 11 0.06 15.249284814597782 6.874172414641436 2.412425573115826 0 0 0
339 29 19 -0.35 15.084101463853532 4.412443981332483 0.45968407453433224 0 0 0
345 29 11 0.06 16.516504655722912 4.134104864915863 2.1216587552324193 0 0 0
599 51 11 0.06 18.498156388529516 6.195021512888652 19.45860568098019 0 0 -1
595 51 2 0.22 19.0379172697672 7.129546207084554 19.5038125158065 0 0 -1
591 51 9 0.52 19.86496872220539 7.032962399480107 0.4467456635477046 0 0 0
594 51 19 -0.35 20.186045768925908 6.759549250292755 20.259166423323066 0 0 -1
341 29 1 0.22 16.299439669599487 4.553498764895993 1.1154854284777203 0 0 0
592 51 20 -0.5 -0.39763754339174273 7.10877650779667 1.370492757181799 1 0 0
344 29 11 0.06 16.518681726901505 5.601811650938838 1.1207239750088203 0 0 0
597 51 11 0.06 17.50812074179229 7.747140906742654 -0.1595927181815623 0 0 0
596 51 2 0.22 18.263335461133472 8.105842254487067 20.355688049356388 0 0 -1
593 51 19 -0.35 18.694683461190152 7.723706334810997 0.5791554594096782 0 0 0
669 58 11 0.06 0.0017638219030197133 10.941209261367568 2.839084887353802 0 0 0
665 58 2 0.22 0.6719783351953137 11.155634982156817 1.9891988241781329 0 0 0
664 58 19 -0.35 1.9506506685714848 10.860630870782009 2.4243347315075483 0 0 0
661 58 9 0.52 2.732400137491696 12.007255041112284 2.315138645613626 0 0 0
663 58 19 -0.35 2.085859678541431 13.01564286702356 1.5474676032782115 0 0 0
666 58 2 0.22 0.7318328852396447 12.699206633908876 1.7954255420666976 0 0 0
668 58 11 0.06 0.6717915220579982 12.993996580296761 0.698063529697041 0 0 0
667 58 11 0.06 0.03152447157333471 13.276790448837321 2.3464683418971464 0 0 0
490 41 11 0.06 1.571078991553883 15.490459006299643 1.7732952744823125 0 0 0
662 58 20 -0.5 3.835870951636074 12.1095172510872 2.9059250307846565 0 0 0
266 23 20 -0.5 20.441775216853067 12.396744038817173 4.664275127653674 0 0 0
381 32 11 0.06 5.513535208929818 13.282844959508372 0.6546337325677349 0 0 1
379 32 11 0.06 6.215521531975018 14.305895865432241 20.411949431698574 0 0 0
377 32 1 0.22 5.404583687943594 13.587481025229765 -0.385522081332238 0 0 1
718 63 11 0.06 8.081936938539421 10.04481209820489 1.3347983345655665 0 0 0
36 3 11 0.06 7.478810655579078 12.352160287407198 2.4420247115110443 0 0 0
26 3 20 -0.5 9.873742569866277 11.17907550420771 3.0466724993572614 0 0 0
25 3 9 0.52 9.327242426451983 11.247115626681436 4.155643693574893 0 0 0
370 31 11 0.06 12.74582931735552 10.683319017955021 0.5311472656489666 0 0 0
366 31 1 0.22 12.154168961593129 10.396857317014303 1.4290900825257142 0 0 0
371 31 11 0.06 11.106078469556719 10.494793676185392 1.1552143190241084 0 0 0
226 19 11 0.06 10.165373135310018 14.854514762535592 3.199839506292075 0 0 0
367 31 11 0.06 16.031228193633225 8.40332696174296 1.7543682510166927 0 0 0
737 70 26 -0.39 14.625187021095273 13.940434647795389 4.59848965493107 0 0 0
736 70 27 1.34 14.646421919962867 15.51006859689076 4.420110626586757 0 0 0
741 70 26 -0.39 13.105599300107654 15.541253902382325 4.396556204709586 0 0 0
228 19 11 0.06 10.511409668522669 13.971705348591238 1.7408937393512045 0 0 0
33 3 11 0.06 11.852021292143188 10.135609283928604 4.38414426395743 0 0 0
460 39 19 -0.35 15.126320882075994 12.585288196353412 0.24481882732968963 0 0 1
742 70 26 -0.39 16.17522719103654 15.466743649224293 4.529296791418511 0 0 0
272 23 11 0.06 18.253016119950345 13.044184113176565 1.2731325580190047 0 0 0
273 23 11 0.06 16.982966411402543 12.567634570972398 2.2556116033016202 0 0 0
271 23 11 0.06 17.75679886112639 14.104194204793567 2.5614877581262308 0 0 0
269 23 1 0.22 17.950387235213093 13.073390084788784 2.3025573472737526 0 0 0
740 70 26 -0.39 14.81135193696965 15.40224770578418 2.8833375244272332 0 0 0
419 35 11 0.06 -0.06771279099809818 16.800973427686884 0.04410578521226194 1 0 0
267 23 19 -0.35 18.94937502483215 12.366194915422193 3.0140424180405 0 0 0
265 23 9 0.52 19.323587247411105 12.749100239025967 4.28714968773675 0 0 0
414 35 1 0.22 20.20339204959256 16.397455486004404 20.521152242864922 0 0 -1
420 35 11 0.06 -0.4866911636207317 15.612574806457205 19.844845675292298 1 0 -1
486 41 1 0.22 2.3667456998995315 16.18591722781737 1.5928722675424778 0 0 0
491 41 11 0.06 2.286213097018887 16.47800504104807 0.5460800278257489 0 0 0
492 41 11 0.06 3.2286838392338306 15.51902182189262 1.6035720868855576 0 0 0
484 41 19 -0.35 2.2878035796816074 17.27054682161011 2.5300507129367666 0 0 0
627 54 11 0.06 3.560227572047017 17.013511409395498 5.910428555836055 0 0 0
481 41 9 0.52 1.9928634541067956 18.590678911359866 1.9977893162701674 0 0 0
482 41 20 -0.5 1.3193585602119675 18.65657083790049 0.9316699365931322 0 0 0
483 41 19 -0.35 1.757543466834985 19.605547721483028 2.9370949971075944 0 0 0
487 41 11 0.06 3.6737533090722376 19.352746779670973 3.5796868926253502 0 0 0
485 41 1 0.22 2.9937634518283454 20.161278576445447 3.33849195043471 0 0 0
489 41 11 0.06 2.884022423401248 -0.22261097612026004 4.198763174346803 0 1 0
488 41 11 0.06 3.414305452312107 -0.4395315161576012 2.428089604078084 0 1 0
431 36 11 0.06 3.8971186294368625 18.913024989412705 -0.4063464126396181 0 0 0
629 54 11 0.06 1.4930724570241773 16.292889961651852 5.14324423015378 0 0 0
628 54 11 0.06 3.912881323641881 15.393176362606965 5.8940683094177935 0 0 0
427 36 11 0.06 8.932569974918515 20.335346742704054 19.68604727827804 0 0 -1
428 36 11 0.06 7.23434769855179 -0.34465255712995335 19.915983692564502 0 1 -1
227 19 11 0.06 8.848797078993693 14.400078626565541 2.199540330060916 0 0 0
768 74 26 -0.39 5.861319698979067 15.78110390651611 1.3795820249553352 0 0 0
770 74 26 -0.39 4.982727457624285 17.57629153137836 2.0513171394625385 0 0 0
766 74 26 -0.39 4.929086942230831 15.937428277213188 3.388283361045344 0 0 0
764 74 27 1.34 6.0590473966914775 16.62973315661376 2.6424643061134727 0 0 0
765 74 26 -0.39 7.170860224288462 17.41307725870378 1.884411463206166 0 0 0
769 74 26 -0.39 7.045888370181508 15.616844996060843 3.180864959334565 0 0 0
425 36 1 0.22 7.956170452116234 19.92603244055477 19.772407475381634 0 0 -1
429 36 11 0.06 7.804082119509715 19.333365831933605 -0.3460647460395565 0 0 0
767 74 26 -0.39 6.255421898065192 17.539174228600636 3.848404072384877 0 0 0
700 61 11 0.06 6.285480658895765 20.073007925264974 4.193756659036434 0 -1 0
225 19 11 0.06 9.782866416890931 18.80566459117528 1.2739546657945606 0 0 0
738 70 26 -0.39 14.713818560076913 17.009670530509936 4.3420636104808485 0 0 0
728 64 11 0.06 13.395656745233795 18.439998943564063 0.2842307154200596 0 0 1
222 19 1 0.22 9.893087122959669 14.799470715779542 2.131690967898856 0 0 0
220 19 19 -0.35 9.904313285652186 15.986878512432357 1.3966158491595027 0 0 0
217 19 9 0.52 11.181163250192288 16.602013052065296 1.4792343703154684 0 0 0
218 19 20 -0.5 12.174868022933694 16.108417316365518 0.905954309017871 0 0 0
224 19 11 0.06 11.387946056731739 19.416143774237348 1.0486800791761581 0 0 0
221 19 1 0.22 10.737943020672772 18.95216366855128 1.8011501007036697 0 0 0
219 19 19 -0.35 11.266465285989964 17.768225489350407 2.3161152700055374 0 0 0
467 39 11 0.06 15.019776755778908 14.563592157435775 0.37523930047713683 0 0 1
274 23 11 0.06 18.85941394037438 15.236103216551024 4.826681818257414 0 0 0
295 25 11 0.06 -0.15226510697531626 19.377228101623736 4.407050486324959 1 0 0
417 35 11 0.06 16.970537389132062 16.26908160325113 1.9583992372982282 0 0 0
409 35 9 0.52 19.34545380803859 16.390798368888106 1.599162885106213 0 0 0
410 35 20 -0.5 20.112326619709457 15.676055262570896 2.261647001970542 0 0 0
413 35 1 0.22 17.28120043758635 17.279631929053828 2.2062391435336357 0 0 0
415 35 11 0.06 16.89734657787983 17.447179632037113 3.1774450612848786 0 0 0
416 35 11 0.06 16.93631222106557 18.05626377897849 1.5211515196101901 0 0 0
411 35 19 -0.35 18.670274934119178 17.487173626539537 2.2305952193737784 0 0 0
296 25 11 0.06 -0.1207275303972824 17.843296029746554 3.665347304876705 1 0 0
293 25 1 0.22 20.455134049273553 18.42950065852483 4.438366437928394 0 0 0
297 25 11 0.06 19.373939199964653 18.561064840543366 4.186792785264966 0 0 0
291 25 19 -0.35 -0.48009983773681597 17.801798064253425 5.726202493630242 1 0 0
727 64 11 0.06 14.568067010555591 17.421773762419974 1.1148277765099854 0 0 1
276 23 11 0.06 19.625043061819333 14.428206516178587 6.205596420310671 0 0 0
412 35 19 -0.35 19.111270293222674 16.021573761477512 0.2597083979127408 0 0 0
78 7 1 0.22 0.42997439048268793 1.3329348097322227 4.9034896919314175 0 0 0
84 7 11 0.06 -0.13353186995969435 0.6594517487991081 5.559375408752089 0 0 0
83 7 11 0.06 0.02320097743376104 2.318857684553854 5.06672970708881 0 0 0
82 7 11 0.06 1.42212666104315 1.32331193795145 5.359995918547173 0 0 0
510 43 1 0.22 -0.1623891489124334 3.7624168592402993 9.502480112149913 0 0 0
506 43 20 -0.5 2.594518316598209 2.600232739933499 7.846015443116054 0 0 0
508 43 19 -0.35 0.9110449830407359 3.957258866574402 8.60556504742101 0 0 0
505 43 9 0.52 2.0432473140619667 3.1671188562028307 8.85552855653677 0 0 0
188 16 11 0.06 4.6064283688644405 0.1691104696948894 7.462042553972733 0 0 0
681 60 9 0.52 3.473968344062497 4.296567886902121 5.331831222509422 0 0 0
507 43 19 -0.35 2.6996311713059673 3.2054557817872005 10.121800010653455 0 0 0
511 43 11 0.06 3.2234761404410572 5.133820574741231 10.099203064606847 0 0 0
449 38 1 0.22 8.36894592688125 4.475502244890967 4.144401350212656 0 0 0
451 38 11 0.06 7.333065869031205 4.532672418074971 4.48290681794454 0 0 0
682 60 20 -0.5 4.575925265097682 3.764624600322536 5.126838361306309 0 0 0
187 16 11 0.06 4.6718356888951105 1.4663593288727674 8.767581086227006 0 0 0
699 61 11 0.06 7.822928132706755 -0.17610870528811073 4.391806979137604 0 0 0
502 42 11 0.06 10.464433765153982 1.007464067479722 6.949888456325653 0 0 0
503 42 11 0.06 8.740551135740624 1.1375241983232711 6.3584901834900105 0 0 0
498 42 1 0.22 9.779298821411674 0.7778563392926798 6.113798068477683 0 0 0
185 16 1 0.22 5.14680281970536 0.6212651934688898 8.259132923078694 0 0 0
697 61 11 0.06 7.025057055450243 1.9582636266252056 4.507877170212169 0 0 0
189 16 11 0.06 5.230198069375876 -0.22746215850328866 8.93762690747069 0 0 0
183 16 19 -0.35 6.562864327733749 0.9467145542553486 7.932975146009081 0 0 0
181 16 9 0.52 7.396567607956263 1.3660840217182844 8.975021580834648 0 0 0
184 16 19 -0.35 8.74656581985181 1.3990244469051314 8.653639559332394 0 0 0
496 42 19 -0.35 10.167236144005631 1.3940420618964124 4.8732070704430255 0 0 0
504 42 11 0.06 9.825445415459667 -0.29209704542836845 5.947269462553183 0 0 0
493 42 9 0.52 11.544006670226421 1.2884280283226488 4.564504530223713 0 0 0
495 42 19 -0.35 12.408287393462006 0.2721414277110932 5.208667038990973 0 0 0
497 42 1 0.22 13.02856853963628 -0.5110495123019285 4.246921775884779 0 0 0
494 42 20 -0.5 12.016663061436361 2.3109186996083086 4.053214056737491 0 0 0
264 22 11 0.06 12.724073761822142 1.613023346328633 10.374320437017584 0 0 0
255 22 19 -0.35 10.554963844888924 4.211253027870933 9.285761327753438 0 0 0
259 22 11 0.06 9.486964337339156 3.5543903187871075 7.636988967388886 0 0 0
547 46 11 0.06 14.011241537801837 3.5785717156294785 6.168412269130364 0 0 0
546 46 2 0.22 15.062650520042164 3.3529052756963624 6.390875620890264 0 0 0
548 46 11 0.06 14.904847596904053 2.327519062096676 6.6484449171888125 0 0 0
257 22 1 0.22 9.486441091433491 4.407184876637032 8.357639966315833 0 0 0
499 42 11 0.06 13.087250158114093 -0.1419246508451883 3.2536624983461855 0 0 0
254 22 20 -0.5 12.335089861002121 5.1365853676159094 8.271746832425421 0 0 0
335 28 11 0.06 17.88584877193115 2.46299470219295 5.7014047660094365 0 0 0
328 28 19 -0.35 17.864078981767086 0.7276535467983727 6.7831697369595165 0 0 0
516 43 11 0.06 -0.15263379963533047 4.363712010664595 10.416915257723444 0 0 0
325 28 9 0.52 18.572109753787743 1.436049002999085 7.826234742706207 0 0 0
326 28 20 -0.5 19.81167152917879 1.399698765064754 7.978021757796357 0 0 0
327 28 19 -0.35 17.78359757770756 2.118247740160308 8.809843560178022 0 0 0
514 43 11 0.06 19.964101704903868 3.9715418993571303 8.984967156462478 -1 0 0
543 46 19 -0.35 15.802085926418437 3.937217065667352 5.283288672382005 0 0 0
329 28 1 0.22 17.381288596149872 1.2571510158481563 9.872438241578145 0 0 0
331 28 11 0.06 18.233487564675727 0.6095710597201247 10.110792629750712 0 0 0
332 28 11 0.06 17.05370973418176 1.8500230408436016 10.72998846653547 0 0 0
686 60 2 0.22 2.191601693356639 5.859542037235732 6.15338822709609 0 0 0
687 60 11 0.06 1.8845094624519811 5.68871069246503 7.20895178580323 0 0 0
683 60 19 -0.35 3.4130547690157242 5.247741024266618 6.3855713427667435 0 0 0
157 14 9 0.52 -0.37004641796451 8.47192305901712 9.326371478579102 0 0 0
158 14 20 -0.5 0.2779151921458838 7.425230219816435 9.239797187642868 0 0 0
160 14 19 -0.35 20.31645609291659 9.105096363596285 10.484123919641497 -1 0 0
3 1 19 -0.35 2.9691876259190266 9.7726941196893 5.731287761147688 0 0 0
509 43 1 0.22 3.6936450863676287 4.2008599742653585 10.069030238891223 0 0 0
512 43 11 0.06 4.34588516008869 4.216667948158121 11.011506589527057 0 0 0
163 14 11 0.06 -0.22998558524315194 10.977611117741612 7.254724947326038 0 0 0
161 14 1 0.22 0.10765476007935948 10.029561172334926 7.623278919583903 0 0 0
165 14 11 0.06 0.5266903055252399 9.45891104084846 6.828510020075798 0 0 0
159 14 19 -0.35 20.185202137161376 9.210384704923749 8.222249495332036 -1 0 0
513 43 11 0.06 4.272680544820796 4.06584017375258 9.139169703369667 0 0 0
441 37 11 0.06 6.3494035693923 6.192146659237215 6.575425877511534 0 0 0
7 1 11 0.06 4.515846107200319 8.363063464636024 5.122857995922212 0 0 0
5 1 1 0.22 3.5790007439880096 8.836348606317836 4.753930250369637 0 0 0
8 1 11 0.06 2.895506388861981 8.059056602453461 4.460829027929106 0 0 0
712 63 20 -0.5 6.552050899221777 7.431857008169097 4.333341649361197 0 0 0
437 37 1 0.22 6.020684557095735 6.954570579254343 7.288516494087318 0 0 0
440 37 11 0.06 6.5530116913794245 7.84598837586168 7.005705192941562 0 0 0
439 37 11 0.06 4.969543488519539 7.1906948325170745 7.2722544020622415 0 0 0
447 38 19 -0.35 9.276125845879317 5.004886362683997 5.085107128790382 0 0 0
70 6 11 0.06 9.257451278476386 8.14838118889679 7.665482680699782 0 0 0
66 6 1 0.22 9.336113701741448 8.937322540712076 8.400803580457374 0 0 0
435 37 19 -0.35 6.400595429861091 6.509539261488135 8.614291102086433 0 0 0
433 37 9 0.52 6.027802205808555 7.418555837533612 9.62816147413141 0 0 0
260 22 11 0.06 8.507035220455156 4.330519455327818 8.87322635198426 0 0 0
71 6 11 0.06 9.042483701764413 8.403791705097511 9.315726662349418 0 0 0
456 38 11 0.06 12.634200620443403 7.0509355698121725 5.06317985817973 0 0 0
454 38 11 0.06 10.931774080386557 7.4459477681201 5.3797014924985165 0 0 0
545 46 2 0.22 15.453046553755923 4.268299686278239 7.596686574074859 0 0 0
550 46 11 0.06 15.552190870314847 3.689610873578074 8.537960587175041 0 0 0
549 46 11 0.06 14.854997084138335 5.138326017716166 7.767028466723316 0 0 0
445 38 9 0.52 10.54718049134567 5.180597541217038 4.567527317655749 0 0 0
448 38 19 -0.35 11.510702533119844 5.456146531563996 5.580839216960524 0 0 0
455 38 11 0.06 12.147373939624941 7.06222059786054 6.741827035320425 0 0 0
450 38 1 0.22 11.755635106819955 6.831790875051788 5.738451044773136 0 0 0
261 22 11 0.06 9.59485416669301 5.330873578628498 7.8967589835462615 0 0 0
61 6 9 0.52 11.07251094932489 9.94731546046241 9.612819311276267 0 0 0
64 6 19 -0.35 10.61155706977271 9.505468122457955 8.365991686378356 0 0 0
63 6 19 -0.35 12.387833245455141 9.535990365201423 9.906584120341352 0 0 0
542 46 20 -0.5 17.235348282615526 5.783500485628905 5.18416319785868 0 0 0
541 46 9 0.52 16.713291944083075 4.88986897305306 5.81301248007308 0 0 0
515 43 11 0.06 -0.24781985018480523 2.7523927830390837 9.86220846620507 0 0 0
544 46 19 -0.35 16.385604365868666 5.3017902100919025 7.075220852889624 0 0 0
480 40 11 0.06 17.70451822294767 9.449399760894808 4.441515887326757 0 0 0
474 40 1 0.22 17.86224127404828 8.922645461340332 5.326254572845713 0 0 0
479 40 11 0.06 18.386568273338355 8.030843508625779 4.983731970199849 0 0 0
472 40 19 -0.35 16.60629419742991 8.569014679047337 5.877968574827401 0 0 0
162 14 1 0.22 19.84808282012694 8.185951035731085 11.406041996913604 -1 0 0
287 24 11 0.06 17.57291420210837 7.247611468623075 8.986354996999736 0 0 0
166 14 11 0.06 19.331511325753823 7.306542636606479 11.061874019361268 -1 0 0
1 1 9 0.52 3.6491271732032677 10.00357498519766 6.978731434097635 0 0 0
630 54 11 0.06 1.641301557604995 14.76549322163863 5.907663400355771 0 0 0
11 1 11 0.06 4.567958739705501 13.077382710067043 6.2262817219964335 0 0 0
4 1 19 -0.35 4.4221056978245405 11.193033152958387 7.18213233331231 0 0 0
2 1 20 -0.5 3.4191131020142733 9.247492180017025 7.899436757987164 0 0 0
6 1 1 0.22 4.199676541891609 12.097743032592723 6.080670779467555 0 0 0
12 1 11 0.06 4.834776627353913 11.752405721171755 5.296521645186134 0 0 0
10 1 11 0.06 3.187854099260756 12.15560462601542 5.607470296063523 0 0 0
134 12 20 -0.5 20.008733088092853 12.471345795226714 10.534768639065383 0 0 0
393 33 11 0.06 6.056752486144526 15.339034556975763 9.680232765975862 0 0 0
164 14 11 0.06 0.9377092994767546 10.291003290184728 8.282364397741482 0 0 0
30 3 1 0.22 7.356931328344784 12.248461449878283 3.529181397975896 0 0 0
9 1 11 0.06 3.9117338935730617 9.305839375361304 3.832780749966738 0 0 0
72 6 11 0.06 8.57469578255859 9.681451932798867 8.169918713340984 0 0 0
34 3 11 0.06 6.260540862101438 12.225087858520537 3.5672658113231304 0 0 0
28 3 19 -0.35 7.914000987122261 11.102304982281256 4.161835495269174 0 0 0
35 3 11 0.06 7.739434051429749 13.19060970008851 3.9802341955450276 0 0 0
387 33 19 -0.35 7.36597312681942 14.089231453044949 8.605595310108642 0 0 0
89 8 1 0.22 4.3949962715929125 11.255099698211767 10.467005806819367 0 0 0
93 8 11 0.06 3.6332270092464674 11.298683857991623 9.708943275181797 0 0 0
388 33 19 -0.35 9.714620724395882 14.519291550593252 8.113194568056407 0 0 0
390 33 1 0.22 10.744685412474533 13.521492445851392 7.92693395185036 0 0 0
385 33 9 0.52 8.389332830586579 14.13902520200023 7.679247764098973 0 0 0
395 33 11 0.06 11.626898688823935 13.756731057436209 8.5672382229664 0 0 0
739 70 26 -0.39 14.522087306453795 15.67442227119738 5.935093335612365 0 0 0
32 3 11 0.06 12.057959427008166 10.873124341757407 5.888092448816594 0 0 0
31 3 11 0.06 11.597941188299119 11.901309530793757 4.649845636608236 0 0 0
470 40 20 -0.5 14.719776447793553 9.626320068759807 4.917146665038278 0 0 0
27 3 19 -0.35 10.085335953943337 10.894572597763021 5.262981294674032 0 0 0
29 3 1 0.22 11.428475304686787 10.920813025899413 5.0676961365595465 0 0 0
475 40 11 0.06 14.937930215214612 12.467344506566468 6.65762464758178 0 0 0
394 33 11 0.06 11.154761923349552 13.426103720623349 6.892336029289621 0 0 0
69 6 11 0.06 13.072738003250196 10.760964635404386 8.284207918064322 0 0 0
47 4 11 0.06 13.51135566282037 14.702591883476513 10.091741131775823 0 0 0
396 33 11 0.06 10.51139878892405 12.466333628129222 8.18485884228397 0 0 0
478 40 11 0.06 18.51689674192999 9.48327639136971 6.011430107157046 0 0 0
469 40 9 0.52 15.651683277063993 9.627690420749259 5.788280822070189 0 0 0
471 40 19 -0.35 15.535179755807588 10.412887371289123 6.906668229834673 0 0 0
268 23 19 -0.35 18.342301964837283 13.232893019146008 5.1208923538838125 0 0 0
473 40 1 0.22 15.791568199666083 11.825539981536611 6.605413021844264 0 0 0
477 40 11 0.06 16.181560097362272 11.948590207741073 5.551428755553479 0 0 0
476 40 11 0.06 16.625023538807824 12.275110455683869 7.140429319151442 0 0 0
135 12 19 -0.35 18.933013847754317 11.87319229642007 8.72847704657406 0 0 0
133 12 9 0.52 19.407265812478762 12.906932742141331 9.583059938871909 0 0 0
136 12 19 -0.35 19.784767236357247 14.145678637912212 8.889699764908642 0 0 0
137 12 1 0.22 17.95621421620445 11.050541399016689 9.340572644616014 0 0 0
141 12 11 0.06 17.894479675203264 10.098795014733325 8.810677473783088 0 0 0
626 54 2 0.22 3.258546098994427 16.10326794523594 6.39154642661738 0 0 0
625 54 2 0.22 1.7938393906165384 15.842224880176643 6.119842515484188 0 0 0
624 54 19 -0.35 1.2160012065920698 15.652496822558648 7.401583922945356 0 0 0
622 54 20 -0.5 1.948282957916026 16.350776264187836 9.456176167776844 0 0 0
621 54 9 0.52 2.271537592671172 15.932764328154112 8.34918325571328 0 0 0
623 54 19 -0.35 3.5023872055630427 16.35856136342042 7.725728323523137 0 0 0
144 12 11 0.06 20.104014321489565 16.203347274879015 9.355666696380212 0 0 0
289 25 9 0.52 -0.40106526139950255 18.74046802960404 6.77643065438618 1 0 0
290 25 20 -0.5 0.7249864773347467 19.23690052374058 7.031795109473958 1 0 0
300 25 11 0.06 20.357089344750612 19.959202186698256 9.255325200753937 0 0 0
299 25 11 0.06 19.89594384845769 18.257926286249848 9.275022554659538 0 0 0
389 33 1 0.22 6.548478979660068 15.213201438066752 8.71097732863509 0 0 0
391 33 11 0.06 7.050755976808584 16.166857978200568 8.460251414693701 0 0 0
528 44 11 0.06 4.880453900318449 19.021875177090884 6.033062658362788 0 0 0
392 33 11 0.06 5.722024265513205 15.171370752539833 8.007787654763593 0 0 0
526 44 11 0.06 5.973141506438247 17.613992630499787 6.507494538024425 0 0 0
520 44 19 -0.35 6.856240681441403 19.424864554082227 6.561218182960391 0 0 0
527 44 11 0.06 5.217552597144661 18.92832337480779 7.6240231966219465 0 0 0
522 44 1 0.22 5.683342451222366 18.683691217095905 6.675207672565598 0 0 0
519 44 19 -0.35 8.633525745233415 18.61157162818661 5.137074037540072 0 0 0
521 44 1 0.22 9.389554443058548 17.434883245893673 5.014743910178907 0 0 0
523 44 11 0.06 9.249097406341166 17.284378735066895 3.946256824040738 0 0 0
386 33 20 -0.5 8.12593113784516 14.165835191585948 6.463324442294176 0 0 0
517 44 9 0.52 8.07848473915175 18.771253863759235 6.392780360323415 0 0 0
518 44 20 -0.5 8.874275208647584 18.849978382729752 7.3284030999507115 0 0 0
525 44 11 0.06 8.888124876995352 16.570394905071147 5.486477776465683 0 0 0
524 44 11 0.06 10.445821506954953 17.608095235604893 5.146216882583484 0 0 0
537 45 11 0.06 11.711745239373492 19.21983051249852 6.578304793202012 0 0 0
535 45 11 0.06 12.798245591424466 17.856161467349907 6.497079590221742 0 0 0
536 45 11 0.06 11.845358677348086 18.067892620833824 7.9711311242055345 0 0 0
533 45 1 0.22 12.364476566942376 18.61481259463163 7.165913035076877 0 0 0
531 45 19 -0.35 13.312454521241822 19.54447516121759 7.585424178146269 0 0 0
179 15 11 0.06 12.358212163024616 19.999543865172107 10.451087713870912 0 0 0
46 4 11 0.06 13.901068199695583 15.83372659239104 8.816587891636397 0 0 0
529 45 9 0.52 14.509440110117316 19.03210371850384 8.18032765766776 0 0 0
530 45 20 -0.5 14.45968648640482 18.261165959014 9.108946358536304 0 0 0
180 15 11 0.06 12.686536606636867 18.520938453499305 11.406200752106347 0 0 0
270 23 1 0.22 18.72703979114901 14.510878065752447 5.631909870383547 0 0 0
538 45 11 0.06 16.042620831516025 17.48588409026187 6.7884404460181615 0 0 0
539 45 11 0.06 17.366300959242444 18.491941148180814 6.666758814033327 0 0 0
333 28 11 0.06 16.56717105770121 0.6170870646219708 9.562100668048835 0 0 0
275 23 11 0.06 17.938086590840697 14.851999887388978 6.3084627359132215 0 0 0
40 4 19 -0.35 15.32025877865489 14.25198756557142 9.111952081102428 0 0 0
532 45 19 -0.35 15.626438337592498 19.442743356405323 7.421522954443631 0 0 0
534 45 1 0.22 16.497650341023096 18.309994945141796 7.280015050975607 0 0 0
540 45 11 0.06 16.790809539939318 18.020518208808106 8.29595749866797 0 0 0
292 25 19 -0.35 19.523393420520065 19.20580578067409 7.42555635622307 0 0 0
138 12 1 0.22 19.437794677198823 15.424431745115777 9.508298734073291 0 0 0
298 25 11 0.06 18.79665232852343 19.417734029969374 9.280318331867537 0 0 0
294 25 1 0.22 19.70365037235888 19.188703358304558 8.82225279713261 0 0 0
142 12 11 0.06 18.46027088120539 15.752411761291798 9.06514414561123 0 0 0
678 59 11 0.06 2.9262851818339706 -0.29314079064604526 11.256671428770463 0 0 0
677 59 11 0.06 1.79946734863774 -0.2725654000934875 9.954849564197998 0 0 0
676 59 2 0.22 1.8356717773381472 -0.39620196703597443 11.033616788138028 0 0 0
673 59 19 -0.35 1.6631359464618818 0.14139527718736877 12.348087733287262 0 0 0
321 27 11 0.06 1.2125697702564668 3.746694328882108 13.12563573207254 0 0 0
317 27 1 0.22 2.0447392653510197 3.7163874485191455 13.820124431055987 0 0 0
316 27 19 -0.35 4.645326675910104 2.446974749401441 13.936477567321331 0 0 0
323 27 11 0.06 4.805072983710007 1.6315230114509256 12.026341481816543 0 0 0
319 27 11 0.06 2.278170901231168 2.7630839880821485 14.34894439794703 0 0 0
146 13 20 -0.5 0.011716602003427723 1.6676218553649735 14.912950546496159 1 0 0
680 59 11 0.06 2.508265342287107 18.417489596835374 11.465769502288842 0 -1 0
313 27 9 0.52 4.3428020963829415 3.8846255448127014 13.893472544958202 0 0 0
318 27 1 0.22 5.396355492591124 1.8304298651272641 12.934327318570054 0 0 0
322 27 11 0.06 5.904351955270659 0.8699187850510923 13.201242734087206 0 0 0
182 16 20 -0.5 7.039501506527295 1.8860405100905875 10.016668575826285 0 0 0
324 27 11 0.06 6.261871680327433 2.444868537392375 12.625866904171444 0 0 0
186 16 1 0.22 9.340360045173734 0.304610219270122 9.420466158737105 0 0 0
191 16 11 0.06 9.4964578679154 0.5380344127776391 10.486856143263195 0 0 0
192 16 11 0.06 8.76443554381628 20.457523118700088 9.377614427514457 0 -1 0
402 34 1 0.22 8.656686815151033 5.7207906338034435 12.283269293814888 0 0 0
408 34 11 0.06 9.051093487276136 5.529994257059002 11.282746889514588 0 0 0
314 27 20 -0.5 5.062672802739445 4.801460621845582 14.387234744416043 0 0 0
190 16 11 0.06 10.321923159184088 0.05837534972281322 9.204488676622393 0 0 0
253 22 9 0.52 11.816861516799078 4.098571409981917 8.642167660033527 0 0 0
256 22 19 -0.35 12.645653486153327 2.9795255361050286 8.887341096006248 0 0 0
263 22 11 0.06 12.041071627067033 3.0405022801206694 10.964721332029708 0 0 0
258 22 1 0.22 12.808537983665952 2.6643293556929804 10.296560362744376 0 0 0
262 22 11 0.06 13.741035517633879 3.033720925423719 10.582261571944226 0 0 0
607 52 11 0.06 14.301178605468547 3.65546447367685 16.586515192979938 0 0 0
608 52 11 0.06 14.072808854314376 3.677669155658581 14.784046954132885 0 0 0
603 52 19 -0.35 15.13515809728208 3.261657803582942 14.380624822343998 0 0 0
606 52 2 0.22 14.469183297131297 3.09828398019009 15.639791835999707 0 0 0
601 52 9 0.52 15.517848355822744 1.93652136661535 14.093148166358175 0 0 0
400 34 19 -0.35 9.339279265140535 5.146145805238609 13.391826566622578 0 0 0
605 52 2 0.22 14.054968111468753 1.6020151341672908 15.73608563215677 0 0 0
610 52 11 0.06 12.934206003409331 1.5046750493437169 15.690997836705192 0 0 0
604 52 19 -0.35 15.16848170381497 0.9651164655977076 15.09131672816605 0 0 0
602 52 20 -0.5 16.49290562991616 1.7095443446526573 13.348815873614178 0 0 0
285 24 11 0.06 17.422380682262826 4.740044805421899 13.137785666540685 0 0 0
281 24 1 0.22 18.335927480290806 5.005864648889662 12.575640515103526 0 0 0
284 24 11 0.06 18.865327070828236 5.784213073289666 13.163845563662417 0 0 0
283 24 11 0.06 18.961692171331585 4.127268914333872 12.647118939365745 0 0 0
279 24 19 -0.35 18.07350093664263 5.306103627049725 11.24545353388439 0 0 0
147 13 19 -0.35 19.55753804186171 0.2692411797558377 15.744581947813144 0 0 0
145 13 9 0.52 19.9333320585866 1.5943833670482483 15.310112281423153 0 0 0
155 13 11 0.06 -0.4861381214282549 4.089523785570672 15.360912088649755 1 0 0
315 27 19 -0.35 3.2039987275099366 4.280474723189555 13.230244111316598 0 0 0
320 27 11 0.06 1.8021805195711753 4.430864488143191 14.630576095460905 0 0 0
644 56 19 -0.35 1.4902702058581183 6.472175163199147 15.59406483151072 0 0 0
641 56 9 0.52 0.42657361534496396 7.248705211476018 15.15045295674317 0 0 0
645 56 2 0.22 2.6501633801011995 7.18546742636559 15.45447689422234 0 0 0
649 56 11 0.06 3.398963973449599 6.710898676335707 14.82348336977239 0 0 0
643 56 19 -0.35 0.8532560802151299 8.543676637260887 14.849845157564635 0 0 0
647 56 11 0.06 2.5629337138080444 8.651147820909319 13.852728872395431 0 0 0
646 56 2 0.22 2.2851840834239057 8.50056861441749 14.847830351659443 0 0 0
444 37 11 0.06 4.9540920996512945 7.8881067014782165 12.257783046836686 0 0 0
648 56 11 0.06 2.806096027398514 9.294348338033585 15.36519195479761 0 0 0
434 37 20 -0.5 6.729499198803441 8.382075826977426 9.921170012606677 0 0 0
92 8 11 0.06 4.976973646088514 10.367487677873045 10.1181428460371 0 0 0
436 37 19 -0.35 5.097557248554723 6.861042059221835 10.52599808143849 0 0 0
438 37 1 0.22 4.355976260282331 7.678728659158432 11.365016785904192 0 0 0
443 37 11 0.06 3.467671266553917 7.241652193421911 11.823594067476169 0 0 0
407 34 11 0.06 8.676217062505698 6.780764584714759 12.365345415333152 0 0 0
406 34 11 0.06 7.594832760103397 5.415629490911972 12.253657030314066 0 0 0
442 37 11 0.06 4.100358664152178 8.559387449389881 10.824367614321954 0 0 0
207 18 19 -0.35 6.870999969113138 9.341329506809904 15.795013244914829 0 0 0
205 18 9 0.52 8.08764437926748 9.261362234606011 14.954507820782252 0 0 0
208 18 19 -0.35 7.935833467430507 9.09862685654776 13.591735107595358 0 0 0
216 18 11 0.06 7.735787219226667 10.174542534008832 11.83420455823609 0 0 0
398 34 20 -0.5 10.778162588354164 6.744794849276468 14.151081192964401 0 0 0
397 34 9 0.52 10.6271809858733 5.586397408454832 13.795042914321144 0 0 0
399 34 19 -0.35 11.764815688369485 4.8845740409404055 13.350709464628393 0 0 0
404 34 11 0.06 11.933578580198846 6.532784838474766 11.914864764605046 0 0 0
401 34 1 0.22 12.479117699630512 5.65239612239672 12.385081099070945 0 0 0
405 34 11 0.06 13.324514464372609 6.056383950920334 12.854007658366442 0 0 0
403 34 11 0.06 12.922982779326125 5.004293986412789 11.56962722987548 0 0 0
98 9 20 -0.5 15.288974173905117 9.081539678107589 13.729549897547003 0 0 0
68 6 11 0.06 14.359350364966266 9.9567524104177 9.267138978489097 0 0 0
580 49 11 0.06 17.840366060223552 6.355102811929609 15.040029937565697 0 0 0
286 24 11 0.06 16.467387795459338 8.50116147191251 9.358905474825372 0 0 0
167 14 11 0.06 -0.4203873708839965 7.8272002633484785 12.071728397716734 0 0 0
288 24 11 0.06 15.836588901336908 7.132796406046101 8.552278831691044 0 0 0
642 56 20 -0.5 20.480027716680674 6.839468507495251 14.629780253927786 -1 0 0
168 14 11 0.06 19.165424954481104 8.677184992425897 12.098212425512227 -1 0 0
280 24 19 -0.35 16.33266420871761 6.978865088525795 10.565835524726396 0 0 0
282 24 1 0.22 16.56964933038708 7.453632012401917 9.293738678977494 0 0 0
277 24 9 0.52 16.747012924789168 5.642870669451702 10.859138649479112 0 0 0
278 24 20 -0.5 15.872795636280687 4.842154611258335 11.19820422872394 0 0 0
103 9 11 0.06 17.278827721096455 12.283853880621113 14.448130413964726 0 0 0
104 9 11 0.06 15.55866253312911 12.72236701485978 14.357025908483784 0 0 0
115 10 11 0.06 1.715577497186925 10.754029524781377 12.777183050754834 0 0 0
116 10 11 0.06 -0.016052458342937004 11.236780465748193 12.374392927035789 0 0 0
113 10 1 0.22 1.0253896096988264 11.585972310623525 12.494227302652344 0 0 0
117 10 11 0.06 1.3658608814023292 11.945507050138561 11.454198835550551 0 0 0
111 10 19 -0.35 1.1520148835206092 12.555544337986987 13.52204972219152 0 0 0
109 10 9 0.52 0.33967069810273043 13.658700666035312 13.235360087272442 0 0 0
95 8 11 0.06 4.407180963788759 14.011416323027206 12.489760551407427 0 0 0
86 8 20 -0.5 5.010448120003694 10.40631067087317 13.6448801521751 0 0 0
96 8 11 0.06 3.914322572382946 13.419975198712557 14.124232311680412 0 0 0
112 10 19 -0.35 1.1247030077228541 14.704599020308246 12.715594049955612 0 0 0
118 10 11 0.06 1.3850676708492675 16.720500764544205 12.863592463146746 0 0 0
91 8 11 0.06 5.006603773989098 12.145370281260396 10.22736958226028 0 0 0
638 55 11 0.06 10.167421222595891 14.006908578172979 10.807452304098799 0 0 0
210 18 1 0.22 8.098671839973319 10.292325834596866 12.880966063446385 0 0 0
215 18 11 0.06 9.164442611693268 10.600409080350179 12.900655595758085 0 0 0
87 8 19 -0.35 3.865364110801951 11.228845712368022 11.797339688420525 0 0 0
85 8 9 0.52 4.829481003950635 11.334638226778809 12.842658152519874 0 0 0
88 8 19 -0.35 5.528648944949069 12.45957899060339 13.15213850534401 0 0 0
636 55 2 0.22 10.352962923992251 14.423703491356642 11.771950034476511 0 0 0
637 55 11 0.06 9.450242503447361 14.271076239132894 12.369709477991009 0 0 0
213 18 11 0.06 7.506351793731673 11.141106603127986 16.603675916150102 0 0 0
214 18 11 0.06 7.453708366692852 11.117934542523376 13.184930668845821 0 0 0
90 8 1 0.22 4.762581110612134 13.632384460953686 13.461595839247446 0 0 0
763 73 26 -0.39 7.999642081238532 15.023361229671098 14.83598163725577 0 0 0
94 8 11 0.06 5.38344995713731 14.384023025484337 13.901836629724158 0 0 0
62 6 20 -0.5 10.290308561584476 10.427751680720341 10.384085259562262 0 0 0
38 4 20 -0.5 15.417755550448913 12.657397072876163 10.708877270746516 0 0 0
639 55 11 0.06 11.038114238745678 12.86470136017597 13.281699361248224 0 0 0
635 55 2 0.22 11.372292321015033 13.487449621029215 12.479337434482336 0 0 0
65 6 1 0.22 13.321202815343016 10.419684107258108 9.33173597805314 0 0 0
640 55 11 0.06 11.778258566690798 12.79978544802881 11.725143926559527 0 0 0
67 6 11 0.06 13.44481128873255 11.305858359338727 9.889931040255687 0 0 0
107 9 11 0.06 11.744133998131849 10.197245897314868 13.649827091187689 0 0 0
102 9 1 0.22 12.732240976957646 9.798389931500202 13.672824103328391 0 0 0
108 9 11 0.06 12.73709239746573 8.835825128346384 13.152093905325868 0 0 0
634 55 19 -0.35 12.443227818920086 14.309199350581103 12.814253416150665 0 0 0
106 9 11 0.06 12.904370256024988 9.619224307871185 14.73168501501274 0 0 0
589 50 11 0.06 12.876241784302561 16.284967785913643 16.27311947485213 0 0 0
100 9 19 -0.35 13.655410227866001 10.642093060978299 13.106051221089263 0 0 0
585 50 2 0.22 13.377708602581652 15.284005096903492 16.213268630221627 0 0 0
139 12 11 0.06 18.250171382895047 10.8319321779329 10.355824851481463 0 0 0
37 4 9 0.52 15.876719577358733 13.683876834400554 10.291709384938784 0 0 0
101 9 1 0.22 16.26622537717082 11.906983182311283 14.506573711539714 0 0 0
105 9 11 0.06 16.215226700096828 11.446086133391596 15.5173365906261 0 0 0
97 9 9 0.52 15.03013463608259 10.204620210917206 13.360382993668061 0 0 0
140 12 11 0.06 16.990946416149818 11.54652695886022 9.356369762974756 0 0 0
39 4 19 -0.35 17.096234248218764 14.214767965754842 10.718427609187463 0 0 0
43 4 11 0.06 18.076351228633726 14.866889786866654 12.638911224665987 0 0 0
41 4 1 0.22 17.474844817911816 14.121578936137698 12.10467988207386 0 0 0
44 4 11 0.06 16.596069745071155 13.992479075690108 12.795637641460958 0 0 0
99 9 19 -0.35 16.10072966199951 11.104971744354764 13.388086303241433 0 0 0
584 50 19 -0.35 13.412810294536488 14.102638410339045 15.430284388699045 0 0 0
45 4 11 0.06 18.03965985112157 13.20122826011126 12.157048563099146 0 0 0
671 59 9 0.52 1.0392060761388109 20.317897370091302 13.155223939944856 0 -1 0
672 59 20 -0.5 1.4224162099240016 20.14128975450957 14.310904046866467 0 -1 0
675 59 2 0.22 1.5858038808528288 19.127973165916856 11.293092899877298 0 -1 0
679 59 11 0.06 0.8892305964633853 18.623371964857533 10.596072809597711 0 -1 0
674 59 19 -0.35 0.7598682528765033 19.102866988923665 12.461281603814788 0 -1 0
120 10 11 0.06 -0.2333465520152217 16.215699598608552 13.519029745268691 0 0 0
119 10 11 0.06 -0.011967844124464944 16.18660577754924 11.842059170588085 0 0 0
114 10 1 0.22 0.5440132016391395 15.983073905918298 12.752773362000099 0 0 0
613 53 19 -0.35 4.175346651951379 18.86694018059695 14.543249194860827 0 0 0
617 53 11 0.06 3.9795377987237384 16.883140331479126 15.427033953260516 0 0 0
616 53 2 0.22 4.401455898638957 17.488185001458056 14.57394617625413 0 0 0
652 57 20 -0.5 5.5480352078974855 18.70819934000449 10.225369148658727 0 0 0
651 57 9 0.52 6.660230958445948 18.838205960203503 10.705786489463069 0 0 0
654 57 19 -0.35 7.6081312319163406 17.770510259406656 10.62611283393006 0 0 0
653 57 19 -0.35 6.784266747531656 19.713873101288883 11.815489964384163 0 0 0
657 57 11 0.06 8.839981455032188 19.898726682653653 12.853330591899898 0 0 0
658 57 11 0.06 7.093190080680677 19.46013973908577 13.097398562454226 0 0 0
655 57 2 0.22 8.395021370809035 18.019817503453694 11.828812327122673 0 0 0
656 57 2 0.22 7.967953763131462 19.36905334344528 12.442390342939023 0 0 0
660 57 11 0.06 8.323267590608479 17.103661520913406 12.43806264172881 0 0 0
659 57 11 0.06 9.374266711360935 17.97726953214235 11.404716239324605 0 0 0
618 53 11 0.06 3.8679561259917 17.11744504784241 13.676154489429148 0 0 0
48 4 11 0.06 14.778967516114689 15.888071366628731 10.250707789749159 0 0 0
42 4 1 0.22 14.31808404038079 15.203829793997647 9.563209951726094 0 0 0
631 55 9 0.52 11.97864172263233 15.615598658440723 12.562312091864587 0 0 0
632 55 20 -0.5 12.84997134302423 16.481278494253424 12.478692745607487 0 0 0
633 55 19 -0.35 10.636752887227656 15.77430448315659 12.11397960972784 0 0 0
178 15 11 0.06 11.195732222096593 18.74367717210817 10.665105973998358 0 0 0
174 15 1 0.22 11.936064682484483 19.300626864873358 11.189874898891171 0 0 0
172 15 19 -0.35 11.244047015120856 19.991243071133027 12.224562205934602 0 0 0
590 50 11 0.06 14.443010602265533 15.49690921667109 15.987799148405161 0 0 0
169 15 9 0.52 12.15681876270337 20.400440036803126 13.126155898374142 0 0 0
170 15 20 -0.5 12.805181659543035 0.2777398296625405 12.734179923117681 0 1 0
173 15 1 0.22 13.21171532640554 19.498977849985295 15.059796405833147 0 0 0
175 15 11 0.06 13.224475760535602 18.515620469992186 15.524822855665702 0 0 0
171 15 19 -0.35 11.985422971135412 20.07187605431355 14.473063069927381 0 0 0
176 15 11 0.06 14.048306929985467 19.595823477256445 14.413455867303082 0 0 0
570 48 11 0.06 16.12270609839151 20.11575382461355 12.952614648226133 0 0 0
569 48 11 0.06 15.521957940068502 19.943703200006297 11.292305815085546 0 0 0
143 12 11 0.06 19.345897018670158 15.32166332986529 10.596769844514993 0 0 0
567 48 11 0.06 15.287235164583578 17.632781736981954 11.507418814089043 0 0 0
565 48 2 0.22 16.042366834720028 19.453627012126418 12.07835847461447 0 0 0
562 48 20 -0.5 18.810589600068397 17.60155121295901 11.28259287834717 0 0 0
564 48 19 -0.35 17.484857779416195 19.337501875706685 11.773651500348558 0 0 0
561 48 9 0.52 17.759851348259808 18.006026649415375 11.705925837952176 0 0 0
563 48 19 -0.35 16.829400488880687 17.215101885846835 12.289862453345341 0 0 0
566 48 2 0.22 15.69062271268533 18.027565481941288 12.404333237520829 0 0 0
568 48 11 0.06 14.95979151046386 17.87880822400151 13.1780315625595 0 0 0
153 13 11 0.06 19.06828033873233 0.0012298761162918836 13.782063714116045 0 0 0
704 62 19 -0.35 17.580498723518005 16.730306122404315 15.191102865054912 0 0 0
702 62 20 -0.5 15.92723868750454 18.133824906279592 15.845587676234688 0 0 0
244 21 19 -0.35 2.8249398508747525 2.417396308645003 17.368169370933792 0 0 0
242 21 20 -0.5 2.1761359403914486 0.3142828963852762 16.960521562799997 0 0 0
241 21 9 0.52 2.5470449223580527 1.1191153775022287 17.79716676187821 0 0 0
245 21 1 0.22 2.381140956307765 0.26410739646414294 20.025828341974716 0 0 0
243 21 19 -0.35 3.144097217483766 0.6967541317092052 18.960365524918878 0 0 0
246 21 1 0.22 2.4233725275667606 3.37485929786117 18.305028611886605 0 0 0
251 21 11 0.06 2.6609128914212796 4.377062461764083 17.95612151513412 0 0 0
252 21 11 0.06 1.3705996284083848 3.2625728337696027 18.45197287481826 0 0 0
250 21 11 0.06 2.9679731442953656 3.3161529935735783 19.265410304756323 0 0 0
247 21 11 0.06 1.796874655041607 1.0735223058138736 20.440291959273722 0 0 0
248 21 11 0.06 1.6800208126096705 20.52192688686502 19.809558250017474 0 -1 0
57 5 11 0.06 10.739513502010727 0.4260278771716779 18.404232010325345 0 0 -1
307 26 11 0.06 4.756328779983739 3.32338247246763 2.110256438528923 0 0 0
733 67 31 1 5.666384940059988 0.0766537889035469 17.066960939312935 0 0 0
749 71 26 -0.39 6.34496763930981 3.175544784819477 16.56017960884256 0 0 0
743 71 27 1.34 7.776375425783394 2.525289583700783 16.556266914966848 0 0 0
747 71 26 -0.39 7.219485595346858 1.081157084505148 16.95322077053018 0 0 0
745 71 26 -0.39 7.79201213008381 2.887439044983352 18.097085485927863 0 0 0
746 71 26 -0.39 8.273240155125356 3.9731364188492666 16.12734516312105 0 0 0
744 71 26 -0.39 7.668443304627463 2.167775376833167 15.109979838482607 0 0 0
748 71 26 -0.39 9.20185408244667 2.0252627562736487 16.730183903418443 0 0 0
734 68 31 1 6.323314232832165 4.849107394394166 15.751643382025913 0 0 0
53 5 1 0.22 11.685330641799926 0.7213467946575842 18.89719644669173 0 0 -1
560 47 11 0.06 11.148352237270984 4.504804266108268 18.981560416534826 0 0 0
559 47 11 0.06 12.858821150002228 4.337567600283749 18.704301200478234 0 0 0
609 52 11 0.06 14.503698346114765 1.1331843932584618 16.633484524830173 0 0 0
557 47 11 0.06 13.382019713993481 6.23513344594735 19.872406812266263 0 0 0
55 5 11 0.06 12.512266949322463 0.7817986839336053 18.162301912968715 0 0 -1
722 64 20 -0.5 14.81014038877064 -0.3175454443947421 19.708668236616916 0 1 0
555 47 2 0.22 12.039887184809425 5.025845075621629 18.630327776853917 0 0 0
723 64 19 -0.35 14.84354357977351 19.51381647623016 0.39620059028575316 0 0 1
22 2 11 0.06 16.784467803550477 2.193454764632827 18.068523352942712 0 0 -1
16 2 19 -0.35 18.404092686545738 2.281270069773972 19.45045010952539 0 0 -1
13 2 9 0.52 19.520929216313704 1.4776557150290137 19.89610821421992 0 0 -1
18 2 1 0.22 17.3279927862992 1.5440999749410729 18.812835985287656 0 0 -1
23 2 11 0.06 17.667218859474424 0.6236937530473685 18.255241791551057 0 0 -1
148 13 19 -0.35 19.449996778201857 2.591853577232213 16.21004079575193 0 0 0
156 13 11 0.06 19.67453930044725 4.488800532753459 16.776257146612075 0 0 0
150 13 1 0.22 20.298635367726625 3.735714750567941 16.34209884812652 0 0 0
14 2 20 -0.5 -0.46410966405733234 2.0370677321497204 19.93526225848261 1 0 -1
149 13 1 0.22 18.851933449887127 -0.4180945599171983 14.726022362508973 0 0 0
151 13 11 0.06 19.159808932512433 19.660416421646545 14.654093863324498 0 -1 0
152 13 11 0.06 17.773350109921154 -0.3140835750724682 14.847336959317607 0 0 0
24 2 11 0.06 16.479346296789245 1.2340952993973127 19.427229284828968 0 0 -1
650 56 11 0.06 3.2779824440542455 7.383431414527579 16.32456416441685 0 0 0
357 30 11 0.06 1.4120602382587426 10.147720702449268 -0.48612681693913373 1 0 1
356 30 11 0.06 0.9348661656967903 8.9490224077306 19.24747527256855 1 0 0
353 30 1 0.22 0.9051262714682615 9.987941950077923 19.613982188742888 1 0 0
351 30 19 -0.35 -0.33508922915307227 10.636063331655146 19.48329296380821 1 0 0
197 17 1 0.22 4.871506948705679 7.916519308366613 19.05681039011712 0 0 0
201 17 11 0.06 3.789437891870932 7.934613765440259 19.228797110128895 0 0 0
355 30 11 0.06 1.506420256843271 10.500850342306872 18.84007124802507 1 0 0
200 17 11 0.06 4.9886373412486105 8.745225431621197 18.340313235707896 0 0 0
732 66 31 1 10.49978029778928 7.864644246579942 15.370468416550388 0 0 0
195 17 19 -0.35 5.285648925311443 6.79028393627175 18.342309004681788 0 0 0
206 18 20 -0.5 9.149358250768636 8.968999310441292 15.467330564506474 0 0 0
193 17 9 0.52 6.53243360560203 6.623612972418398 17.74833544495064 0 0 0
194 17 20 -0.5 6.5255811856099974 6.237425752305166 16.540629386538036 0 0 0
196 17 19 -0.35 7.682731508931468 6.645349462237707 18.541911080513287 0 0 0
202 17 11 0.06 9.22426490969428 7.765152009836475 19.487027176749514 0 0 0
203 17 11 0.06 8.649722734872013 8.40662880344459 18.005183461937932 0 0 0
198 17 1 0.22 8.295469750101761 7.8720640153072985 18.881315350669993 0 0 0
204 17 11 0.06 7.62661928301833 8.623286631050647 19.339342398724504 0 0 0
199 17 11 0.06 5.535649481831306 8.028662819841239 19.83870746140542 0 0 0
579 49 11 0.06 16.103307009157803 6.632603897051804 14.28575889309856 0 0 0
574 49 19 -0.35 16.45460377124178 5.2815787522791915 15.979725518006342 0 0 0
558 47 11 0.06 11.789688435003363 5.790914876859438 -0.5413177198532608 0 0 1
556 47 2 0.22 12.312658186441736 6.163377427388689 19.598646941586246 0 0 0
554 47 19 -0.35 11.941951287208303 5.573828365673232 17.29684422527911 0 0 0
551 47 9 0.52 12.147520374896866 7.019321679723944 17.45877640353774 0 0 0
553 47 19 -0.35 12.255055298024034 7.369551067928028 18.82272505614393 0 0 0
552 47 20 -0.5 11.59451565051714 7.813078139088489 16.728381581253636 0 0 0
464 39 11 0.06 14.845833799100925 9.08936553171157 18.999776539322276 0 0 0
575 49 2 0.22 16.730007770127386 6.471881837307258 15.186075362297563 0 0 0
123 11 19 -0.35 11.053858271183616 10.446248554648104 18.57546985508516 0 0 0
600 51 11 0.06 19.1407437590195 7.491945933248264 18.487709949023824 0 0 -1
463 39 11 0.06 14.859108429444143 10.51753833793943 17.955257626318904 0 0 0
154 13 11 0.06 0.028955735792388637 3.738407876430383 17.0219476469043 1 0 0
577 49 11 0.06 15.546989445315665 8.108886427485965 16.098296365950553 0 0 0
571 49 9 0.52 16.039630743433115 5.768131865404099 17.229102318711888 0 0 0
572 49 20 -0.5 15.711944486712559 4.97695064770292 18.136090457704974 0 0 0
573 49 19 -0.35 15.98835028659236 7.153051977990722 17.294117577849093 0 0 0
576 49 2 0.22 16.527358154089207 7.6677112284701145 16.116545279901004 0 0 0
578 49 11 0.06 17.054549570074286 8.576510607686728 15.656080869390495 0 0 0
598 51 11 0.06 17.61016569956712 8.698786620722549 19.703368709387433 0 0 -1
350 30 20 -0.5 19.954993017390173 9.658056156044891 17.50628570805268 0 0 0
349 30 9 0.52 19.998232317252366 10.549297415741703 18.33874059799068 0 0 0
352 30 19 -0.35 19.494030323770076 11.745821737052195 18.01783139151275 0 0 0
110 10 20 -0.5 20.29693870642297 13.797415587393644 13.730652880740955 -1 0 0
211 18 11 0.06 5.874104588091082 11.020946715660264 15.703485207596922 0 0 0
382 32 11 0.06 3.4002811392788392 14.491276601840182 18.48774114966203 0 0 0
383 32 11 0.06 4.460533736603657 14.149204119612156 17.28706838787558 0 0 0
378 32 1 0.22 3.5404896626586844 13.755456635757383 17.69564334005228 0 0 0
384 32 11 0.06 2.6846218198423473 13.80304789239609 17.073412165187655 0 0 0
376 32 19 -0.35 3.720772897148235 12.38320269624653 18.1589684138629 0 0 0
373 32 9 0.52 3.9774430769704265 12.197586803373989 19.521997867766288 0 0 0
374 32 20 -0.5 3.1827861173318137 11.807894072723492 20.315482447035116 0 0 0
375 32 19 -0.35 5.289087256223966 12.441536952503908 19.861853658063097 0 0 0
380 32 11 0.06 4.515324303623637 14.195250117320038 -0.31758755654065013 0 0 1
131 11 11 0.06 8.700179245068327 12.946476413328018 20.34077936423372 0 0 0
130 11 11 0.06 7.5519935184416 11.849238717286832 -0.37780412711560585 0 0 1
209 18 1 0.22 6.638393096157492 10.581137220157098 16.31846806715984 0 0 0
212 18 11 0.06 6.208230086893906 10.438686457161525 17.274206142090918 0 0 0
760 73 26 -0.39 8.48994695452773 12.885949344480233 15.017993499624145 0 0 0
757 73 27 1.34 8.310421799745274 14.089092200226311 15.941333616804814 0 0 0
124 11 19 -0.35 9.13215343557407 10.866791162086008 19.92555817360126 0 0 0
126 11 1 0.22 8.32035631233842 12.009225805027809 19.93025867014432 0 0 0
132 11 11 0.06 7.789230502111602 12.166427597590829 19.00194759262167 0 0 0
758 73 26 -0.39 6.769301538483215 13.69261295657829 16.07878158121555 0 0 0
762 73 26 -0.39 8.596497885834431 13.151959036058013 17.159218184255657 0 0 0
759 73 26 -0.39 9.833131987267976 14.509759354191486 15.867028167158102 0 0 0
121 11 9 0.52 10.467501085261375 11.128561880962215 19.61457814693538 0 0 0
461 39 1 0.22 14.749758836747842 10.158248528155964 18.963981281588943 0 0 0
465 39 11 0.06 13.680811756742184 10.411844511749683 19.136965989570726 0 0 0
129 11 11 0.06 9.70327317326136 10.786001736231736 16.96148857167232 0 0 0
587 50 11 0.06 12.32093951350581 14.581593740998718 18.02986781379701 0 0 0
122 11 20 -0.5 11.037502289285127 12.031910983376862 20.28197499230818 0 0 0
128 11 11 0.06 11.49494115597504 10.609563391062423 16.842488175095404 0 0 0
459 39 19 -0.35 15.60231703061834 10.71254284713709 19.944627575821833 0 0 0
125 11 1 0.22 10.67753651768164 11.05927186965345 17.40133083509044 0 0 0
237 20 11 0.06 10.088867350217287 15.262574334281108 20.143288084636296 0 0 0
127 11 11 0.06 10.880799292354663 12.142852370923212 17.34566073716914 0 0 0
462 39 1 0.22 14.330047739413846 13.713524379399859 0.21121530473411865 0 0 1
586 50 2 0.22 13.312564978846936 14.754451717286187 17.641622037620984 0 0 0
583 50 19 -0.35 13.194304817102559 13.357566029780866 17.578333357892888 0 0 0
466 39 11 0.06 13.422242243456948 13.857227079800168 0.7841990592821795 0 0 1
588 50 11 0.06 13.850482174641769 15.379832119973209 18.316585384082295 0 0 0
709 62 11 0.06 18.977219523908232 15.47766049569278 15.616791475453097 0 0 0
710 62 11 0.06 17.40848581848605 14.708292082673612 15.187525724157858 0 0 0
705 62 2 0.22 17.915616303337202 15.521218795826949 15.790365229547659 0 0 0
358 30 11 0.06 -0.1364404132860711 12.136985951591369 16.521449000630113 1 0 0
581 50 9 0.52 13.399421743020387 13.005047167904708 16.276597501264305 0 0 0
457 39 9 0.52 15.455804928497209 12.113933306490782 20.069514213869645 0 0 0
418 35 11 0.06 19.9164991714867 17.09560369366139 19.72088241332242 0 0 -1
359 30 11 0.06 19.30211355098188 11.889058526914775 15.869151754154826 0 0 0
582 50 20 -0.5 13.661739160237296 11.850188038603086 15.906287570555728 0 0 0
708 62 11 0.06 17.089043224237884 14.537240186051994 17.5053411217991 0 0 0
458 39 20 -0.5 16.11699572069908 12.864027980905394 19.32999301500054 0 0 0
360 30 11 0.06 19.827781014782104 13.29530669784102 16.544241405852112 0 0 0
354 30 1 0.22 19.880994129176784 12.264682350262328 16.724911690524564 0 0 0
468 39 11 0.06 13.836395848085298 13.952975294525276 20.379517667332927 0 0 0
426 36 1 0.22 4.266806143613529 18.34208965641205 19.825920723823394 0 0 -1
432 36 11 0.06 3.415393967959006 18.296945459777902 19.1690644734026 0 0 -1
430 36 11 0.06 4.605524963669775 17.402234004319332 20.257566175619488 0 0 -1
731 65 31 1 1.5457455869206447 20.153692576144337 15.971712763568581 0 -1 0
612 53 20 -0.5 5.243397929756954 20.529670728648703 15.588525223054122 0 0 0
753 72 26 -0.39 -0.11673747573395737 16.44994725725976 17.42545360301999 0 0 0
756 72 26 -0.39 1.0464473060816584 16.972531778430856 15.60105725070377 0 0 0
750 72 27 1.34 1.0965014010782093 17.458806369899584 17.110007351814055 0 0 0
752 72 26 -0.39 2.0857277463290553 16.338675958423586 17.48817582603028 0 0 0
751 72 26 -0.39 0.1702520472700163 18.612658111527992 16.66396746944295 0 0 0
755 72 26 -0.39 1.1390151246049884 17.93266961333817 18.58271260525656 0 0 0
754 72 26 -0.39 2.2676531465532404 18.36480703729221 16.83505293484457 0 0 0
619 53 11 0.06 5.974047348295109 16.689345290877746 15.728765590972726 0 0 0
424 36 19 -0.35 5.213295189435699 19.159260856275772 19.24000194797977 0 0 -1
421 36 9 0.52 6.344239227249254 18.50495405745326 18.6906020028109 0 0 -1
423 36 19 -0.35 7.543903098345655 19.227389428224214 18.59301607406271 0 0 -1
611 53 9 0.52 5.306404984328639 19.43354280409924 15.090165323394581 0 0 0
761 73 26 -0.39 8.17084791015262 15.300191277957303 16.848724080599396 0 0 0
614 53 19 -0.35 6.4290489530607 18.675018734756136 15.21215595672942 0 0 0
615 53 2 0.22 5.878850002153833 17.35139701103821 14.836678015499736 0 0 0
620 53 11 0.06 6.415075304846711 16.833008809439896 14.019336101270317 0 0 0
238 20 11 0.06 9.261826624413914 17.30200779056009 16.923843274503618 0 0 0
422 36 20 -0.5 6.165558133734798 17.58205492875623 17.876958007424648 0 0 -1
234 20 1 0.22 9.810869116931531 18.20664823162265 16.708801014130714 0 0 0
239 20 11 0.06 9.302371796378527 19.15353863211817 16.863113034042605 0 0 0
240 20 11 0.06 9.82629208224743 18.197778905638557 15.604386245657158 0 0 0
235 20 11 0.06 9.132365806308357 16.562201032728836 19.51351638244573 0 0 0
721 64 9 0.52 15.181555488887003 19.70653877806415 20.125222640948706 0 0 0
236 20 11 0.06 9.611453770493991 15.127510244303469 18.571993030016216 0 0 0
177 15 11 0.06 13.43338546435796 20.113724061907675 15.969785741140951 0 0 0
233 20 1 0.22 9.989924379898603 15.900500323822035 19.284166450474956 0 0 0
231 20 19 -0.35 11.226910232058108 16.518409652658264 18.982135295089698 0 0 0
232 20 19 -0.35 11.081041803575243 18.207360872735386 17.28786439584603 0 0 0
229 20 9 0.52 11.072433514600567 17.859311863786296 18.6317459171902 0 0 0
230 20 20 -0.5 11.24946100090651 18.78611958551054 19.45981266740609 0 0 0
730 64 11 0.06 13.957769024719603 17.467020318963435 19.457379043292683 0 0 0
725 64 2 0.22 14.861922337722193 17.59870589058316 20.104193397274457 0 0 0
726 64 2 0.22 14.450822727279817 18.145294557635623 0.3122231814499862 0 0 1
19 2 11 0.06 -0.18478478600001774 -0.2713440269595093 0.3098693542848764 1 0 0
707 62 11 0.06 18.48140956141969 15.63662927381833 17.83912623276194 0 0 0
724 64 19 -0.35 15.036043659935235 18.65024148519037 19.288528385086337 0 0 0
17 2 1 0.22 19.835263653956424 -0.4670780577214515 0.056409932621394376 0 0 0
20 2 11 0.06 19.235334714000167 -0.15102882257152805 0.9358428458196311 0 0 0
21 2 11 0.06 19.767646273861956 19.530951423774326 -0.041943902357948315 0 -1 0
706 62 2 0.22 17.530919206922043 15.5107666563485 17.266564645265234 0 0 0
703 62 19 -0.35 16.546319168030877 16.549147280117737 17.371023861122673 0 0 0
729 64 11 0.06 15.44778375164411 16.644742048699193 20.12644852296824 0 0 0
701 62 9 0.52 16.63174049931861 17.187727792122473 16.121366474735204 0 0 0

Velocities

74 0.0028487400136782 0.005482174073182083 0.004712863600805612
73 -0.00835987424341701 0.003780065183281556 0.003375370706729615
75 -0.006274192059623362 0.0059506227613388704 0.005624651016672517
77 -0.0018032508894913857 0.001596980417185564 0.0004944092501217158
81 0.0007320533482939644 -0.005739935095853626 0.034925785984559865
684 -0.006057058409553329 0.001206556570383259 -0.004631082310043494
76 0.0011648008771406053 -0.0005694274981529992 0.004637665768564798
309 -0.010153825751719879 0.008940222210524786 0.02872072280181849
249 0.030588117002828055 0.023572932015338506 0.011075829543417664
303 -0.01097180060785637 0.0029789382749654822 0.0019372428571350568
308 0.0025889506104705864 -0.03008515666075103 -0.01154337326393278
692 -0.004629247327832569 0.010145232253147129 -0.002368621542685534
691 0.0022571158099690264 0.006791263981269465 0.006812278124614917
694 -0.0018599597488743946 0.001480053494286055 0.005019445966557865
693 -0.004125912933846394 0.0016126578334807928 0.004492482734616414
54 0.003146291838131159 -0.01084542614361034 0.0052137083193031395
60 -0.008070156570104512 0.030199724238373898 -0.0019964213577574165
696 0.0029357820714056293 0.0014321497422952122 0.0043394908142557545
453 -0.003747032052022134 -0.011096252615323555 -0.013012223084739013
305 0.00564786473065702 0.006708439732269495 0.0033429097389437654
698 -0.007499434149735571 0.0031844914450576065 0.004313480075150236
695 0.005101629386641485 -0.0008452282358436014 -0.005131452675567999
52 0.008262790499996207 0.0023233356539640385 0.003811159976079188
49 -0.0013300644477623705 0.0002274854408863263 0.005435452373883592
348 -0.0007748459528507674 0.012536516191964508 -0.01412389550803227
50 0.004902760842849154 0.0004787470407844211 -0.007361934786460155
342 -0.00018086075188612942 -0.004378323272817104 0.006571477672842977
51 0.0021099473669084993 0.005542806326300352 0.0017763972053473711
347 -0.023501939945339258 -0.016255872695110907 0.005732443637153973
338 -0.004633626141987074 0.004495684696073525 -0.009786761065520259
337 -0.009732855085187953 -0.004192701268562593 0.0051829436573687035
223 -0.007611088801583842 -0.018874596306717777 0.008865757252854677
500 0.006775609462864374 -0.024604656787028247 -0.015721318374658098
501 0.008889210078975219 -0.01847890921205319 -0.003678826850995232
56 -0.013359012312828131 0.012522577459236926 -0.02729650106522569
79 0.01811691352973605 -0.00392980801172072 -0.008242434149325283
346 0.008329290464025207 0.007854521593456154 -0.001323579215497109
340 0.008310754929868713 -9.607246582295608e-05 0.0057049604751947215
15 0.008304233662985314 -0.004898841019367048 0.00123037158386298
334 0.013237589240115208 0.02124826978019054 0.006956625853089656
330 0.0033109838224801105 0.002450150360002917 -0.0029831141776960482
336 0.003964585646423432 -0.01573696211475383 0.011938714596584191
343 0.011416713464905283 0.030969895176103223 0.026084576034184185
80 -0.013295140259041853 -0.0007698531524307898 -0.028104883485166498
690 -0.016868303871562438 -0.0024080498723023256 0.003997598291974774
306 0.009667568763642121 -0.006203508760892356 0.004854732348884988
311 -0.012876400683915488 -0.008226492014702755 0.005179838296820236
689 -0.013334553888741846 -0.0017521586471347772 0.009970898853267095
685 -0.007624274600653192 -0.0016638455568147759 -0.006159832361496801
301 0.00016707122526415596 0.004143819956363369 0.007771847413674565
670 -0.025428732675362817 0.017201289371084512 -0.004964523644059724
688 -0.001818104208637002 -0.011714789216279765 0.010806975626080842
304 0.003732318792969479 0.0011040170389732418 -0.0006089969841090436
310 0.009756543010193916 -0.010313267884654176 0.0037266838242336208
312 -0.03260040798145321 0.024930363394256135 -0.026321796586570394
58 0.01519262687880598 0.0438383636709375 -0.0010567491117165876
59 0.016869033550922157 0.023681474545893297 -0.016507380103226017
452 0.01633209607938706 -0.02779402111217343 0.012941238843753557
302 0.00012591261564359009 0.00046823185519789963 -2.8049374324521502e-05
714 -0.006483277656064764 0.0005275051617618722 0.00017982724545299284
716 0.002642671022826919 -0.004070765055688754 0.002945288161871775
713 0.005776995890952222 0.006286758154319573 -0.006409975447338957
711 0.005046437147965861 -0.0007874441406058685 -0.0020285868343907026
719 0.01424724228607839 0.0005854228403523755 0.0037583681027264504
720 -0.013661849287830171 -0.022736768550061837 0.014966179511881164
715 -0.004363432380859678 -0.002477345713372187 0.002141082962187447
717 0.012794860747469758 0.016188760619692235 -0.0006848943793812239
446 -0.006014581029773643 -0.002328914515427035 0.0011129133257338465
363 0.0007112633618499801 0.007014838821768145 -0.0030788762507243657
368 0.012177131731544773 0.009620837167986432 0.011833668889875726
735 0.00907510498016772 0.0075082183759729165 0.004837062739864064
361 0.001524990412815279 0.0024913602547031915 0.007799195624640224
362 0.011753568097614204 -0.00033884113307098396 0.01017162798808578
364 0.0014253592593796375 0.00942563048860212 0.0015553735796358097
372 0.022343539289178378 0.009206865166649793 -0.020566004258449556
365 0.002750173355721629 -0.004156323511290832 -0.006363745421570052
369 -0.0076246239098259555 0.004465797183498957 0.0161751690270675
339 -0.005137134304567513 -0.0037488853566589736 0.0018490526288017898
345 0.00020220360494207145 0.00257740386679319 -0.015751058577960563
599 -0.009193168780657983 0.01662299985585757 0.01825243813698741
595 0.010110259260791529 0.008131550919466912 -0.005390507684736159
591 -0.002861187321999826 -0.006742083095916202 -0.0025464632509731334
594 0.004328433792866982 0.005979562804006359 -0.0018248350805028192
341 0.005373546860258858 0.008396270484227244 -0.0047621416166022034
592 -0.0021677828422242296 0.0034855670672001753 -6.427204153883297e-05
344 0.03946712873447818 -0.02264924226187129 -0.007204964818070534
597 -0.00029190370750192736 -0.014629731453179978 -0.0013249542132900414
596 -0.00882139145254134 -0.001574555997382603 0.00889566718507787
593 -0.0029093866209159713 -0.008637711198864848 -0.0063752906003014705
669 -0.01990144146333172 0.018561240744698528 -0.02078595123426199
665 -0.006588578845434829 -0.004563007648398565 0.00013731055159425023
664 -0.002397193580307965 -0.00665848086384165 0.0008453112989822207
661 0.0025424507089013035 -0.008855602120745078 -0.0038113857859591203
663 -0.0017095029526466084 0.0018530810487656878 -0.00030624563181765307
666 -0.0065904797279729395 0.004756004089384801 -0.007123249967570056
668 0.005748879830151604 0.00975940678779702 -0.003548608589626819
667 -0.013248565875780497 0.005474050570283673 -0.011712994564004204
490 -0.009393286024949698 -0.01211454349755069 -0.010036042493108945
662 -0.005055444710263828 -0.001175600853910105 -0.003986482572600149
266 0.003081048392692005 0.0010141304884729234 9.126694416520382e-06
381 0.02584735362559914 -0.008381688802026598 -0.023599647284960303
379 0.008715267336765191 0.013325982047029158 -0.02642914493545383
377 0.004360136735299494 -0.0021454707278369353 -0.0012626537993037663
718 0.022705355674138346 -0.0035183047858055416 0.02878501958566804
36 -0.025331505212398974 -0.016956409965445274 0.011810758949397038
26 -0.0003719508687511545 -0.0015278963988589773 0.008093157593076373
25 0.002731919231969735 0.004809046599448021 -0.0024040376767643368
370 0.003143395207738573 -0.019643019664377783 -0.0010585861982768821
366 0.0068820252195998044 0.0023162484514367802 0.0038643111763778837
371 -0.0004627448553852291 -0.0025098393022425594 -0.0051133658717903395
226 0.008378431194014097 0.009285270370624463 -0.011788886935486397
367 0.014615051035643962 0.0027868073546731733 0.003317121569829722
737 0.0008159194887116138 0.005832090329706354 0.00038534280300141465
736 -5.179941670645814e-05 0.0033669695949016944 -0.0015037254555247907
741 0.0032016134087141986 -0.0041086417531845405 0.0012823146852028004
228 -0.02548132374359673 -0.006221983445640181 0.0044721348400122195
33 -0.0037134419648472863 0.0024718031419937495 -0.038722291002482846
460 0.0018587408667959497 -0.0052436821712263946 0.004924811666978278
742 0.0012736905619598474 -0.003882751788697321 0.0047908276037244195
272 -0.0021712889732258722 0.008638451725617885 -0.016575154246297002
273 -0.012130325918707474 0.0022977093921987594 0.0028177840345536206
271 -0.008436794291894426 0.017716672472584793 -0.0045389994550766284
269 0.0030868423295072056 -0.0023671072675877382 -0.014406665960443371
740 -0.0012020557294778963 0.001359155972981245 0.005098664328438353
419 0.006645539705596737 0.0009807217453994587 -0.030385977445087
267 0.0040973705910551895 0.0008030929590067652 -0.007940896806475733
265 -0.0011035463703991744 0.0005611785397370107 0.0032227548412970958
414 0.001214340373989392 0.006717375413059047 -0.006138928720772955
420 -0.010885617289872723 0.028583200583406992 -0.010325147124640032
486 0.006818230655748421 -0.002967729289679995 -0.001438142646924276
491 0.01556308716853168 0.010795530455064218 -0.007382195226380888
492 -0.007628525519601753 -0.03304560323572027 0.017953418204163105
484 0.0061322694325504105 0.0012978586983434124 0.0013364717133252948
627 -0.003828479345710195 0.009593448354788875 0.023024863662045973
481 -0.006136560702834346 -0.0022833509641053415 -0.0008497799845592606
482 -0.0038982203734852384 0.0020311522872303307 0.008301394333838075
483 0.0003872090520305706 0.004779266502878098 0.008121257228146042
487 -0.001626942330656885 0.01268726546805269 -0.0031461307074799956
485 -0.005392049761627128 0.0024605783548175813 -0.0036982377085150605
489 -0.008572799429556776 0.004577304840357174 -0.023837819233839222
488 -0.012903269581073226 0.01157701995646335 -0.010699325499952528
431 0.004114078782929438 0.000830066667898103 0.009258155757383129
629 -0.02478999079108649 -0.03246208920847624 -0.011884513564274602
628 0.011984730720019572 0.00779952060640009 0.013329874325725034
427 -0.010416499428242175 0.032569285634346835 -0.004444725448620151
428 -0.02395809011594568 0.012520997321998645 0.0021726703721083335
227 0.004168639845254374 0.014076712229905076 -0.011283728462016572
768 -0.0018475838250350408 0.000973848791924455 0.004224314541977939
770 -0.0019057094174388144 0.0060454353261020005 0.005331415315912836
766 0.0004105147144630228 -0.004777040035014685 0.008290487879762921
764 -0.0017727942924258922 -0.0017203938301406276 0.0031181032560997166
765 -0.0024573148436704923 0.0006626567385476295 -0.0036681107944727316
769 -0.0005972922286754989 -0.006850911006349202 -0.005504756365799736
425 -0.0028024105495265197 0.007693078629273549 -0.0046704945228918295
429 0.02287824904998238 -0.002857188510259978 -0.00698814052563039
767 -0.003625040179368125 0.0004759772198066701 -0.0024711888921737308
700 0.027580742788438948 -0.032609312201428174 -0.01819138508820221
225 0.003372418452173757 -0.0057514400884293 0.004945225191966485
738 0.001938630511732346 0.0036549875397385826 0.009736940569379668
728 -0.00384916660928188 -0.015019595902582106 0.012796499050543485
222 -0.003958025021141496 -0.005765509513779939 0.001953317482546098
220 -0.009503385748083107 -0.009718342474827706 0.0038791900160841503
217 -0.006438324167374442 -0.0059372535251486 0.0012126634877216407
218 0.0041423086656542625 -0.007041558106337826 0.008892647420305632
224 -0.017200602869538454 0.010924645070996383 0.004077889470188046
221 -0.0031999139192096827 -8.807686203069124e-05 -0.002508183260728576
219 0.0013150081324576003 -0.005960341929921316 -0.005513067412238616
467 -0.010506412148871477 -0.0019885496686643414 0.03445481955545811
274 0.017013689287571576 0.012163751929479178 -0.004472965191862942
295 -0.024686236896102172 -0.03262056386836621 0.0008725186188710906
417 0.01869167350533305 0.006522552174716023 -0.005891362353178772
409 0.0008903160146956409 -0.0018272960040873183 -0.002743161186032366
410 0.003630915253819551 -0.0002519751951290023 0.0030380119384847116
413 -0.00704151531010392 -0.003785492818040514 -0.005087369847239112
415 -0.0007767130340224287 0.00350150520017381 0.0009743389189993245
416 0.0012278175192602253 0.015759747252273776 0.015622087655510554
411 0.0033624323556066212 -0.007659025818034494 -0.005283475535020847
296 0.015239069653288487 0.019589786094042386 0.026451930419357714
293 0.00645223488314463 -0.0016344950908042618 -0.00032641170732474915
297 -0.003882865337070396 0.012628328076753962 -0.00011166321074768668
291 0.002234577645212534 -0.002572030130163151 -0.002428920050254181
727 0.007091467418060721 -0.016879656923498933 0.01831969329415742
276 0.004916762999244964 0.027784883306147024 -0.005813286189559606
412 0.0016686199947573695 0.0017876110115652656 -0.006501478852469276
78 -0.0019502311928889687 -0.004420452075929615 0.00920287810045343
84 -0.0022927714342285805 -0.013534581184233665 -0.0024929377139651506
83 -0.0020339284779459436 -0.015028206126409312 0.0224888174370538
82 -0.021123449497265023 0.004927674833232085 0.003878849392273233
510 0.0035201792679797656 0.0005800834939603085 -0.0015286865481161924
506 0.00010055496671944077 -0.0076800032681061765 0.0006171839190751236
508 0.009573863093260278 0.0007359300499172527 0.006241552871584747
505 0.0025445623179413276 -0.02014109616107376 -0.0015767353903211952
188 0.00016359345003252632 -0.008222114448447464 -0.029321241292494336
681 0.004623634385680715 -0.006235662947813774 0.00028694598649154274
507 0.0008716955761824657 -0.0030823717792455335 0.011974729658262098
511 0.00792903136204474 -0.019840215502016714 -0.01651924866847216
449 0.0054811577200123305 -0.0005188647578367271 0.007352785889041154
451 0.0037526723337384213 0.013513822031795901 0.030596525455058046
682 0.003493893701096817 -0.004471275651032643 -0.0018571369455204568
187 -0.03655484407321398 0.027372249477326704 -0.011717840489631185
699 -0.005266769491590933 0.008051963578833924 -0.010264033853998968
502 -0.014613649269737567 -0.015731613232605125 -0.016141077070334072
503 0.006078316971438377 0.018615042738233025 0.020587330816960035
498 -0.0014403617690175933 0.001057136331103682 0.00021218944377327916
185 -0.007792374574461163 0.0005984449228607342 -0.004502307218946583
697 -0.0006522593350124281 0.00871278516097277 0.007617218638137174
189 -0.026879762687040634 0.002456835100445804 0.032626964169626856
183 -0.001140492809045322 -0.00576148765106427 -0.0008205088337474659
181 -0.00019622029581505741 0.009469712895858299 -0.00825152028768667
184 -0.004463935523522961 -0.002926119551812329 -0.007764358026855588
496 -0.003738344103689086 0.0011047539724258308 -0.006216092141664904
504 0.005908668340365396 0.01779102023647693 -5.0342833649935404e-06
493 -0.001815530889515186 -0.0023834887962030566 -0.0036854925640460714
495 -0.0035854261367196834 0.0028234376335214985 -0.004464879209737832
497 -0.006085412438248331 -0.008339511292473947 -0.004712780620747733
494 -0.011738615684226421 0.001579606813613397 -0.0027402596847381296
264 -0.018318789021015296 -0.018414294531250083 -0.009831130322295626
255 0.004813696978712876 -0.0022859976562724774 -0.009826530470460866
259 0.015049264778844872 0.018291787303239937 -0.027705339944828683
547 0.0024976627903446967 -0.04052332031697398 0.009512531090983923
546 -0.004991553435889242 -0.002082714763098755 0.0005243331484496989
548 0.014166490304152813 0.019233880543472266 -0.002204605624195948
257 -0.007769503576786149 -0.00676084378927496 -0.00030973289602228773
499 -0.0068922738479228534 0.015888942868886348 -0.0050285338248926
254 -0.002344952682136349 -0.0005575563742567443 0.00023411160610637663
335 0.009658914409346095 0.003894624662961146 -0.0018631463985015575
328 0.004642941483092495 -0.003248661224380938 0.0033854347942378917
516 0.011663870547669947 -0.006244960482385294 0.015330854710944001
325 0.009616298023736859 -0.00609753276913588 0.0016746559400644216
326 0.008064554128413491 -0.006199183769237749 0.002430038056235541
327 -0.0029575043040902128 -8.509027073995096e-07 -0.003121439533133627
514 0.023728062919226404 -0.004175386303180218 -0.011511491406689958
543 0.003763833523672113 -0.0001123850838628261 -0.008831250562163532
329 -0.008355640568253853 0.0005041082134596367 0.0030641931972545514
331 0.000969716197556736 0.01056519311483555 -0.0018390777427338574
332 -0.012634552762393737 -0.006703853025927884 0.0070796628256071725
686 -0.00031664171064433786 -0.002780473165728406 0.004661597344419158
687 0.003889620700976407 0.015196947092579577 0.003066153393427519
683 0.0003224093814272704 0.003065463152788278 -0.001359608694990212
157 -0.002364614369228456 -0.0018206633680742602 0.003927678652365973
158 -0.008515281133144134 -0.0006321623603362732 -0.0012618952046079693
160 -0.002575164511638117 -0.006719142249018938 -0.0018057400223247435
3 0.0001578910457395912 0.004443182260143064 0.0008209185080030335
509 0.0013645688466008988 0.00838963098838906 1.3740778102627447e-05
512 0.0013301109615840938 0.00804600891442066 -0.016296027267289553
163 -0.006380131946535684 -0.001944579879358984 0.03361469513285475
161 -0.0020312567880974553 0.006183095403325518 -0.005120505599568051
165 -0.012009442227638575 0.01173638488139321 -0.04111088506457095
159 0.001800052945136889 0.0010349806640198981 0.0027738641525269984
513 -0.00284816194624728 -0.019633127931568965 0.025946833473941226
441 -0.005728902944267568 0.003291534218643666 -0.0009452703344812563
7 -0.018813341472651787 -0.0032491905926662176 -0.003464293630559796
5 -0.014230790486894018 0.006172674607736603 -0.0013718153262956266
8 -0.03223139066301088 -0.00809310108899278 0.010377380333535885
712 0.00261797204540311 -0.0021892992043467036 -0.007706201550995182
437 -0.00379572111593475 -0.0042566479618988545 0.0007874839957982452
440 0.009202937967228812 0.0073495843710877215 -0.00948256302300684
439 -0.007167511851556 -0.024525094277696658 -0.025061334173605638
447 0.002408254630597318 -0.0028417536841080396 -0.005242482908024416
70 -0.0010876229285920482 -0.012959718807740194 -0.024064566079831852
66 -0.00487960447774796 0.005922014032897847 -0.0004708208548760747
435 -0.001686694329627234 0.001970395799099066 -0.0013455648503740637
433 0.010158049422849034 -0.011754425095352374 0.0028861819860240387
260 0.0013323752148532797 -0.023712523412641035 0.007674897487214395
71 0.000644815168776269 -0.010644116553792517 0.006712954492502419
456 0.0070143907958647 -0.028912817869429192 0.01884217339806349
454 0.0027418641259046622 -0.046369526395694166 0.004805167992825735
545 0.0007270300790112984 -0.0009783405116322017 0.011547651965471752
550 0.011163093749332395 0.011270252178486418 0.0068328556478566855
549 -0.009441947018274267 -0.02498630491829887 -0.002292483050042076
445 0.002259119717885295 0.0001134983908408261 -0.006181848394621909
448 0.005205195086870224 0.007413430652654194 0.002726386698056812
455 0.0001335374389994911 -0.016175126997406076 0.012852135239796756
450 -0.014753828252329727 0.00020312468571612004 -0.0036072964789423813
261 0.010570066162365548 -0.003677348663614354 -0.021780231756466817
61 -0.008958287604046204 0.0028994926608953103 -0.004260539021880627
64 0.0012241538261837887 0.0025083784243390634 -0.0016575017562759121
63 -0.00914050487287175 -0.0010321990778993325 -0.005438411291050131
542 -0.0006522180229353224 -0.012109417250082166 -0.004544570365540746
541 -0.00500496657712161 0.0025282992431622606 -0.005810657418915557
515 0.01586165062560956 0.0024875446879738996 0.02355423176866565
544 -0.0019235104059784592 0.0007594313123490786 0.01295061459143602
480 0.006920475685873234 0.0009246571181967791 0.01261609434969275
474 -0.0028585066910362914 0.004837737556215008 0.007450931808048674
479 0.0062825447083162435 0.012371434210202585 0.0010948642115615236
472 -0.0009071630250469086 -0.0034834693767724465 0.0029126452948316918
162 -0.009700076190930345 -0.002371126284086289 -0.0010544554916606917
287 0.013397817158684924 0.007213737219698872 -0.006964464941538295
166 -0.008994624832545161 0.016804353910022107 -0.019743689031829537
1 0.0017179253528562333 0.00458919424559599 -0.004639184466893799
630 -0.00554725980861294 0.004178560127869107 -0.02109331684360218
11 -0.029518119798698072 -0.011914846518747992 0.010655759988254682
4 -0.0023181270395211634 0.0075639952107212725 -0.0020514941379313452
2 -0.0012234841025101709 -0.0033417485017245402 -0.003614137492777581
6 -0.0005811039129801254 -0.005343895085749666 -0.0024221388717082888
12 0.02118624659945019 0.004096260628926835 -0.005812053388599249
10 -0.0014004275068944313 -0.023051768086484143 -0.009943483781320714
134 0.003247151656204704 -0.004765805995990443 0.004782188817476317
393 -0.007638608250957349 0.0034617251843022173 0.006486340367394531
164 0.01798047354527236 -0.020810914720659726 -0.022559875627623863
30 -0.0002661969221804458 -0.006561028620237943 -0.0028068737098209725
9 -0.01797210106523898 -0.01419437600430816 -0.0119653194343992
72 -0.001553810851108951 0.012416348759782462 0.02856755832330717
34 -0.00634367251099433 0.01816429331593017 -0.01789559082005242
28 -0.001737887683872934 -0.004204379223309762 -0.008437090504154872
35 0.005342755172319889 0.002404948735724143 0.008688948153463173
387 -0.0036681563183912093 0.0010063471012718452 0.0030892840328873767
89 -0.006840361448925899 0.0006354177115072215 0.004248655825194796
93 0.006961841713315979 -0.025717059302992566 0.003922649205174431
388 -0.0024593641457593975 -0.0006836848413369189 0.004793782027143454
390 -0.0004037229694607345 0.004873022390300598 -0.004381383202457307
385 -0.004241633724109092 -0.0006360390260295243 -0.0011907383124490434
395 0.019381366056635475 0.015712457471553296 -0.003222190543463261
739 0.0006732677546902388 -0.00020184168149189947 0.0032094883122338776
32 0.0027621370351834703 -0.013429541120721323 -0.023222093792069343
31 0.016509611611068977 -0.013266447955826864 0.016743083471376912
470 0.00032500929573644864 -0.004574215667935177 -0.0007774946761249371
27 -0.0042119984208825135 0.010067357228833623 -8.203056381586242e-05
29 -0.0035358790868370883 -0.010258755886130672 0.0010942313622216429
475 -0.0013315530671091454 -0.03871033910688049 0.004695396157108761
394 -0.01747115723823874 0.010387158664997932 -0.033994331840536775
69 0.021478912559879992 -0.010304978617433543 0.004420634532648269
47 0.011881553708266672 0.01238456629622072 0.008654219721078962
396 0.015221842305353476 -0.005311602727639471 0.00865649699423451
478 -0.0058002116943088305 -0.008144412914102268 0.004662929889620047
469 -0.0013413880561397068 -0.0021262907694965982 -0.0020071826317425902
471 -0.0021795575745884002 -0.0009211530785303237 0.003218263196833323
268 0.004823647142941241 0.0019307455557425462 -0.0018402123096097297
473 -0.003924166784952332 0.0017034768706668225 0.004666483236876789
477 -0.01706646967907743 -0.004829362054536179 -0.003277098519908419
476 0.00807854861349881 0.005789335399181166 0.027399353075560406
135 0.009352503826209568 -0.003474565357709906 0.0009516218065504305
133 0.002735322897813291 -0.0012535536567949064 -0.008016216580943859
136 -0.005774840782160213 0.003082056085093629 -0.005611938691922807
137 0.0006235196117757714 0.000373741311076873 -0.0030842725340904805
141 0.00011349306244184272 0.010979303584108186 0.024601599144503224
626 0.0035202891530099973 -0.003282342863223297 2.3328257992872933e-05
625 -0.003595250622613232 0.0017220447370222206 0.002540357577831463
624 0.00928862530959412 -0.009855246827866168 -0.0019847435005123986
622 0.005429358563933506 0.004249869807752581 -0.0007329261256438029
621 0.003075343636164445 -0.00987166487045193 0.003919279951754027
623 0.00399200344166769 0.0033015923309008544 -0.003952442158503299
144 -0.0003459217160306361 0.013282081057118394 0.043385883001600505
289 0.008416659314314534 0.006950513678096378 0.001345881292872747
290 0.004006834836186501 0.0029767425256288 0.008500357801076042
300 -0.0032592816535768725 0.017617704971401145 -0.02084048293709654
299 -0.007811160950032547 0.0008142347161962284 0.014338214993348699
389 -0.0034478975436335753 0.004342511073681594 -0.0024283624822565987
391 -0.005320952450255889 0.0013605719509858787 0.0012196449660082246
528 -0.022387677311269876 -0.009576815578087356 -0.024783973338286257
392 0.02266972442769524 -0.018252313890616056 -0.010749640150544457
526 -0.004146121945183064 -0.015383690319683707 0.028314126992312155
520 -0.0009175022027476101 -0.0017867332829037525 0.00017486812193749806
527 -0.005596293292570143 -0.01571131581336298 -0.0149761310128879
522 0.005224023205527251 -0.00618914812668414 -0.005220227017473414
519 0.0009396708268222515 -4.0291193297170165e-05 -0.009368641105308046
521 0.0051109454757644925 3.772983980716685e-05 -0.005280430663658808
523 0.005645537478048018 0.004745660532931523 -0.01729979318565347
386 0.0027264208330983596 -0.002697399892669185 -0.010081915302328869
517 0.00016947438995492748 0.0063841153075732335 -0.004190450436321974
518 -0.003324522349622029 0.002377095381349876 0.0011189556197954587
525 -0.0022329812782317495 -0.028394020718567035 0.003694235003775916
524 0.0009131570550334299 0.03232847338600616 0.005756961553739449
537 -0.0021464780987153244 -0.02166765207523684 -0.016686059542143916
535 -0.02763719082884827 -0.00870200773294808 0.007556291751531382
536 -0.012246055434325196 0.020152676830940488 -0.005722239491388224
533 0.011364198825985017 -0.00600643956440243 0.0007411595486687991
531 0.00648749643786375 -0.003869319728319727 -0.002156333140602916
179 0.02711737065842561 -0.0023485368171734986 0.007382143243469321
46 0.012770344024067614 0.012883579337843919 0.002593274210333266
529 0.001398157130888071 0.0004461071797447621 0.003933911740644353
530 0.005204491472048099 0.0012013513528177702 0.004639332920787862
180 -0.007544526573541448 0.0004988422626095147 0.00869846369351353
270 0.0021754831070585354 0.0027581082187871442 0.0038366268746936466
538 0.031709561683420213 0.0034572130055696743 -0.022125507435382656
539 0.03512821237450802 0.01893305466970964 0.028496125648021953
333 -0.015719539553164474 -0.006138315685874497 0.011521791055608863
275 0.007305011090831082 0.012446655720205448 -0.009246474449596104
40 -0.00864625750689602 -0.006175907467027269 0.0007839053364735882
532 -0.004090085997120023 0.002427181557514809 0.005971986509041128
534 0.010586998900689166 0.011727197519171595 0.0025219388915398867
540 -0.002246621597728044 0.006312169897262124 0.0070906233951365544
292 -0.00275424987944253 -0.0036026802717239433 -0.0004885145848691827
138 0.0029097582813187328 -0.003658554406385724 0.006296506777838565
298 -0.01909739488542194 -0.02948669149916368 -0.0003546035351792975
294 -0.0007313996551769031 0.0021572573464762354 -0.00017406736893504254
142 0.0030234966008361557 -0.021901354701473297 0.02131619990694675
678 0.0014542254548934978 0.009404057279055357 0.04152194123364025
677 -0.013197043105626648 0.015595984146382809 0.016567667312880313
676 -0.003156671806857164 0.003947226495639906 -0.0001150411264634417
673 0.0017980379197059335 -0.0009150216542466589 0.013030372426921535
321 0.013835130586223912 -0.012747252277313863 -0.006625635718475992
317 -0.0029966443583796464 -0.0014132954159897558 0.00840257930164902
316 -0.003949926153608517 -0.00385701978818929 0.0028243633112152253
323 -0.003982749966032763 -0.011073574421586272 -0.003328201841442169
319 -0.016989850378342823 -0.017178465161526272 -0.006267517026414712
146 0.004127005480477513 -0.001688461435979721 0.002141340814611332
680 0.013146821638199606 -0.0013026031652018908 -0.008290146439856741
313 -0.0050316553025325445 -0.00938372436752166 -0.011482713510779083
318 -0.004063259387268218 -0.007196746842256906 -0.008165438640651246
322 -0.009365709114704038 -0.011444027301848094 -0.02487719097506469
182 0.0068600324340057535 -0.010796207404912219 -0.0008711995542175831
324 -0.014879023449768781 0.017119399809806615 0.014415316508483041
186 -0.0038691933469665128 0.0002065423597699029 0.0025707089345860397
191 -0.029388780765189162 -0.0028069502129069103 0.015763584711794582
192 0.011595353560339602 -0.0056591345071084825 -0.006573302682178407
402 0.0014872772688702593 0.005095063569741504 -0.0025127686603126542
408 0.0003556156718185865 0.007683888229671832 -0.0167003587456488
314 0.00044535124168693644 0.005442378548506866 -0.008770366236569424
190 0.026444863259873264 0.025471141849190363 0.002191372918156583
253 -0.00026643247941352774 0.0042769249785748155 -0.011852772730053926
256 -0.0022201391242573833 0.007990264931842078 -0.0023255982931406575
263 0.00881494936451445 0.0033110834335327347 0.015920436691400214
258 0.0005566493855946407 -0.0004361301853933427 7.523847142150956e-05
262 -0.007101728850417474 -0.017325717174271636 0.005685053595911849
607 0.010380066822458019 -0.011900329612825111 -0.012724265670703066
608 0.0028572027200526023 -0.011931200124709058 -0.015478841491041615
603 -0.0017560964070728695 0.00796767436900204 -0.003423412517954417
606 0.00787387271627038 -0.0020846568086089453 -0.0055811115149153635
601 -0.0010713849884751454 0.0032961354222172164 -0.0018457179406775953
400 0.006766381536140958 0.000779057516986093 -0.0001981813303044185
605 -0.002953365073976632 0.003247471308937695 -0.000801783417345244
610 0.019913108308353432 0.004395007961067962 0.010073531975537795
604 -0.003935100655102136 0.003451301877289552 -0.004075111348567414
602 0.00438808667958119 0.0019474761756440515 -0.00030486727163506146
285 -0.0008160404229167925 0.005459666208650899 -0.0022029771954570503
281 -0.003151204418659781 -0.0024445716785343155 -0.001988414023762902
284 0.001464937749605976 0.012950685857375641 -0.00027024664555882675
283 -0.03006932702435029 -0.010446650967199185 -0.013662597958381055
279 -7.3132756607276675e-06 -0.0024698987686345387 -0.0011629138747624745
147 0.001393596900601653 -0.0003870271149206156 -0.009166228602797545
145 0.006722664191337734 -0.000999058341148651 -0.003045503576857298
155 0.0008116803951812781 0.013803679015525979 0.009847095753307365
315 -0.006981542851232839 -0.0006753651262752328 0.0006491276501253419
320 -0.009409761097611807 -0.008032387167331718 -0.02614947323109851
644 0.002182827005204405 0.005810946427678689 0.000742693544393646
641 0.0011406792934999118 -0.003630349521330567 0.0032976909793247457
645 0.0029683339183115896 0.0047374893598275646 0.009948013966102846
649 -0.007092508461773065 -0.0034548408554752248 0.002146308499342232
643 -0.0021152136595601768 -0.0007271443445637183 0.0013268228898679825
647 0.015004285398052923 0.03041952140131712 0.0004819372006051378
646 0.006539807302033031 -0.006773676541123212 -0.003638525448320475
444 -0.00026209336995454814 0.019700344733109654 -0.01837481204078733
648 -0.010001076531491349 -0.01898952690200343 0.02251779706468509
434 -0.0033535471290133457 0.00012307913161566369 -0.0034756272298098394
92 0.01434657261953861 -0.001447552626256947 0.005937306000006248
436 -0.001439139602567474 0.0013687170984156304 -0.005083388489830555
438 -0.013060461437436275 -0.0011513391581022818 0.005258159987826926
443 -0.00892083260953143 -0.003155766920266245 0.017335649749620714
407 -0.020887582404828377 0.013340080525078023 -0.005764718517719919
406 0.016338220052150923 0.014643143406251847 -0.02356962808547199
442 -0.008408515995470638 0.011819493082433153 0.013428435755777096
207 0.002605148723481965 0.0036865425514721194 0.007793483121926966
205 0.0025695125067805003 0.006631234408936733 0.003114320867196536
208 -0.006955507086609727 0.0050880084920698595 -0.0030413557284597642
216 -0.013676522348865055 -0.019617128624849156 -0.0016522111876781282
398 0.0058988199564672375 0.0010649621904967547 0.009678405065395444
397 0.0020229446898390718 0.003070206693001264 0.008095873120804562
399 -0.005841461049206618 0.008565379171987186 0.0005652306894115391
404 -0.0005426440356598615 0.00892109012140176 -0.004366378951639194
401 -0.0025934915118510592 -0.0026229795240213815 -0.00420730307668837
405 0.004473344523410892 -0.014648319127077038 -0.0032678754156070613
403 0.011398342595773313 0.002982938453298609 0.016484495570103074
98 -0.006467064633754109 0.001835356229385592 0.004197054361674411
68 0.0037061362644845402 -0.0053828481276938615 0.003056392248379176
580 0.006675129311566042 -0.0042872661983530975 0.012014191853894482
286 -0.025746338111359374 0.01169821696595883 0.019931404371957152
167 -0.009721604347455374 -0.02074912601054705 0.01714465469914148
288 -0.017627808832219937 0.006015421364739888 -0.012828728474146204
642 0.004765489202294592 -6.543348257523668e-05 0.001090900405128606
168 0.007228138826994724 0.0372342823347321 -0.015157862784485016
280 0.00021709899741409743 0.0013902118011472938 -0.0025200291835204194
282 -0.0033837695005583274 0.0009368133484486687 -0.0028982455740789816
277 -0.0016326265975157089 0.0033138848981156357 0.001776352976781476
278 -0.006253562384788628 -0.001707732685662876 -0.006638250998782993
103 -0.004033468316001297 0.023078331557290672 -0.01174846704930913
104 -0.006562779887442486 -0.010444863460613392 -0.0031636745137307958
115 -0.012733302175583253 -0.003623180656320446 0.014719211953513722
116 0.014477106271196645 0.004153721106406798 -0.004021981492429878
113 -0.005731803718826623 0.0008379529633399234 -0.0031919230892322632
117 -0.008985564445396508 -0.0012784622532176933 -0.006803295301255576
111 -0.006997628654734524 0.0031723656669361035 0.0014613499341865112
109 0.002716193571181017 0.0077285183105267954 0.0070853732818083335
95 -0.010217413763744769 -0.015574753267779618 0.01631886144358094
86 0.0011238898797224948 0.0005034394232556359 -0.008142150900512991
96 -0.0002956209335725847 -0.001935530470944713 0.01860143792161244
112 0.001678522703086768 0.005453951045239927 0.0015898377473192353
118 -0.0008985097947445212 -0.015163773628939947 -0.020919557260107108
91 -0.003466951526890686 0.028626715265532513 0.0029520246031623917
638 -0.0008069113323837268 -0.0012270502848773384 0.010274918272467196
210 -0.00010441611661276176 0.004057990142342517 0.005229258192625677
215 0.005415064298854754 0.01693211336866965 0.011087530095828168
87 -0.0013553504464088864 -0.0027366773760548533 0.0001748197673823753
85 -0.0005998608719324125 -0.00037295222505297627 -0.010134301400116518
88 0.0011270496330368506 -0.00035583283119497753 -0.0043310311475474395
636 -0.0005529382241825962 -0.0028035437176299623 -0.0029610566132891127
637 0.01252803466303196 -0.0030252201088354024 0.01738463465651544
213 0.018465184537311365 -0.029156540416007588 0.03278424752485631
214 -0.015417215020657883 0.004864619691290936 0.024789119755720325
90 0.0018839880041263875 -0.0071971728071206975 0.006578137194572207
763 0.004237585561054098 -0.002048402308922343 -0.003243193887654744
94 0.016539855936941707 0.0026215122429648846 -0.005575612002032489
62 -0.004581427294514477 -0.0038620789181313666 0.0001244762413834671
38 -0.00211612713728161 -0.004327561702580187 -0.0018035105195177688
639 -0.008014525916739807 0.0067271737699594394 -0.02297373688042835
635 -0.0004868894904008989 -0.00010847941638041779 -0.012126292174691269
65 -0.002533188931035049 0.00032445443587245765 0.00637046070564366
640 0.01757596300054691 -0.03675940047962448 0.0030154130079810076
67 -0.0005501161031401774 -0.009538517271514254 -0.003410398090895641
107 0.020169177278143904 0.018963876820293973 0.017699710977385347
102 -0.001754787540138855 0.004057897500903622 0.008043071088145459
108 0.020037030848398658 0.021633298197879666 0.004397643334122927
634 0.005745794302429615 0.006966593565822248 0.004318059835080023
106 0.003914893294105917 0.006847511406262642 -0.0006386038472635687
589 -0.030674295651878642 -0.004295204287211763 -0.0418064668902018
100 -0.00015747982547844276 -0.0007699990419887167 -0.0040640738037858925
585 -0.002735708266650676 0.007026109373559469 0.0032509328365064815
139 0.010308637906672477 -0.012476023673063844 -0.006932340705046302
37 -0.004385327680975897 -0.004108254013136174 -0.0007215121088502182
101 -0.006068114206447754 -0.006066054161321712 -0.0010422685128336497
105 -0.027899767433345733 0.00604375399137962 0.010372463015621966
97 -0.006279223404394288 -0.0007242128724542068 0.005704589472139307
140 0.0006448989247182742 -0.0031586560314306377 0.004246028146778461
39 -0.005234047205286594 0.0015103517961991945 -0.0023848430889382628
43 -0.0040340900022043024 0.010868218855069828 0.008302860223443417
41 0.001687907081179145 -0.00010525536020041857 -0.010511234030751684
44 0.025296244266625075 0.01449158485358768 -0.00034447172872067056
99 -0.0008766997147535698 -0.004933029987588706 0.008436515200478431
584 -0.012400933432569174 -0.003026443738237969 0.0012193774790206667
45 -0.01331157608347477 0.0077973723399808945 -0.003212592426734073
671 0.0004469407113073903 -0.001568272626971929 -0.005349153114770944
672 0.013797214057089151 -0.005130922333944921 0.003272770120570591
675 0.003333588297175562 -0.005185185732857342 0.0038198575520048714
679 -0.0012278781025442807 0.02582093869607473 -0.015939265549133535
674 -0.0026133569567195905 0.006078241380991599 0.0019361928929025117
120 0.020333057490595503 -0.0039091036302076766 0.015238222476077208
119 -0.028281358758119934 0.010232988644909397 -0.0053900059355635865
114 0.006910422488701246 0.001272817920267713 -0.0020031446302418974
613 0.005519465876555837 0.003005591071094139 -0.005392086236889747
617 0.013665791468016338 0.011130888818538081 -0.02013722753243255
616 0.006346699755653468 0.005562570969324238 0.00193493744197716
652 -0.004433776742705955 0.0036662827151313594 0.008516468311536428
651 0.0007240794617191312 -0.004697733652683931 0.005896874146510141
654 0.0017859258638486402 0.0010520388783024847 -0.0006610838225722225
653 0.000814944334699544 -0.008691806355044624 0.0048891375336685096
657 -0.00012782286118045343 -0.0016864227920585304 -0.013508312747938874
658 -0.014349997458392135 -0.014645773524273337 -0.014883987531422987
655 -0.0005619705632573543 0.009476481916059605 0.002218746559046567
656 0.002438190910397015 0.004429198636781379 0.00038351116958211783
660 -0.03134838293934111 0.003595031563509312 -0.014324178145352586
659 0.009274772332054477 0.0019449082079131697 -0.00935316181031461
618 -0.0026380285809385028 0.023579028000706704 0.027760321171418353
48 0.022848842480049817 -0.016855690900970905 -0.020433129265284098
42 0.00013063239075935894 -0.0008059559178743155 -0.009610910566619984
631 0.0023693689778236642 -0.0032556656252263534 -0.009011513795320947
632 -0.0009099238848929533 0.0035740469715199435 -0.0002987653413738525
633 0.004788669058186368 -0.0015732525599349693 -0.006589331475204417
178 0.000328118800592697 -0.008638277624106029 0.0019575401892541196
174 0.0034239654221880876 -0.000643116233754775 0.004172906951953535
172 -0.001497469269741808 0.003023913115674972 0.002050022953346155
590 -0.0001803100700243775 0.0004544482227413726 -0.0032344042681786843
169 0.0012761875893520563 0.004641122756614416 -0.002343837699833649
170 -0.001307282989773497 -0.00030758104759314505 0.003797676717217896
173 0.0029221226861426792 0.0053546580899310695 -0.00695138591190686
175 0.04186603266133056 0.015299105818742016 0.01846367297488917
171 -0.0021584051105623665 -0.006926370951580473 -0.004555217214474362
176 0.013058934628032528 -0.014625206271725122 0.002582821652660551
570 -0.018747773404188497 -0.004369417886431025 0.007520846643197494
569 -0.0035922668460652866 -0.011851865302050362 -0.0112083275836257
143 -0.00921219599721759 0.005892278667866447 0.010846632392632484
567 0.028959651596247565 -0.0044287649790714844 0.009104698176388946
565 -0.006078460815627008 0.0013586341354115304 0.00035013401308129846
562 -0.004715585408713264 -0.0027955307107417875 0.004806873395653935
564 0.00111279387916471 -0.005141860297028269 -0.0051089529876999105
561 0.008849839348074564 0.0030425886909135687 0.0025092373905527755
563 -0.002149466712676409 0.002572871744154295 0.0014647167058116394
566 -0.003389359890030572 -0.001984958437735607 0.00400810290156758
568 0.009185210167748755 -0.004242702288014512 0.008947280973074621
153 -0.010827497146939504 0.028848415798536975 -0.0033758973292414623
704 0.0016858216287968307 -0.0014918393800612453 -0.009015579277835046
702 -0.0024180722715058593 0.003505393456605234 -0.006322250403035627
244 -0.0074278677422891706 -0.0023213789606197706 -0.0004167477216846877
242 0.0036688463299535718 0.003965896131012113 0.00255045428016558
241 0.0061578917586982635 -0.002856985092972494 0.003500805268352154
245 0.0034465676284536535 -0.007767659232473118 0.002023011148435385
243 0.0074994228216291765 0.005572265698845416 -0.003479853044793412
246 0.0017577001850183286 0.0011628199786215823 -0.003739113190479616
251 0.012921942323076564 0.008873363209884553 -0.01638353163188131
252 -0.009565143748814977 -0.002480553072719893 0.022062573247815707
250 0.026311380641307263 0.018158464950038488 -0.021653658327966747
247 -0.01683233643564596 -0.02501291078778053 -0.014801989118383332
248 0.01543652341133082 0.002416552871263407 -0.012737676894954366
57 0.012028382164299883 0.009571166288117276 0.037038147481604416
307 -0.012170277123977754 0.024375375001519557 -0.004371738299118345
733 0.0059634234994621685 -0.004738202936051201 0.012168971016499584
749 0.001774235777493747 0.0016746847977783114 -0.007775096589818409
743 -0.0007774627228023061 0.0024405859796325334 0.0002171410999637123
747 -0.0072893790860002056 3.986889153243569e-05 -0.007732891834089826
745 -0.004565185738923776 0.007493000778453131 -0.0016657225542988689
746 -0.004314305289725199 0.006138384436018951 0.0009134478854220729
744 -0.003541558723175231 -0.0008282019317811009 -0.003496371664700247
748 -0.004471608738096548 0.0037039906953800533 0.002265382226827139
734 -0.007836046053701633 0.005713172400677185 0.002011455940808149
53 0.004057329274172379 0.0016260310183397186 -0.0018807279354703253
560 -0.008606198255560133 0.0017675312871089485 0.027010701518454805
559 -0.0017190837216232479 -0.014055882118403707 -0.014849661872576914
609 0.03054910223941807 0.0035196559727312155 0.0031775858216513474
557 -0.024825176243926453 0.02027459078371852 0.015786690572098697
55 0.006325728066377785 0.0035324904085163927 -0.016726625214734184
722 0.0026396300009887755 0.0026062649473172256 0.004328811232449085
555 -0.0035795463454969113 -0.002302502255026694 -0.0023266571271200053
723 0.0006697003103762588 0.00344515010246981 -0.005246682676182053
22 -0.002295992973605975 0.002955599188759252 -0.0039786909727576305
16 -0.007924498960612997 -0.008701174099798353 -0.0028220821862969224
13 -0.0019966540375669834 -0.0004548884553531377 -0.004461390100984749
18 -3.0231876576827952e-05 -0.0038054857778565955 -0.00876638068778059
23 -0.019005662187311922 -0.025018040600905362 -0.000966893867605363
148 0.0049831295330500965 0.003801325295746463 -0.004669636014114173
156 0.002425834914001321 -0.005570448149782526 0.03625172967045682
150 -0.0019512223512676739 0.008156694301839842 0.002501928513594916
14 -0.0012757820467153116 -0.0019449262523301741 0.0008712582935260623
149 0.0011360438556715414 0.0017010912193238259 -0.00496221088463358
151 -0.013266296105878993 -0.011181644425632332 0.026549618361892485
152 0.0031751805046408717 -0.002185052593989375 0.011037944830308533
24 7.686020084928278e-05 -0.0010352469434838293 -0.027804705084298373
650 -0.019201475129141766 -0.008866151647822645 0.030617517429798787
357 0.00667185676332225 0.0058026956413361 -0.036430053938435875
356 -0.005673623019514272 0.03409884002845617 -0.009177559141930625
353 -0.004324011711380029 0.001593297935425109 0.004286116747008678
351 -0.005670455664051758 -0.0038618479667837063 -0.006439354200128843
197 0.010651485608947277 0.0036236244701149506 0.005779350854493367
201 0.006264586405342242 0.022302481796375225 0.007070306177402514
355 0.00020607917461965385 0.01265376663545888 0.003427237052461615
200 0.005485621147577563 0.015595173831288372 0.01922693310762767
732 -0.008575672920074487 -0.00789819884272074 0.010648570575165698
195 0.003831130009329112 -0.002171102060637944 0.0024295144793998512
206 0.0022316102451076163 0.0033154465415805574 0.004648532665580731
193 0.004833904802838684 -0.007100432408420525 0.001502235989368448
194 -0.0021648841700488406 -0.0037795000156511157 -0.0066801579632530545
196 0.006634433635356086 -0.002681688350363213 0.005054007417012583
202 0.005600461538377974 -0.04091571683435739 0.0024379988409203245
203 -0.02004071600074228 -0.017881603006802832 -0.0031494731460289128
198 -0.00011319425862561496 -0.004077530342060968 -0.004657993668699665
204 0.01657983994596343 -0.008567210475619529 0.005034366238230645
199 0.01612006503563699 -0.012160317156334347 -0.046132755522347975
579 0.0061431437532834315 -0.002742477585689343 0.0028936500133883323
574 -0.001989835747440614 0.008202517268941565 0.0052830212744522966
558 0.018601458067322187 -0.01982530863429972 0.017379139771276364
556 -0.004054913254527539 0.0006307687905035043 -0.005249348235192306
554 -0.005183907769970709 -0.0027873581775164674 -0.003081587130338246
551 -0.0028654316666165613 -0.0029596171494802926 0.0014613994664507376
553 0.005566073285659786 -0.005186522310961703 0.00623819133511903
552 0.0024200912467329657 0.0030587657215013176 0.0020799557060146856
464 0.013028263657655692 0.008347642435512509 -0.011205166567794266
575 0.013357550484047695 0.0028458435234785897 0.008616328273006865
123 0.0024441805166387272 0.004042170858415669 -0.0005335442743175065
600 -0.0009087838482571577 0.014535736463282007 -0.014719989607934924
463 0.004744183159039247 0.013882699923004784 -0.002839506909905351
154 -0.003564599153743424 -0.017960343736098353 0.007443195293454626
577 0.0027780462005200634 0.018173770585632534 -0.014488762392275728
571 0.003428698694990726 0.002072221184597557 0.00038088658822958883
572 0.005128169724426599 -0.0019564541793563894 -0.008062665125495833
573 -0.0007472057732677485 -0.0014656366396467516 0.0003267906522962921
576 -0.006360886794867752 0.006510532773747731 0.009318980830731474
578 -0.018733984188028515 0.008515981976802053 0.01335721574206253
598 0.012304714613753232 0.004796564866203142 -0.0036026864777839074
350 0.004417290492420797 0.0030734494359943086 0.0014784464916161358
349 -0.0014224801416490454 0.004203940829917844 9.128332536837105e-05
352 0.006168457831234716 0.0007651064114305454 0.00816822832478778
110 -0.003318048181617128 -0.00021359865186533508 0.008203377055999292
211 0.002904975831810304 -0.0005094863578075077 0.026028282976188314
382 0.008275562463725992 0.003635918755299188 -0.012534446314732921
383 0.0066861181874367055 0.013157771397274727 -0.009965053165894269
378 0.0001540523661357534 -9.550274011458642e-05 -0.003508788791431388
384 0.0009083267903855004 -0.002249954716414272 -0.006000151817109704
376 0.0045163514592158225 0.0005247593423350201 -0.007147877228122489
373 0.004951740745736894 0.00036814353844455384 0.00855383531073399
374 0.013863876960262379 0.004549173224421606 -2.743939866866082e-06
375 0.009091621395439895 -0.0034734107125866825 -0.004125439801567212
380 -0.0012899807996453964 0.011436781700838358 0.007288448150484523
131 -0.004834455376881955 0.01095899871622154 0.006069698106672717
130 0.011409849881426704 0.003084353229442463 0.004583792600117241
209 0.007282237268707497 -0.0045838116712869125 -0.00596334716038376
212 9.991154279031759e-05 0.003159002215149074 -0.01691444599796929
760 -0.005653215522861403 -0.0034054260021402654 0.007752718762389663
757 -0.0008019022574107116 0.00022617646015482892 0.0007944624480871151
124 0.001259228470416039 0.0020928361225469793 0.002844873232378463
126 0.0027961381859939673 0.00036146649220430434 -0.0032276078016434196
132 -0.005072554040585536 -0.003703691469337543 -0.001150297506021564
758 0.004879397044278845 -0.005150553679003485 -0.00335863453679392
762 -0.0048978841261299744 -0.0031805032862124707 0.0005075782050848193
759 -0.0025978957697329855 -0.00483490214854496 -0.003967063485552617
121 -4.209260472383646e-05 0.0007783087503257797 0.0033942910228980275
461 0.0019428703059997745 0.004773330916954392 -0.0019366904707341023
465 0.013558966879052529 0.012455465694007914 -0.03629155643747052
129 0.00020773132230105646 0.003913391521181043 0.011991785280014986
587 -0.010778409296186115 -0.00485831312700366 -0.0190651554246913
122 0.0033022670583002646 -0.006841471374605795 0.005825914353408781
128 -0.007016519753719645 0.01493364456963693 -0.00561402718921812
459 -0.0005236093224048592 0.009130421567906112 0.00015176667609194996
125 -0.011085640235152034 0.006529206083900284 -0.006133101338021909
237 -0.005237519489121674 -0.012051932227745992 -0.004107228469616497
127 0.008984481632612328 -0.010980569801040717 -0.009191615011608477
462 0.0074806241499998614 0.0026449754509431985 0.002420816855111125
586 -0.004963430881474599 -0.004189761976227133 0.003783327689312335
583 0.0012901289523109467 0.00822892900075294 -0.006121904491305567
466 0.00963593841666794 -0.013364675563334788 -0.015318633939402032
588 -0.01735324835986212 -0.032397168179563486 0.022685934499956577
709 -0.03058499337491017 -0.02695985128767479 0.007530952278941387
710 0.014237670288347192 -0.005975912699743009 -0.029055487856375573
705 -0.003252598590824684 -0.00667177501379524 -0.0036745347807353797
358 0.028291853201146775 -0.0439823545763978 0.027844571022939132
581 -0.006802810886594867 0.0018009555258588945 -0.00017427008049300663
457 0.006963243989682239 -0.003501655812027259 0.0064173663060998745
418 -0.012722380253025375 0.02004909003625003 0.011667522247829003
359 0.01605157728431128 0.015032811948122218 0.011376995880217537
582 -0.0053037901848048295 0.005740272895359398 -0.004041146735354013
708 0.0008190115559081275 0.015548884038816824 0.00989018067135072
458 -0.0012235979629079967 -0.00015170231438339186 0.00274244254757419
360 0.022365691087610204 -0.03615360008316225 -0.003232113800491956
354 0.005911389255014786 -0.005571485252521597 -0.00035375044332366126
468 0.038138603523430986 0.01861291158508507 -0.0369218602847391
426 0.0022144900218054606 -0.006984199688102037 0.0011437211642648653
432 0.00502250170923668 -0.012427715941529504 -0.0008106377544668146
430 0.009230164510771053 0.008436453284188695 0.012810472903282764
731 0.0034936105466698776 0.011675048040996528 -0.009205911660606834
612 -0.0018781285192496686 0.005516769311336151 -0.002392917111496998
753 0.006530334661593645 0.0023765107067093656 0.00564091239905128
756 0.0029842085835338076 0.004017278440880682 -0.0011584654706348714
750 0.0062196928091113775 0.004804316668588309 -0.0018786349057167266
752 -0.002043112466550472 0.003978512086345887 -0.0017260365675471042
751 -0.006875841224484383 -0.005285825199261777 0.0002621975964308059
755 0.006181997466226815 -0.0007119978530493018 -0.005793195618763752
754 -0.003093131082464106 -0.001285249986884433 0.005087546601089291
619 -0.008244726990893328 0.005334027982279197 0.0016396834286082308
424 -0.0012393906824620271 -0.004164446604563858 0.0031520809313505815
421 -0.007256003913013326 0.0036900878616362557 0.0029948075305023256
423 0.0008953595002413511 -0.004000273701138691 0.001142081607447496
611 -0.008317230103766346 -0.005094649450958531 -0.01085619214230051
761 -0.0015362739520970916 0.004499788449532563 0.003581930527216305
614 0.002274021020504583 -0.005036572736292999 -0.0007497282439515475
615 -0.0032253876947808905 -0.001737890968035977 -0.003618007443437663
620 -0.0035457562514836084 -0.012017917030803267 -0.010142401576279377
238 0.00787862243772225 0.00566530858243575 0.01740494222334534
422 0.005418244800212329 0.002766470174919825 0.010079490180386291
234 0.001793241103028584 -0.0013115467564396488 -0.004450055236854289
239 -0.0052592961535567325 0.007308347579724626 -0.02470360977681615
240 -0.010573097289655577 0.019643442368300755 -0.013294078903311045
235 0.001987439710721201 0.006055285333697235 0.009657938579658827
721 -0.0032721957915258617 -0.0010751175618117037 0.00527673956052747
236 0.02920694174451196 -0.017061831070469494 -0.008397604437977893
177 -0.00016435282389649694 0.05235193122361318 -0.008587658885062542
233 -0.0005503661933920571 -0.005620406664543106 0.002355002735371395
231 -0.0026372526714725742 0.0019273996660020263 -0.00033599088647818734
232 0.0018090692114221373 -0.0012871626412487062 -0.004386734599920158
229 -0.0008520423039512316 -0.007654031792382711 -0.0025531804029854184
230 0.00104741527785632 -0.004528200176126763 0.00957688440736091
730 -0.014820627431984585 -0.023301279518446755 0.024355091173249802
725 0.0023185460902070596 -0.004464817866270049 -0.001102725748634507
726 0.003444000613898739 -0.0003927395889889576 0.005152564155067841
19 -0.001514030549649507 0.0073641946158415975 0.00786587776851036
707 -0.0030259911349361204 0.021634204843024456 0.010235168688819928
724 0.00199914970386235 -0.0034138353181456774 0.00450510909444728
17 -0.0036680315060894386 0.005915298023916409 0.008299888814282926
20 0.010983823556742123 0.009651385532878903 0.011252408961510217
21 -0.000982249086260206 -0.010161787052911672 0.015285485677671694
706 0.005642170740721381 -0.006422725737682405 -0.0038059939187391227
703 -0.004465548664458915 -0.0005576552914428164 -8.377728151171504e-05
729 -0.018958119562227135 -0.010606268600197682 0.005496889266117934
701 -0.0037071923574161186 0.0051266115416878 0.008269941764409969

Bonds

1 8 73 74
2 7 73 75
3 7 73 76
4 7 75 77
5 4 77 79
6 4 77 80
7 4 77 81
8 7 684 685
9 7 76 78
10 7 303 305
11 8 691 692
12 7 691 693
13 7 691 694
14 7 694 695
15 7 693 696
16 4 54 58
17 4 54 59
18 4 54 60
19 4 696 697
20 4 696 698
21 4 305 307
22 4 305 308
23 4 305 309
24 1 695 696
25 4 695 699
26 4 695 700
27 7 52 54
28 8 49 50
29 7 49 51
30 7 49 52
31 4 342 346
32 4 342 347
33 4 342 348
34 7 51 53
35 8 337 338
36 7 337 339
37 7 337 340
38 7 340 342
39 7 15 17
40 4 330 334
41 4 330 335
42 4 330 336
43 4 306 310
44 4 306 311
45 4 306 312
46 1 685 686
47 4 685 689
48 4 685 690
49 8 301 302
50 7 301 303
51 7 301 304
52 7 304 306
53 7 714 715
54 4 716 717
55 4 716 718
56 7 713 716
57 8 711 712
58 7 711 713
59 7 711 714
60 1 715 716
61 4 715 719
62 4 715 720
63 7 363 365
64 8 361 362
65 7 361 363
66 7 361 364
67 7 364 366
68 4 365 367
69 4 365 368
70 4 365 369
71 7 339 341
72 1 595 596
73 4 595 599
74 4 595 600
75 8 591 592
76 7 591 593
77 7 591 594
78 7 594 595
79 4 341 343
80 4 341 344
81 4 341 345
82 4 596 597
83 4 596 598
84 7 593 596
85 1 665 666
86 4 665 669
87 4 665 670
88 7 664 665
89 8 661 662
90 7 661 663
91 7 661 664
92 7 663 666
93 4 666 667
94 4 666 668
95 4 377 379
96 4 377 380
97 4 377 381
98 8 25 26
99 7 25 27
100 7 25 28
101 4 366 370
102 4 366 371
103 4 366 372
104 15 736 737
105 15 736 738
106 15 736 739
107 15 736 740
108 15 736 741
109 15 736 742
110 7 460 462
111 4 269 271
112 4 269 272
113 4 269 273
114 7 267 269
115 8 265 266
116 7 265 267
117 7 265 268
118 4 414 418
119 4 414 419
120 4 414 420
121 4 486 490
122 4 486 491
123 4 486 492
124 7 484 486
125 8 481 482
126 7 481 483
127 7 481 484
128 7 483 485
129 4 485 487
130 4 485 488
131 4 485 489
132 15 764 765
133 15 764 766
134 15 764 767
135 15 764 768
136 15 764 769
137 15 764 770
138 4 425 427
139 4 425 428
140 4 425 429
141 4 222 226
142 4 222 227
143 4 222 228
144 7 220 222
145 8 217 218
146 7 217 219
147 7 217 220
148 4 221 223
149 4 221 224
150 4 221 225
151 7 219 221
152 8 409 410
153 7 409 411
154 7 409 412
155 4 413 415
156 4 413 416
157 4 413 417
158 7 411 413
159 4 293 295
160 4 293 296
161 4 293 297
162 7 291 293
163 7 412 414
164 4 78 82
165 4 78 83
166 4 78 84
167 4 510 514
168 4 510 515
169 4 510 516
170 7 508 510
171 8 505 506
172 7 505 507
173 7 505 508
174 8 681 682
175 7 681 683
176 7 681 684
177 7 507 509
178 4 449 451
179 4 449 452
180 4 449 453
181 4 498 502
182 4 498 503
183 4 498 504
184 4 185 187
185 4 185 188
186 4 185 189
187 7 183 185
188 8 181 182
189 7 181 183
190 7 181 184
191 7 184 186
192 7 496 498
193 8 493 494
194 7 493 495
195 7 493 496
196 7 495 497
197 4 497 499
198 4 497 500
199 4 497 501
200 7 255 257
201 4 546 547
202 4 546 548
203 4 257 259
204 4 257 260
205 4 257 261
206 7 328 330
207 8 325 326
208 7 325 327
209 7 325 328
210 7 327 329
211 7 543 546
212 4 329 331
213 4 329 332
214 4 329 333
215 4 686 687
216 4 686 688
217 7 683 686
218 8 157 158
219 7 157 159
220 7 157 160
221 7 160 162
222 7 3 5
223 4 509 511
224 4 509 512
225 4 509 513
226 4 161 163
227 4 161 164
228 4 161 165
229 7 159 161
230 4 5 7
231 4 5 8
232 4 5 9
233 4 437 439
234 4 437 440
235 4 437 441
236 7 447 449
237 4 66 70
238 4 66 71
239 4 66 72
240 7 435 437
241 8 433 434
242 7 433 435
243 7 433 436
244 1 545 546
245 4 545 549
246 4 545 550
247 8 445 446
248 7 445 447
249 7 445 448
250 7 448 450
251 4 450 454
252 4 450 455
253 4 450 456
254 8 61 62
255 7 61 63
256 7 61 64
257 7 64 66
258 7 63 65
259 8 541 542
260 7 541 543
261 7 541 544
262 7 544 545
263 4 474 478
264 4 474 479
265 4 474 480
266 7 472 474
267 4 162 166
268 4 162 167
269 4 162 168
270 8 1 2
271 7 1 3
272 7 1 4
273 7 4 6
274 4 6 10
275 4 6 11
276 4 6 12
277 4 30 34
278 4 30 35
279 4 30 36
280 7 28 30
281 7 387 389
282 4 89 91
283 4 89 92
284 4 89 93
285 7 388 390
286 4 390 394
287 4 390 395
288 4 390 396
289 8 385 386
290 7 385 387
291 7 385 388
292 7 27 29
293 4 29 31
294 4 29 32
295 4 29 33
296 8 469 470
297 7 469 471
298 7 469 472
299 7 471 473
300 7 268 270
301 4 473 475
302 4 473 476
303 4 473 477
304 7 135 137
305 8 133 134
306 7 133 135
307 7 133 136
308 7 136 138
309 4 137 139
310 4 137 140
311 4 137 141
312 4 626 627
313 4 626 628
314 1 625 626
315 4 625 629
316 4 625 630
317 7 624 625
318 8 621 622
319 7 621 623
320 7 621 624
321 7 623 626
322 8 289 290
323 7 289 291
324 7 289 292
325 4 389 391
326 4 389 392
327 4 389 393
328 7 520 522
329 4 522 526
330 4 522 527
331 4 522 528
332 7 519 521
333 4 521 523
334 4 521 524
335 4 521 525
336 8 517 518
337 7 517 519
338 7 517 520
339 4 533 535
340 4 533 536
341 4 533 537
342 7 531 533
343 8 529 530
344 7 529 531
345 7 529 532
346 4 270 274
347 4 270 275
348 4 270 276
349 7 40 42
350 7 532 534
351 4 534 538
352 4 534 539
353 4 534 540
354 7 292 294
355 4 138 142
356 4 138 143
357 4 138 144
358 4 294 298
359 4 294 299
360 4 294 300
361 4 676 677
362 4 676 678
363 7 673 676
364 4 317 319
365 4 317 320
366 4 317 321
367 7 316 318
368 8 313 314
369 7 313 315
370 7 313 316
371 4 318 322
372 4 318 323
373 4 318 324
374 4 186 190
375 4 186 191
376 4 186 192
377 4 402 406
378 4 402 407
379 4 402 408
380 8 253 254
381 7 253 255
382 7 253 256
383 7 256 258
384 4 258 262
385 4 258 263
386 4 258 264
387 7 603 606
388 4 606 607
389 4 606 608
390 8 601 602
391 7 601 603
392 7 601 604
393 7 400 402
394 1 605 606
395 4 605 609
396 4 605 610
397 7 604 605
398 4 281 283
399 4 281 284
400 4 281 285
401 7 279 281
402 7 147 149
403 8 145 146
404 7 145 147
405 7 145 148
406 7 315 317
407 7 644 645
408 8 641 642
409 7 641 643
410 7 641 644
411 1 645 646
412 4 645 649
413 4 645 650
414 7 643 646
415 4 646 647
416 4 646 648
417 7 436 438
418 4 438 442
419 4 438 443
420 4 438 444
421 7 207 209
422 8 205 206
423 7 205 207
424 7 205 208
425 7 208 210
426 8 397 398
427 7 397 399
428 7 397 400
429 7 399 401
430 4 401 403
431 4 401 404
432 4 401 405
433 7 280 282
434 4 282 286
435 4 282 287
436 4 282 288
437 8 277 278
438 7 277 279
439 7 277 280
440 4 113 115
441 4 113 116
442 4 113 117
443 7 111 113
444 8 109 110
445 7 109 111
446 7 109 112
447 7 112 114
448 4 210 214
449 4 210 215
450 4 210 216
451 7 87 89
452 8 85 86
453 7 85 87
454 7 85 88
455 7 88 90
456 4 636 637
457 4 636 638
458 4 90 94
459 4 90 95
460 4 90 96
461 1 635 636
462 4 635 639
463 4 635 640
464 4 65 67
465 4 65 68
466 4 65 69
467 4 102 106
468 4 102 107
469 4 102 108
470 7 634 635
471 7 100 102
472 1 585 586
473 4 585 589
474 4 585 590
475 8 37 38
476 7 37 39
477 7 37 40
478 4 101 103
479 4 101 104
480 4 101 105
481 8 97 98
482 7 97 99
483 7 97 100
484 7 39 41
485 4 41 43
486 4 41 44
487 4 41 45
488 7 99 101
489 7 584 585
490 8 671 672
491 7 671 673
492 7 671 674
493 1 675 676
494 4 675 679
495 4 675 680
496 7 674 675
497 4 114 118
498 4 114 119
499 4 114 120
500 7 613 616
501 4 616 617
502 4 616 618
503 8 651 652
504 7 651 653
505 7 651 654
506 7 654 655
507 7 653 656
508 1 655 656
509 4 655 659
510 4 655 660
511 4 656 657
512 4 656 658
513 4 42 46
514 4 42 47
515 4 42 48
516 8 631 632
517 7 631 633
518 7 631 634
519 7 633 636
520 4 174 178
521 4 174 179
522 4 174 180
523 7 172 174
524 8 169 170
525 7 169 171
526 7 169 172
527 4 173 175
528 4 173 176
529 4 173 177
530 7 171 173
531 1 565 566
532 4 565 569
533 4 565 570
534 7 564 565
535 8 561 562
536 7 561 563
537 7 561 564
538 7 563 566
539 4 566 567
540 4 566 568
541 7 704 705
542 7 244 246
543 8 241 242
544 7 241 243
545 7 241 244
546 4 245 247
547 4 245 248
548 4 245 249
549 7 243 245
550 4 246 250
551 4 246 251
552 4 246 252
553 15 743 744
554 15 743 745
555 15 743 746
556 15 743 747
557 15 743 748
558 15 743 749
559 4 53 55
560 4 53 56
561 4 53 57
562 1 555 556
563 4 555 559
564 4 555 560
565 7 723 726
566 7 16 18
567 8 13 14
568 7 13 15
569 7 13 16
570 4 18 22
571 4 18 23
572 4 18 24
573 7 148 150
574 4 150 154
575 4 150 155
576 4 150 156
577 4 149 151
578 4 149 152
579 4 149 153
580 4 353 355
581 4 353 356
582 4 353 357
583 7 351 353
584 4 197 199
585 4 197 200
586 4 197 201
587 7 195 197
588 8 193 194
589 7 193 195
590 7 193 196
591 7 196 198
592 4 198 202
593 4 198 203
594 4 198 204
595 7 574 575
596 4 556 557
597 4 556 558
598 7 554 555
599 8 551 552
600 7 551 553
601 7 551 554
602 7 553 556
603 1 575 576
604 4 575 579
605 4 575 580
606 7 123 125
607 8 571 572
608 7 571 573
609 7 571 574
610 7 573 576
611 4 576 577
612 4 576 578
613 8 349 350
614 7 349 351
615 7 349 352
616 7 352 354
617 4 378 382
618 4 378 383
619 4 378 384
620 7 376 378
621 8 373 374
622 7 373 375
623 7 373 376
624 7 375 377
625 4 209 211
626 4 209 212
627 4 209 213
628 15 757 758
629 15 757 759
630 15 757 760
631 15 757 761
632 15 757 762
633 15 757 763
634 7 124 126
635 4 126 130
636 4 126 131
637 4 126 132
638 8 121 122
639 7 121 123
640 7 121 124
641 4 461 463
642 4 461 464
643 4 461 465
644 7 459 461
645 4 125 127
646 4 125 128
647 4 125 129
648 4 462 466
649 4 462 467
650 4 462 468
651 4 586 587
652 4 586 588
653 7 583 586
654 1 705 706
655 4 705 709
656 4 705 710
657 8 581 582
658 7 581 583
659 7 581 584
660 8 457 458
661 7 457 459
662 7 457 460
663 4 354 358
664 4 354 359
665 4 354 360
666 4 426 430
667 4 426 431
668 4 426 432
669 15 750 751
670 15 750 752
671 15 750 753
672 15 750 754
673 15 750 755
674 15 750 756
675 7 424 426
676 8 421 422
677 7 421 423
678 7 421 424
679 7 423 425
680 8 611 612
681 7 611 613
682 7 611 614
683 7 614 615
684 1 615 616
685 4 615 619
686 4 615 620
687 4 234 238
688 4 234 239
689 4 234 240
690 8 721 722
691 7 721 723
692 7 721 724
693 4 233 235
694 4 233 236
695 4 233 237
696 7 231 233
697 7 232 234
698 8 229 230
699 7 229 231
700 7 229 232
701 1 725 726
702 4 725 729
703 4 725 730
704 4 726 727
705 4 726 728
706 7 724 725
707 4 17 19
708 4 17 20
709 4 17 21
710 4 706 707
711 4 706 708
712 7 703 706
713 8 701 702
714 7 701 703
715 7 701 704

Angles

1 11 74 73 75
2 11 74 73 76
3 12 75 73 76
4 9 73 75 77
5 4 75 77 79
6 4 75 77 80
7 4 75 77 81
8 7 79 77 80
9 7 79 77 81
10 7 80 77 81
11 9 681 684 685
12 9 73 76 78
13 9 301 303 305
14 11 692 691 693
15 11 692 691 694
16 12 693 691 694
17 9 691 694 695
18 9 691 693 696
19 4 52 54 58
20 4 52 54 59
21 4 52 54 60
22 7 58 54 59
23 7 58 54 60
24 7 59 54 60
25 13 693 696 695
26 4 695 696 697
27 4 695 696 698
28 6 697 696 698
29 4 303 305 307
30 4 303 305 308
31 4 303 305 309
32 7 307 305 308
33 7 307 305 309
34 7 308 305 309
35 13 694 695 696
36 4 696 695 699
37 4 696 695 700
38 6 699 695 700
39 9 49 52 54
40 11 50 49 51
41 11 50 49 52
42 12 51 49 52
43 4 340 342 346
44 4 340 342 347
45 4 340 342 348
46 7 346 342 347
47 7 346 342 348
48 7 347 342 348
49 9 49 51 53
50 11 338 337 339
51 11 338 337 340
52 12 339 337 340
53 9 337 340 342
54 9 13 15 17
55 4 328 330 334
56 4 328 330 335
57 4 328 330 336
58 7 334 330 335
59 7 334 330 336
60 7 335 330 336
61 4 304 306 310
62 4 304 306 311
63 4 304 306 312
64 7 310 306 311
65 7 310 306 312
66 7 311 306 312
67 13 684 685 686
68 4 686 685 689
69 4 686 685 690
70 6 689 685 690
71 11 302 301 303
72 11 302 301 304
73 12 303 301 304
74 9 301 304 306
75 9 711 714 715
76 13 713 716 715
77 4 715 716 717
78 4 715 716 718
79 6 717 716 718
80 9 711 713 716
81 11 712 711 713
82 11 712 711 714
83 12 713 711 714
84 13 714 715 716
85 4 716 715 719
86 4 716 715 720
87 6 719 715 720
88 9 361 363 365
89 11 362 361 363
90 11 362 361 364
91 12 363 361 364
92 9 361 364 366
93 4 363 365 367
94 4 363 365 368
95 4 363 365 369
96 7 367 365 368
97 7 367 365 369
98 7 368 365 369
99 9 337 339 341
100 13 594 595 596
101 4 596 595 599
102 4 596 595 600
103 6 599 595 600
104 11 592 591 593
105 11 592 591 594
106 12 593 591 594
107 9 591 594 595
108 4 339 341 343
109 4 339 341 344
110 4 339 341 345
111 7 343 341 344
112 7 343 341 345
113 7 344 341 345
114 13 593 596 595
115 4 595 596 597
116 4 595 596 598
117 6 597 596 598
118 9 591 593 596
119 13 664 665 666
120 4 666 665 669
121 4 666 665 670
122 6 669 665 670
123 9 661 664 665
124 11 662 661 663
125 11 662 661 664
126 12 663 661 664
127 9 661 663 666
128 13 663 666 665
129 4 665 666 667
130 4 665 666 668
131 6 667 666 668
132 4 375 377 379
133 4 375 377 380
134 4 375 377 381
135 7 379 377 380
136 7 379 377 381
137 7 380 377 381
138 11 26 25 27
139 11 26 25 28
140 12 27 25 28
141 4 364 366 370
142 4 364 366 371
143 4 364 366 372
144 7 370 366 371
145 7 370 366 372
146 7 371 366 372
147 18 737 736 738
148 18 739 736 740
149 18 741 736 742
150 17 737 736 739
151 17 737 736 740
152 17 737 736 741
153 17 737 736 742
154 17 738 736 739
155 17 738 736 740
156 17 738 736 741
157 17 738 736 742
158 17 739 736 741
159 17 739 736 742
160 17 740 736 741
161 17 740 736 742
162 9 457 460 462
163 4 267 269 271
164 4 267 269 272
165 4 267 269 273
166 7 271 269 272
167 7 271 269 273
168 7 272 269 273
169 9 265 267 269
170 11 266 265 267
171 11 266 265 268
172 12 267 265 268
173 4 412 414 418
174 4 412 414 419
175 4 412 414 420
176 7 418 414 419
177 7 418 414 420
178 7 419 414 420
179 4 484 486 490
180 4 484 486 491
181 4 484 486 492
182 7 490 486 491
183 7 490 486 492
184 7 491 486 492
185 9 481 484 486
186 11 482 481 483
187 11 482 481 484
188 12 483 481 484
189 9 481 483 485
190 4 483 485 487
191 4 483 485 488
192 4 483 485 489
193 7 487 485 488
194 7 487 485 489
195 7 488 485 489
196 18 765 764 766
197 18 767 764 768
198 18 769 764 770
199 17 765 764 767
200 17 765 764 768
201 17 765 764 769
202 17 765 764 770
203 17 766 764 767
204 17 766 764 768
205 17 766 764 769
206 17 766 764 770
207 17 767 764 769
208 17 767 764 770
209 17 768 764 769
210 17 768 764 770
211 4 423 425 427
212 4 423 425 428
213 4 423 425 429
214 7 427 425 428
215 7 427 425 429
216 7 428 425 429
217 4 220 222 226
218 4 220 222 227
219 4 220 222 228
220 7 226 222 227
221 7 226 222 228
222 7 227 222 228
223 9 217 220 222
224 11 218 217 219
225 11 218 217 220
226 12 219 217 220
227 4 219 221 223
228 4 219 221 224
229 4 219 221 225
230 7 223 221 224
231 7 223 221 225
232 7 224 221 225
233 9 217 219 221
234 11 410 409 411
235 11 410 409 412
236 12 411 409 412
237 4 411 413 415
238 4 411 413 416
239 4 411 413 417
240 7 415 413 416
241 7 415 413 417
242 7 416 413 417
243 9 409 411 413
244 4 291 293 295
245 4 291 293 296
246 4 291 293 297
247 7 295 293 296
248 7 295 293 297
249 7 296 293 297
250 9 289 291 293
251 9 409 412 414
252 4 76 78 82
253 4 76 78 83
254 4 76 78 84
255 7 82 78 83
256 7 82 78 84
257 7 83 78 84
258 4 508 510 514
259 4 508 510 515
260 4 508 510 516
261 7 514 510 515
262 7 514 510 516
263 7 515 510 516
264 9 505 508 510
265 11 506 505 507
266 11 506 505 508
267 12 507 505 508
268 11 682 681 683
269 11 682 681 684
270 12 683 681 684
271 9 505 507 509
272 4 447 449 451
273 4 447 449 452
274 4 447 449 453
275 7 451 449 452
276 7 451 449 453
277 7 452 449 453
278 4 496 498 502
279 4 496 498 503
280 4 496 498 504
281 7 502 498 503
282 7 502 498 504
283 7 503 498 504
284 4 183 185 187
285 4 183 185 188
286 4 183 185 189
287 7 187 185 188
288 7 187 185 189
289 7 188 185 189
290 9 181 183 185
291 11 182 181 183
292 11 182 181 184
293 12 183 181 184
294 9 181 184 186
295 9 493 496 498
296 11 494 493 495
297 11 494 493 496
298 12 495 493 496
299 9 493 495 497
300 4 495 497 499
301 4 495 497 500
302 4 495 497 501
303 7 499 497 500
304 7 499 497 501
305 7 500 497 501
306 9 253 255 257
307 13 543 546 545
308 4 545 546 547
309 4 545 546 548
310 6 547 546 548
311 4 255 257 259
312 4 255 257 260
313 4 255 257 261
314 7 259 257 260
315 7 259 257 261
316 7 260 257 261
317 9 325 328 330
318 11 326 325 327
319 11 326 325 328
320 12 327 325 328
321 9 325 327 329
322 9 541 543 546
323 4 327 329 331
324 4 327 329 332
325 4 327 329 333
326 7 331 329 332
327 7 331 329 333
328 7 332 329 333
329 13 683 686 685
330 4 685 686 687
331 4 685 686 688
332 6 687 686 688
333 9 681 683 686
334 11 158 157 159
335 11 158 157 160
336 12 159 157 160
337 9 157 160 162
338 9 1 3 5
339 4 507 509 511
340 4 507 509 512
341 4 507 509 513
342 7 511 509 512
343 7 511 509 513
344 7 512 509 513
345 4 159 161 163
346 4 159 161 164
347 4 159 161 165
348 7 163 161 164
349 7 163 161 165
350 7 164 161 165
351 9 157 159 161
352 4 3 5 7
353 4 3 5 8
354 4 3 5 9
355 7 7 5 8
356 7 7 5 9
357 7 8 5 9
358 4 435 437 439
359 4 435 437 440
360 4 435 437 441
361 7 439 437 440
362 7 439 437 441
363 7 440 437 441
364 9 445 447 449
365 4 64 66 70
366 4 64 66 71
367 4 64 66 72
368 7 70 66 71
369 7 70 66 72
370 7 71 66 72
371 9 433 435 437
372 11 434 433 435
373 11 434 433 436
374 12 435 433 436
375 13 544 545 546
376 4 546 545 549
377 4 546 545 550
378 6 549 545 550
379 11 446 445 447
380 11 446 445 448
381 12 447 445 448
382 9 445 448 450
383 4 448 450 454
384 4 448 450 455
385 4 448 450 456
386 7 454 450 455
387 7 454 450 456
388 7 455 450 456
389 11 62 61 63
390 11 62 61 64
391 12 63 61 64
392 9 61 64 66
393 9 61 63 65
394 11 542 541 543
395 11 542 541 544
396 12 543 541 544
397 9 541 544 545
398 4 472 474 478
399 4 472 474 479
400 4 472 474 480
401 7 478 474 479
402 7 478 474 480
403 7 479 474 480
404 9 469 472 474
405 4 160 162 166
406 4 160 162 167
407 4 160 162 168
408 7 166 162 167
409 7 166 162 168
410 7 167 162 168
411 11 2 1 3
412 11 2 1 4
413 12 3 1 4
414 9 1 4 6
415 4 4 6 10
416 4 4 6 11
417 4 4 6 12
418 7 10 6 11
419 7 10 6 12
420 7 11 6 12
421 4 28 30 34
422 4 28 30 35
423 4 28 30 36
424 7 34 30 35
425 7 34 30 36
426 7 35 30 36
427 9 25 28 30
428 9 385 387 389
429 4 87 89 91
430 4 87 89 92
431 4 87 89 93
432 7 91 89 92
433 7 91 89 93
434 7 92 89 93
435 9 385 388 390
436 4 388 390 394
437 4 388 390 395
438 4 388 390 396
439 7 394 390 395
440 7 394 390 396
441 7 395 390 396
442 11 386 385 387
443 11 386 385 388
444 12 387 385 388
445 9 25 27 29
446 4 27 29 31
447 4 27 29 32
448 4 27 29 33
449 7 31 29 32
450 7 31 29 33
451 7 32 29 33
452 11 470 469 471
453 11 470 469 472
454 12 471 469 472
455 9 469 471 473
456 9 265 268 270
457 4 471 473 475
458 4 471 473 476
459 4 471 473 477
460 7 475 473 476
461 7 475 473 477
462 7 476 473 477
463 9 133 135 137
464 11 134 133 135
465 11 134 133 136
466 12 135 133 136
467 9 133 136 138
468 4 135 137 139
469 4 135 137 140
470 4 135 137 141
471 7 139 137 140
472 7 139 137 141
473 7 140 137 141
474 13 623 626 625
475 4 625 626 627
476 4 625 626 628
477 6 627 626 628
478 13 624 625 626
479 4 626 625 629
480 4 626 625 630
481 6 629 625 630
482 9 621 624 625
483 11 622 621 623
484 11 622 621 624
485 12 623 621 624
486 9 621 623 626
487 11 290 289 291
488 11 290 289 292
489 12 291 289 292
490 4 387 389 391
491 4 387 389 392
492 4 387 389 393
493 7 391 389 392
494 7 391 389 393
495 7 392 389 393
496 9 517 520 522
497 4 520 522 526
498 4 520 522 527
499 4 520 522 528
500 7 526 522 527
501 7 526 522 528
502 7 527 522 528
503 9 517 519 521
504 4 519 521 523
505 4 519 521 524
506 4 519 521 525
507 7 523 521 524
508 7 523 521 525
509 7 524 521 525
510 11 518 517 519
511 11 518 517 520
512 12 519 517 520
513 4 531 533 535
514 4 531 533 536
515 4 531 533 537
516 7 535 533 536
517 7 535 533 537
518 7 536 533 537
519 9 529 531 533
520 11 530 529 531
521 11 530 529 532
522 12 531 529 532
523 4 268 270 274
524 4 268 270 275
525 4 268 270 276
526 7 274 270 275
527 7 274 270 276
528 7 275 270 276
529 9 37 40 42
530 9 529 532 534
531 4 532 534 538
532 4 532 534 539
533 4 532 534 540
534 7 538 534 539
535 7 538 534 540
536 7 539 534 540
537 9 289 292 294
538 4 136 138 142
539 4 136 138 143
540 4 136 138 144
541 7 142 138 143
542 7 142 138 144
543 7 143 138 144
544 4 292 294 298
545 4 292 294 299
546 4 292 294 300
547 7 298 294 299
548 7 298 294 300
549 7 299 294 300
550 13 673 676 675
551 4 675 676 677
552 4 675 676 678
553 6 677 676 678
554 9 671 673 676
555 4 315 317 319
556 4 315 317 320
557 4 315 317 321
558 7 319 317 320
559 7 319 317 321
560 7 320 317 321
561 9 313 316 318
562 11 314 313 315
563 11 314 313 316
564 12 315 313 316
565 4 316 318 322
566 4 316 318 323
567 4 316 318 324
568 7 322 318 323
569 7 322 318 324
570 7 323 318 324
571 4 184 186 190
572 4 184 186 191
573 4 184 186 192
574 7 190 186 191
575 7 190 186 192
576 7 191 186 192
577 4 400 402 406
578 4 400 402 407
579 4 400 402 408
580 7 406 402 407
581 7 406 402 408
582 7 407 402 408
583 11 254 253 255
584 11 254 253 256
585 12 255 253 256
586 9 253 256 258
587 4 256 258 262
588 4 256 258 263
589 4 256 258 264
590 7 262 258 263
591 7 262 258 264
592 7 263 258 264
593 9 601 603 606
594 13 603 606 605
595 4 605 606 607
596 4 605 606 608
597 6 607 606 608
598 11 602 601 603
599 11 602 601 604
600 12 603 601 604
601 9 397 400 402
602 13 604 605 606
603 4 606 605 609
604 4 606 605 610
605 6 609 605 610
606 9 601 604 605
607 4 279 281 283
608 4 279 281 284
609 4 279 281 285
610 7 283 281 284
611 7 283 281 285
612 7 284 281 285
613 9 277 279 281
614 9 145 147 149
615 11 146 145 147
616 11 146 145 148
617 12 147 145 148
618 9 313 315 317
619 9 641 644 645
620 11 642 641 643
621 11 642 641 644
622 12 643 641 644
623 13 644 645 646
624 4 646 645 649
625 4 646 645 650
626 6 649 645 650
627 9 641 643 646
628 13 643 646 645
629 4 645 646 647
630 4 645 646 648
631 6 647 646 648
632 9 433 436 438
633 4 436 438 442
634 4 436 438 443
635 4 436 438 444
636 7 442 438 443
637 7 442 438 444
638 7 443 438 444
639 9 205 207 209
640 11 206 205 207
641 11 206 205 208
642 12 207 205 208
643 9 205 208 210
644 11 398 397 399
645 11 398 397 400
646 12 399 397 400
647 9 397 399 401
648 4 399 401 403
649 4 399 401 404
650 4 399 401 405
651 7 403 401 404
652 7 403 401 405
653 7 404 401 405
654 9 277 280 282
655 4 280 282 286
656 4 280 282 287
657 4 280 282 288
658 7 286 282 287
659 7 286 282 288
660 7 287 282 288
661 11 278 277 279
662 11 278 277 280
663 12 279 277 280
664 4 111 113 115
665 4 111 113 116
666 4 111 113 117
667 7 115 113 116
668 7 115 113 117
669 7 116 113 117
670 9 109 111 113
671 11 110 109 111
672 11 110 109 112
673 12 111 109 112
674 9 109 112 114
675 4 208 210 214
676 4 208 210 215
677 4 208 210 216
678 7 214 210 215
679 7 214 210 216
680 7 215 210 216
681 9 85 87 89
682 11 86 85 87
683 11 86 85 88
684 12 87 85 88
685 9 85 88 90
686 13 633 636 635
687 4 635 636 637
688 4 635 636 638
689 6 637 636 638
690 4 88 90 94
691 4 88 90 95
692 4 88 90 96
693 7 94 90 95
694 7 94 90 96
695 7 95 90 96
696 13 634 635 636
697 4 636 635 639
698 4 636 635 640
699 6 639 635 640
700 4 63 65 67
701 4 63 65 68
702 4 63 65 69
703 7 67 65 68
704 7 67 65 69
705 7 68 65 69
706 4 100 102 106
707 4 100 102 107
708 4 100 102 108
709 7 106 102 107
710 7 106 102 108
711 7 107 102 108
712 9 631 634 635
713 9 97 100 102
714 13 584 585 586
715 4 586 585 589
716 4 586 585 590
717 6 589 585 590
718 11 38 37 39
719 11 38 37 40
720 12 39 37 40
721 4 99 101 103
722 4 99 101 104
723 4 99 101 105
724 7 103 101 104
725 7 103 101 105
726 7 104 101 105
727 11 98 97 99
728 11 98 97 100
729 12 99 97 100
730 9 37 39 41
731 4 39 41 43
732 4 39 41 44
733 4 39 41 45
734 7 43 41 44
735 7 43 41 45
736 7 44 41 45
737 9 97 99 101
738 9 581 584 585
739 11 672 671 673
740 11 672 671 674
741 12 673 671 674
742 13 674 675 676
743 4 676 675 679
744 4 676 675 680
745 6 679 675 680
746 9 671 674 675
747 4 112 114 118
748 4 112 114 119
749 4 112 114 120
750 7 118 114 119
751 7 118 114 120
752 7 119 114 120
753 9 611 613 616
754 13 613 616 615
755 4 615 616 617
756 4 615 616 618
757 6 617 616 618
758 11 652 651 653
759 11 652 651 654
760 12 653 651 654
761 9 651 654 655
762 9 651 653 656
763 13 654 655 656
764 4 656 655 659
765 4 656 655 660
766 6 659 655 660
767 13 653 656 655
768 4 655 656 657
769 4 655 656 658
770 6 657 656 658
771 4 40 42 46
772 4 40 42 47
773 4 40 42 48
774 7 46 42 47
775 7 46 42 48
776 7 47 42 48
777 11 632 631 633
778 11 632 631 634
779 12 633 631 634
780 9 631 633 636
781 4 172 174 178
782 4 172 174 179
783 4 172 174 180
784 7 178 174 179
785 7 178 174 180
786 7 179 174 180
787 9 169 172 174
788 11 170 169 171
789 11 170 169 172
790 12 171 169 172
791 4 171 173 175
792 4 171 173 176
793 4 171 173 177
794 7 175 173 176
795 7 175 173 177
796 7 176 173 177
797 9 169 171 173
798 13 564 565 566
799 4 566 565 569
800 4 566 565 570
801 6 569 565 570
802 9 561 564 565
803 11 562 561 563
804 11 562 561 564
805 12 563 561 564
806 9 561 563 566
807 13 563 566 565
808 4 565 566 567
809 4 565 566 568
810 6 567 566 568
811 9 701 704 705
812 9 241 244 246
813 11 242 241 243
814 11 242 241 244
815 12 243 241 244
816 4 243 245 247
817 4 243 245 248
818 4 243 245 249
819 7 247 245 248
820 7 247 245 249
821 7 248 245 249
822 9 241 243 245
823 4 244 246 250
824 4 244 246 251
825 4 244 246 252
826 7 250 246 251
827 7 250 246 252
828 7 251 246 252
829 18 744 743 745
830 18 746 743 747
831 18 748 743 749
832 17 744 743 746
833 17 744 743 747
834 17 744 743 748
835 17 744 743 749
836 17 745 743 746
837 17 745 743 747
838 17 745 743 748
839 17 745 743 749
840 17 746 743 748
841 17 746 743 749
842 17 747 743 748
843 17 747 743 749
844 4 51 53 55
845 4 51 53 56
846 4 51 53 57
847 7 55 53 56
848 7 55 53 57
849 7 56 53 57
850 13 554 555 556
851 4 556 555 559
852 4 556 555 560
853 6 559 555 560
854 9 721 723 726
855 9 13 16 18
856 11 14 13 15
857 11 14 13 16
858 12 15 13 16
859 4 16 18 22
860 4 16 18 23
861 4 16 18 24
862 7 22 18 23
863 7 22 18 24
864 7 23 18 24
865 9 145 148 150
866 4 148 150 154
867 4 148 150 155
868 4 148 150 156
869 7 154 150 155
870 7 154 150 156
871 7 155 150 156
872 4 147 149 151
873 4 147 149 152
874 4 147 149 153
875 7 151 149 152
876 7 151 149 153
877 7 152 149 153
878 4 351 353 355
879 4 351 353 356
880 4 351 353 357
881 7 355 353 356
882 7 355 353 357
883 7 356 353 357
884 9 349 351 353
885 4 195 197 199
886 4 195 197 200
887 4 195 197 201
888 7 199 197 200
889 7 199 197 201
890 7 200 197 201
891 9 193 195 197
892 11 194 193 195
893 11 194 193 196
894 12 195 193 196
895 9 193 196 198
896 4 196 198 202
897 4 196 198 203
898 4 196 198 204
899 7 202 198 203
900 7 202 198 204
901 7 203 198 204
902 9 571 574 575
903 13 553 556 555
904 4 555 556 557
905 4 555 556 558
906 6 557 556 558
907 9 551 554 555
908 11 552 551 553
909 11 552 551 554
910 12 553 551 554
911 9 551 553 556
912 13 574 575 576
913 4 576 575 579
914 4 576 575 580
915 6 579 575 580
916 9 121 123 125
917 11 572 571 573
918 11 572 571 574
919 12 573 571 574
920 9 571 573 576
921 13 573 576 575
922 4 575 576 577
923 4 575 576 578
924 6 577 576 578
925 11 350 349 351
926 11 350 349 352
927 12 351 349 352
928 9 349 352 354
929 4 376 378 382
930 4 376 378 383
931 4 376 378 384
932 7 382 378 383
933 7 382 378 384
934 7 383 378 384
935 9 373 376 378
936 11 374 373 375
937 11 374 373 376
938 12 375 373 376
939 9 373 375 377
940 4 207 209 211
941 4 207 209 212
942 4 207 209 213
943 7 211 209 212
944 7 211 209 213
945 7 212 209 213
946 18 758 757 759
947 18 760 757 761
948 18 762 757 763
949 17 758 757 760
950 17 758 757 761
951 17 758 757 762
952 17 758 757 763
953 17 759 757 760
954 17 759 757 761
955 17 759 757 762
956 17 759 757 763
957 17 760 757 762
958 17 760 757 763
959 17 761 757 762
960 17 761 757 763
961 9 121 124 126
962 4 124 126 130
963 4 124 126 131
964 4 124 126 132
965 7 130 126 131
966 7 130 126 132
967 7 131 126 132
968 11 122 121 123
969 11 122 121 124
970 12 123 121 124
971 4 459 461 463
972 4 459 461 464
973 4 459 461 465
974 7 463 461 464
975 7 463 461 465
976 7 464 461 465
977 9 457 459 461
978 4 123 125 127
979 4 123 125 128
980 4 123 125 129
981 7 127 125 128
982 7 127 125 129
983 7 128 125 129
984 4 460 462 466
985 4 460 462 467
986 4 460 462 468
987 7 466 462 467
988 7 466 462 468
989 7 467 462 468
990 13 583 586 585
991 4 585 586 587
992 4 585 586 588
993 6 587 586 588
994 9 581 583 586
995 13 704 705 706
996 4 706 705 709
997 4 706 705 710
998 6 709 705 710
999 11 582 581 583
1000 11 582 581 584
1001 12 583 581 584
1002 11 458 457 459
1003 11 458 457 460
1004 12 459 457 460
1005 4 352 354 358
1006 4 352 354 359
1007 4 352 354 360
1008 7 358 354 359
1009 7 358 354 360
1010 7 359 354 360
1011 4 424 426 430
1012 4 424 426 431
1013 4 424 426 432
1014 7 430 426 431
1015 7 430 426 432
1016 7 431 426 432
1017 18 751 750 752
1018 18 753 750 754
1019 18 755 750 756
1020 17 751 750 753
1021 17 751 750 754
1022 17 751 750 755
1023 17 751 750 756
1024 17 752 750 753
1025 17 752 750 754
1026 17 752 750 755
1027 17 752 750 756
1028 17 753 750 755
1029 17 753 750 756
1030 17 754 750 755
1031 17 754 750 756
1032 9 421 424 426
1033 11 422 421 423
1034 11 422 421 424
1035 12 423 421 424
1036 9 421 423 425
1037 11 612 611 613
1038 11 612 611 614
1039 12 613 611 614
1040 9 611 614 615
1041 13 614 615 616
1042 4 616 615 619
1043 4 616 615 620
1044 6 619 615 620
1045 4 232 234 238
1046 4 232 234 239
1047 4 232 234 240
1048 7 238 234 239
1049 7 238 234 240
1050 7 239 234 240
1051 11 722 721 723
1052 11 722 721 724
1053 12 723 721 724
1054 4 231 233 235
1055 4 231 233 236
1056 4 231 233 237
1057 7 235 233 236
1058 7 235 233 237
1059 7 236 233 237
1060 9 229 231 233
1061 9 229 232 234
1062 11 230 229 231
1063 11 230 229 232
1064 12 231 229 232
1065 13 724 725 726
1066 4 726 725 729
1067 4 726 725 730
1068 6 729 725 730
1069 13 723 726 725
1070 4 725 726 727
1071 4 725 726 728
1072 6 727 726 728
1073 9 721 724 725
1074 4 15 17 19
1075 4 15 17 20
1076 4 15 17 21
1077 7 19 17 20
1078 7 19 17 21
1079 7 20 17 21
1080 13 703 706 705
1081 4 705 706 707
1082 4 705 706 708
1083 6 707 706 708
1084 9 701 703 706
1085 11 702 701 703
1086 11 702 701 704
1087 12 703 701 704

Dihedrals

1 8 74 73 75 77
2 8 74 73 76 78
3 6 73 75 77 79
4 6 73 75 77 80
5 6 73 75 77 81
6 7 681 684 685 686
7 6 73 76 78 82
8 6 73 76 78 83
9 6 73 76 78 84
10 6 301 303 305 307
11 6 301 303 305 308
12 6 301 303 305 309
13 8 692 691 693 696
14 8 692 691 694 695
15 7 691 694 695 696
16 5 691 693 696 695
17 7 693 696 695 694
18 6 49 52 54 58
19 6 49 52 54 59
20 6 49 52 54 60
21 8 50 49 51 53
22 8 50 49 52 54
23 6 49 51 53 55
24 6 49 51 53 56
25 6 49 51 53 57
26 8 338 337 339 341
27 8 338 337 340 342
28 6 337 340 342 346
29 6 337 340 342 347
30 6 337 340 342 348
31 6 13 15 17 19
32 6 13 15 17 20
33 6 13 15 17 21
34 8 302 301 303 305
35 8 302 301 304 306
36 6 301 304 306 310
37 6 301 304 306 311
38 6 301 304 306 312
39 7 711 714 715 716
40 7 713 716 715 714
41 5 711 713 716 715
42 8 712 711 713 716
43 8 712 711 714 715
44 6 361 363 365 367
45 6 361 363 365 368
46 6 361 363 365 369
47 8 362 361 363 365
48 8 362 361 364 366
49 6 361 364 366 370
50 6 361 364 366 371
51 6 361 364 366 372
52 6 337 339 341 343
53 6 337 339 341 344
54 6 337 339 341 345
55 8 592 591 593 596
56 8 592 591 594 595
57 7 591 594 595 596
58 7 593 596 595 594
59 5 591 593 596 595
60 7 661 664 665 666
61 8 662 661 663 666
62 8 662 661 664 665
63 5 661 663 666 665
64 7 663 666 665 664
65 8 26 25 27 29
66 8 26 25 28 30
67 6 457 460 462 466
68 6 457 460 462 467
69 6 457 460 462 468
70 6 265 267 269 271
71 6 265 267 269 272
72 6 265 267 269 273
73 8 266 265 267 269
74 8 266 265 268 270
75 6 481 484 486 490
76 6 481 484 486 491
77 6 481 484 486 492
78 8 482 481 483 485
79 8 482 481 484 486
80 6 481 483 485 487
81 6 481 483 485 488
82 6 481 483 485 489
83 6 217 220 222 226
84 6 217 220 222 227
85 6 217 220 222 228
86 8 218 217 219 221
87 8 218 217 220 222
88 6 217 219 221 223
89 6 217 219 221 224
90 6 217 219 221 225
91 8 410 409 411 413
92 8 410 409 412 414
93 6 409 411 413 415
94 6 409 411 413 416
95 6 409 411 413 417
96 6 289 291 293 295
97 6 289 291 293 296
98 6 289 291 293 297
99 6 409 412 414 418
100 6 409 412 414 419
101 6 409 412 414 420
102 6 505 508 510 514
103 6 505 508 510 515
104 6 505 508 510 516
105 8 506 505 507 509
106 8 506 505 508 510
107 8 682 681 683 686
108 8 682 681 684 685
109 6 505 507 509 511
110 6 505 507 509 512
111 6 505 507 509 513
112 6 181 183 185 187
113 6 181 183 185 188
114 6 181 183 185 189
115 8 182 181 183 185
116 8 182 181 184 186
117 6 181 184 186 190
118 6 181 184 186 191
119 6 181 184 186 192
120 6 493 496 498 502
121 6 493 496 498 503
122 6 493 496 498 504
123 8 494 493 495 497
124 8 494 493 496 498
125 6 493 495 497 499
126 6 493 495 497 500
127 6 493 495 497 501
128 6 253 255 257 259
129 6 253 255 257 260
130 6 253 255 257 261
131 7 543 546 545 544
132 6 325 328 330 334
133 6 325 328 330 335
134 6 325 328 330 336
135 8 326 325 327 329
136 8 326 325 328 330
137 6 325 327 329 331
138 6 325 327 329 332
139 6 325 327 329 333
140 5 541 543 546 545
141 7 683 686 685 684
142 5 681 683 686 685
143 8 158 157 159 161
144 8 158 157 160 162
145 6 157 160 162 166
146 6 157 160 162 167
147 6 157 160 162 168
148 6 1 3 5 7
149 6 1 3 5 8
150 6 1 3 5 9
151 6 157 159 161 163
152 6 157 159 161 164
153 6 157 159 161 165
154 6 445 447 449 451
155 6 445 447 449 452
156 6 445 447 449 453
157 6 433 435 437 439
158 6 433 435 437 440
159 6 433 435 437 441
160 8 434 433 435 437
161 8 434 433 436 438
162 8 446 445 447 449
163 8 446 445 448 450
164 6 445 448 450 454
165 6 445 448 450 455
166 6 445 448 450 456
167 8 62 61 63 65
168 8 62 61 64 66
169 6 61 64 66 70
170 6 61 64 66 71
171 6 61 64 66 72
172 6 61 63 65 67
173 6 61 63 65 68
174 6 61 63 65 69
175 8 542 541 543 546
176 8 542 541 544 545
177 7 541 544 545 546
178 6 469 472 474 478
179 6 469 472 474 479
180 6 469 472 474 480
181 8 2 1 3 5
182 8 2 1 4 6
183 6 1 4 6 10
184 6 1 4 6 11
185 6 1 4 6 12
186 6 25 28 30 34
187 6 25 28 30 35
188 6 25 28 30 36
189 6 385 387 389 391
190 6 385 387 389 392
191 6 385 387 389 393
192 6 385 388 390 394
193 6 385 388 390 395
194 6 385 388 390 396
195 8 386 385 387 389
196 8 386 385 388 390
197 6 25 27 29 31
198 6 25 27 29 32
199 6 25 27 29 33
200 8 470 469 471 473
201 8 470 469 472 474
202 6 469 471 473 475
203 6 469 471 473 476
204 6 469 471 473 477
205 6 265 268 270 274
206 6 265 268 270 275
207 6 265 268 270 276
208 6 133 135 137 139
209 6 133 135 137 140
210 6 133 135 137 141
211 8 134 133 135 137
212 8 134 133 136 138
213 6 133 136 138 142
214 6 133 136 138 143
215 6 133 136 138 144
216 7 623 626 625 624
217 7 621 624 625 626
218 8 622 621 623 626
219 8 622 621 624 625
220 5 621 623 626 625
221 8 290 289 291 293
222 8 290 289 292 294
223 6 517 520 522 526
224 6 517 520 522 527
225 6 517 520 522 528
226 6 517 519 521 523
227 6 517 519 521 524
228 6 517 519 521 525
229 8 518 517 519 521
230 8 518 517 520 522
231 6 529 531 533 535
232 6 529 531 533 536
233 6 529 531 533 537
234 8 530 529 531 533
235 8 530 529 532 534
236 6 37 40 42 46
237 6 37 40 42 47
238 6 37 40 42 48
239 6 529 532 534 538
240 6 529 532 534 539
241 6 529 532 534 540
242 6 289 292 294 298
243 6 289 292 294 299
244 6 289 292 294 300
245 7 673 676 675 674
246 5 671 673 676 675
247 6 313 316 318 322
248 6 313 316 318 323
249 6 313 316 318 324
250 8 314 313 315 317
251 8 314 313 316 318
252 8 254 253 255 257
253 8 254 253 256 258
254 6 253 256 258 262
255 6 253 256 258 263
256 6 253 256 258 264
257 5 601 603 606 605
258 7 603 606 605 604
259 8 602 601 603 606
260 8 602 601 604 605
261 6 397 400 402 406
262 6 397 400 402 407
263 6 397 400 402 408
264 7 601 604 605 606
265 6 277 279 281 283
266 6 277 279 281 284
267 6 277 279 281 285
268 6 145 147 149 151
269 6 145 147 149 152
270 6 145 147 149 153
271 8 146 145 147 149
272 8 146 145 148 150
273 6 313 315 317 319
274 6 313 315 317 320
275 6 313 315 317 321
276 7 641 644 645 646
277 8 642 641 643 646
278 8 642 641 644 645
279 5 641 643 646 645
280 7 643 646 645 644
281 6 433 436 438 442
282 6 433 436 438 443
283 6 433 436 438 444
284 6 205 207 209 211
285 6 205 207 209 212
286 6 205 207 209 213
287 8 206 205 207 209
288 8 206 205 208 210
289 6 205 208 210 214
290 6 205 208 210 215
291 6 205 208 210 216
292 8 398 397 399 401
293 8 398 397 400 402
294 6 397 399 401 403
295 6 397 399 401 404
296 6 397 399 401 405
297 6 277 280 282 286
298 6 277 280 282 287
299 6 277 280 282 288
300 8 278 277 279 281
301 8 278 277 280 282
302 6 109 111 113 115
303 6 109 111 113 116
304 6 109 111 113 117
305 8 110 109 111 113
306 8 110 109 112 114
307 6 109 112 114 118
308 6 109 112 114 119
309 6 109 112 114 120
310 6 85 87 89 91
311 6 85 87 89 92
312 6 85 87 89 93
313 8 86 85 87 89
314 8 86 85 88 90
315 6 85 88 90 94
316 6 85 88 90 95
317 6 85 88 90 96
318 7 633 636 635 634
319 7 631 634 635 636
320 6 97 100 102 106
321 6 97 100 102 107
322 6 97 100 102 108
323 8 38 37 39 41
324 8 38 37 40 42
325 8 98 97 99 101
326 8 98 97 100 102
327 6 37 39 41 43
328 6 37 39 41 44
329 6 37 39 41 45
330 6 97 99 101 103
331 6 97 99 101 104
332 6 97 99 101 105
333 7 581 584 585 586
334 8 672 671 673 676
335 8 672 671 674 675
336 7 671 674 675 676
337 5 611 613 616 615
338 7 613 616 615 614
339 8 652 651 653 656
340 8 652 651 654 655
341 7 651 654 655 656
342 5 651 653 656 655
343 7 653 656 655 654
344 8 632 631 633 636
345 8 632 631 634 635
346 5 631 633 636 635
347 6 169 172 174 178
348 6 169 172 174 179
349 6 169 172 174 180
350 8 170 169 171 173
351 8 170 169 172 174
352 6 169 171 173 175
353 6 169 171 173 176
354 6 169 171 173 177
355 7 561 564 565 566
356 8 562 561 563 566
357 8 562 561 564 565
358 5 561 563 566 565
359 7 563 566 565 564
360 7 701 704 705 706
361 6 241 244 246 250
362 6 241 244 246 251
363 6 241 244 246 252
364 8 242 241 243 245
365 8 242 241 244 246
366 6 241 243 245 247
367 6 241 243 245 248
368 6 241 243 245 249
369 5 721 723 726 725
370 6 13 16 18 22
371 6 13 16 18 23
372 6 13 16 18 24
373 8 14 13 15 17
374 8 14 13 16 18
375 6 145 148 150 154
376 6 145 148 150 155
377 6 145 148 150 156
378 6 349 351 353 355
379 6 349 351 353 356
380 6 349 351 353 357
381 6 193 195 197 199
382 6 193 195 197 200
383 6 193 195 197 201
384 8 194 193 195 197
385 8 194 193 196 198
386 6 193 196 198 202
387 6 193 196 198 203
388 6 193 196 198 204
389 7 571 574 575 576
390 7 553 556 555 554
391 7 551 554 555 556
392 8 552 551 553 556
393 8 552 551 554 555
394 5 551 553 556 555
395 6 121 123 125 127
396 6 121 123 125 128
397 6 121 123 125 129
398 8 572 571 573 576
399 8 572 571 574 575
400 5 571 573 576 575
401 7 573 576 575 574
402 8 350 349 351 353
403 8 350 349 352 354
404 6 349 352 354 358
405 6 349 352 354 359
406 6 349 352 354 360
407 6 373 376 378 382
408 6 373 376 378 383
409 6 373 376 378 384
410 8 374 373 375 377
411 8 374 373 376 378
412 6 373 375 377 379
413 6 373 375 377 380
414 6 373 375 377 381
415 6 121 124 126 130
416 6 121 124 126 131
417 6 121 124 126 132
418 8 122 121 123 125
419 8 122 121 124 126
420 6 457 459 461 463
421 6 457 459 461 464
422 6 457 459 461 465
423 7 583 586 585 584
424 5 581 583 586 585
425 8 582 581 583 586
426 8 582 581 584 585
427 8 458 457 459 461
428 8 458 457 460 462
429 6 421 424 426 430
430 6 421 424 426 431
431 6 421 424 426 432
432 8 422 421 423 425
433 8 422 421 424 426
434 6 421 423 425 427
435 6 421 423 425 428
436 6 421 423 425 429
437 8 612 611 613 616
438 8 612 611 614 615
439 7 611 614 615 616
440 8 722 721 723 726
441 8 722 721 724 725
442 6 229 231 233 235
443 6 229 231 233 236
444 6 229 231 233 237
445 6 229 232 234 238
446 6 229 232 234 239
447 6 229 232 234 240
448 8 230 229 231 233
449 8 230 229 232 234
450 7 723 726 725 724
451 7 721 724 725 726
452 7 703 706 705 704
453 5 701 703 706 705
454 8 702 701 703 706
455 8 702 701 704 705
