LAMMPS (23 Jun 2022 - Update 4)
# =============================================================================
# LAMMPS Minimization Input Script (Single-Step Soft Potential Strategy)
# Generated by Jinja2 template engine
# Generation time: 2026-07-10T21:29:09.574263100
# Job ID: 1380001
# =============================================================================
#
# Single-step soft potential minimization strategy:
#   Use soft potential with small cutoff (2.5A) and A=1000 to resolve
#   inter-molecular overlaps without disturbing properly packed atoms.
#
# CRITICAL FIX (v5):
#   v4 used multi-cutoff strategy (2.5 -> 4.0 -> 6.0) which DESTROYED the
#   structure. The soft potential with larger cutoffs (4.0, 6.0) pushed
#   apart atoms at legitimate distances (2.5-6.0A), causing the molecular
#   structure to collapse. Testing showed:
#     - After step 1 (rc=2.5): min distance 1.07A, 0 pairs < 1.0A (PERFECT)
#     - After step 2 (rc=4.0): min distance 0.00A, 891 pairs < 1.0A (DESTROYED)
#     - After step 3 (rc=6.0): min distance 0.00A, 3937 pairs < 1.0A (WORSE)
#   v5 uses ONLY a single step with rc=2.5, which resolves all close contacts
#   without disturbing the properly packed structure.
#
# Why small cutoff (2.5A) works:
#   - Packmol initial structure typically has only a few close contacts
#     (min distance ~0.67A, 4 pairs < 1.0A)
#   - Soft potential with rc=2.5A only acts on pairs < 2.5A
#   - Special_bonds lj 0 0 0.5 protects bonded pairs (1-2, 1-3)
#   - A=1000 gives max force 800 at r=0, strong enough to push apart overlaps
#     but only within the small cutoff range
#
# Bond force constants for reference:
#   C-C (sp3): k=268, C=C: k=414, C=O: k=570, C-H: k=340, C-O: k=320
#   Angle force constants: k=50-80
#   With A=1000, rc=2.5: max soft force = 2*1000/2.5 = 800
#   This is stronger than angle forces (50-80) and comparable to bond forces
#   (268-570), but only acts on non-bonded pairs within 2.5A.

# =============================================================================
# Single Step: Soft potential with small cutoff (2.5A) - resolve all overlaps
# =============================================================================
units           real
atom_style      full
dimension       3
boundary        p p p

# Bonded interactions (needed for bond/angle force computation)
bond_style      harmonic
angle_style     harmonic
dihedral_style  none
improper_style  none

# Use lj/cut first to match the pair_coeff format in system.in.settings
pair_style      lj/cut/coul/cut 8.0 8.0
special_bonds   lj 0.0 0.0 0.5 coul 0.0 0.0 0.5
kspace_style    none

# Read structure file
read_data       system.data
Reading data file ...
  orthogonal box = (0 0 0) to (20 20 20)
  1 by 1 by 1 MPI processor grid
  reading atoms ...
  770 atoms
  scanning bonds ...
  6 = max bonds/atom
  scanning angles ...
  15 = max angles/atom
  scanning dihedrals ...
  3 = max dihedrals/atom
  reading bonds ...
  715 bonds
  reading angles ...
  1087 angles
  reading dihedrals ...
  455 dihedrals
Finding 1-2 1-3 1-4 neighbors ...
  special bond factors lj:    0        0        0.5     
  special bond factors coul:  0        0        0.5     
     6 = max # of 1-2 neighbors
     5 = max # of 1-3 neighbors
     9 = max # of 1-4 neighbors
    11 = max # of special neighbors
  special bonds CPU = 0.000 seconds
  read_data CPU = 0.026 seconds

# Include force field parameters (bond_coeff, angle_coeff)
include         system.in.settings
pair_coeff 1 1 0.066 3.50
pair_coeff 2 2 0.066 3.50
pair_coeff 3 3 0.066 3.50
pair_coeff 4 4 0.066 3.50
pair_coeff 5 5 0.070 3.55
pair_coeff 6 6 0.070 3.55
pair_coeff 7 7 0.070 3.55
pair_coeff 8 8 0.070 3.55
pair_coeff 9 9 0.105 3.75
pair_coeff 10 10 0.105 3.75
pair_coeff 11 11 0.030 2.50
pair_coeff 12 12 0.030 2.50
pair_coeff 13 13 0.030 2.50
pair_coeff 14 14 0.030 2.42
pair_coeff 15 15 0.030 2.50
pair_coeff 16 16 0.030 2.50
pair_coeff 17 17 0.030 2.50
pair_coeff 18 18 0.170 3.00
pair_coeff 19 19 0.170 3.00
pair_coeff 20 20 0.170 2.96
pair_coeff 21 21 0.170 3.00
pair_coeff 22 22 0.170 3.25
pair_coeff 23 23 0.170 3.25
pair_coeff 24 24 0.170 3.25
pair_coeff 25 25 0.170 3.25
pair_coeff 26 26 0.255 2.95
pair_coeff 27 27 0.200 3.70
pair_coeff 28 28 0.0025 1.506
pair_coeff 29 29 0.250 3.55
pair_coeff 30 30 0.250 3.55
#  -
bond_coeff 1  268.0  1.529   # C-C   (sp3-sp3)
bond_coeff 2  414.0  1.330   # C=C   (sp2-sp2)
bond_coeff 3 320.0  1.400   #   C-C

#  -
bond_coeff 4     340.0  1.090   # C-H  (sp3 )
bond_coeff 5     340.0  1.080   # C-H  (sp2 )
bond_coeff 6    340.0  1.080   # C-H  (   )

#  -
bond_coeff 7  320.0  1.410   # C-O   (   )
bond_coeff 8  570.0  1.229   # C=O   (  )
bond_coeff 9    320.0  1.360   # C-O  (  )

#  -
bond_coeff 10  300.0  1.470   # C-N   ( )
bond_coeff 11  440.0  1.270   # C=N   (  )
bond_coeff 12   350.0  1.340   # C-N  (  )

#  -
bond_coeff 13         340.0  0.960   # O-H  (    )

#  -
bond_coeff 14         340.0  1.010   # N-H  ( )

#  -   (PF6)
bond_coeff 15         420.0  1.560   # P-F  (     )

#  -
bond_coeff 16         200.0  1.810   # S-C  (  )

#  -
bond_coeff 17         300.0  1.430   # S-O  (   )
#  - -
angle_coeff 1    50.0  109.5   # C-C-C (sp3)
angle_coeff 2    80.0  120.0   # C-C-C (sp2)
angle_coeff 3   60.0  120.0   # C-C-C (  )

#  - -
angle_coeff 4    37.5  110.7   # C-C-H (sp3)
angle_coeff 5    40.0  120.0   # C-C-H (sp2)

#  - -
angle_coeff 6    33.0  106.4   # H-C-H (sp3   )
angle_coeff 7   33.0  107.8   # H-C-H (sp3  )
angle_coeff 8    35.0  120.0   # H-C-H (sp2)

#  - -
angle_coeff 9  60.0  109.5   # C-O-C ( )
angle_coeff 10  60.0  124.0   # C-O-C ( )

#  - -
angle_coeff 11   80.0  123.0   # O-C=O (  )
angle_coeff 12  80.0  120.4   # O-C-O ( )

#  - -
angle_coeff 13        50.0  109.5   # C-C-O

#  - -
angle_coeff 14        50.0  109.5   # C-O-H ( )

#  - -
angle_coeff 15        50.0  109.5   # C-N-C ( )
angle_coeff 16  50.0  120.0   # C-N-C (  )

#  - -    (PF6)
angle_coeff 17        80.0   90.0   # F-P-F (     )
angle_coeff 18    80.0  180.0   # F-P-F (  )
#  - - -

#  - - -

#  - - -

#  - - -

#  - - -

#  - - -

#  - - =
#

#
pair_coeff 31 31 0.00034 2.126

# Switch to soft potential with small cutoff (2.5A)
# A=1000: strong repulsive force (max 2*A/rc = 800 at r=0)
# Only acts on pairs < 2.5A, preserving properly packed structure
pair_style      soft 2.5
pair_coeff      * * 1000.0

# Neighbor list settings
neighbor        2.0 bin
neigh_modify    every 1 delay 0 check yes

# Thermodynamic output
thermo          100
thermo_style    custom step temp pe ke etotal press vol

# SD minimization (Steepest Descent - robust for high-energy starts)
min_style       sd
minimize        1e-06 0.0001 5000 5000
Generated 0 of 465 mixed pair_coeff terms from geometric mixing rule
WARNING: Dihedrals are defined but no dihedral style is set (../force.cpp:202)
WARNING: Likewise 1-4 special neighbor interactions != 1.0 (../force.cpp:204)
Neighbor list info ...
  update every 1 steps, delay 0 steps, check yes
  max neighbors/atom: 2000, page size: 100000
  master list distance cutoff = 4.5
  ghost atom cutoff = 4.5
  binsize = 2.25, bins = 9 9 9
  1 neighbor lists, perpetual/occasional/extra = 1 0 0
  (1) pair soft, perpetual
      attributes: half, newton on
      pair build: half/bin/newton
      stencil: half/bin/3d
      bin: standard
WARNING: Communication cutoff 4.5 is shorter than a bond length based estimate of 4.715. This may lead to errors. (../comm.cpp:727)
Per MPI rank memory allocation (min/avg/max) = 13.31 | 13.31 | 13.31 Mbytes
   Step          Temp          PotEng         KinEng         TotEng         Press          Volume    
         0   0              193129.98      0              193129.98      2076865.5      8000         
       100   0              1696.7166      0              1696.7166      106504.72      8000         
       200   0              995.20167      0              995.20167      67716.632      8000         
       300   0              711.22973      0              711.22973      50742.666      8000         
       400   0              548.60408      0              548.60408      40464.152      8000         
       500   0              442.63892      0              442.63892      32019.89       8000         
       600   0              376.62314      0              376.62314      26164.464      8000         
       700   0              333.59728      0              333.59728      21641.513      8000         
       800   0              305.31012      0              305.31012      18154.175      8000         
       900   0              285.76102      0              285.76102      15856.835      8000         
      1000   0              268.49814      0              268.49814      14420.934      8000         
      1100   0              250.70458      0              250.70458      13378.384      8000         
      1200   0              239.005        0              239.005        11934.862      8000         
      1264   0              234.03725      0              234.03725      11197.595      8000         
Loop time of 0.243149 on 1 procs for 1264 steps with 770 atoms

98.6% CPU use with 1 MPI tasks x no OpenMP threads

Minimization stats:
  Stopping criterion = energy tolerance
  Energy initial, next-to-last, final = 
      193129.981249835   234.037454101981   234.037253538015
  Force two-norm initial, final = 33818.174 42.991863
  Force max component initial, final = 4452.3862 17.808412
  Final line search alpha, max atom move = 0.0087829138 0.15640975
  Iterations, force evaluations = 1264 2498

MPI task timing breakdown:
Section |  min time  |  avg time  |  max time  |%varavg| %total
---------------------------------------------------------------
Pair    | 0.1118     | 0.1118     | 0.1118     |   0.0 | 45.98
Bond    | 0.10105    | 0.10105    | 0.10105    |   0.0 | 41.56
Neigh   | 0.0035477  | 0.0035477  | 0.0035477  |   0.0 |  1.46
Comm    | 0.0084668  | 0.0084668  | 0.0084668  |   0.0 |  3.48
Output  | 0.0019978  | 0.0019978  | 0.0019978  |   0.0 |  0.82
Modify  | 0          | 0          | 0          |   0.0 |  0.00
Other   |            | 0.01629    |            |       |  6.70

Nlocal:            770 ave         770 max         770 min
Histogram: 1 0 0 0 0 0 0 0 0 0
Nghost:           1416 ave        1416 max        1416 min
Histogram: 1 0 0 0 0 0 0 0 0 0
Neighs:          12036 ave       12036 max       12036 min
Histogram: 1 0 0 0 0 0 0 0 0 0

Total # of neighbors = 12036
Ave neighs/atom = 15.631169
Ave special neighs/atom = 6.7376623
Neighbor list builds = 4
Dangerous builds = 0

# Write final minimized configuration
write_data      minimized.data nocoeff
System init for write_data ...
Generated 0 of 465 mixed pair_coeff terms from geometric mixing rule
WARNING: Dihedrals are defined but no dihedral style is set (../force.cpp:202)
WARNING: Likewise 1-4 special neighbor interactions != 1.0 (../force.cpp:204)
WARNING: Communication cutoff 4.5 is shorter than a bond length based estimate of 4.715. This may lead to errors. (../comm.cpp:727)
Total wall time: 0:00:00
LAMMPS (23 Jun 2022 - Update 4)
# =============================================================================
# LAMMPS Equilibrium Input Script (Gradual LJ Transition via NVE/limit)
# Generated by Jinja2 template engine
# Generation time: 2026-07-10T21:29:09.574263100
# Job ID: 1380001
# =============================================================================
#
# Six-phase gradual relaxation strategy:
#   Phase 0: NVE/limit with real LJ (cutoff=4.0A) and tiny timestep.
#            After soft potential minimization, atoms are at safe distances
#            (>= ~2.5A). NVE/limit with small displacement limit (0.02A)
#            safely transitions to real LJ dynamics without energy explosions.
#   Phase 1: NVE/limit with cutoff=5.0A.
#   Phase 2: NVE/limit with cutoff=6.0A.
#   Phase 3: NVE/limit with full cutoff=8.0A.
#   Phase 4: NVT thermostat at target temperature.
#   Phase 5: NPT barostat at target pressure.
#
# CRITICAL FIX (v4):
#   v3 used CG minimization for the LJ transition (Phase 0), which failed
#   because CG can make large steps that cause atoms to overlap.
#   v4 uses NVE/limit which limits displacement per step, preventing
#   energy explosions even if some close contacts remain.
#
# Why NVE/limit instead of CG minimization:
#   - CG minimization uses line search, which can fail (alpha=0) when forces
#     are extreme, leaving the structure unrelaxed.
#   - NVE/limit simply limits displacement per step, always making progress.
#   - NVE/limit is faster (no line search) and more robust.

# Initialization settings
units           real
atom_style      full
dimension       3
boundary        p p p

# Force field styles
bond_style      harmonic
angle_style     harmonic
dihedral_style  none
improper_style  none

# Start with real LJ at small cutoff=4.0A for safe transition
pair_style      lj/cut/coul/cut 4.0 4.0
special_bonds   lj 0.0 0.0 0.5 coul 0.0 0.0 0.5
kspace_style    none

# Read the FINAL minimized configuration (from minimization step 3)
read_data       minimized.data
Reading data file ...
  orthogonal box = (0 0 0) to (20 20 20)
  1 by 1 by 1 MPI processor grid
  reading atoms ...
  770 atoms
  reading velocities ...
  770 velocities
  scanning bonds ...
  6 = max bonds/atom
  scanning angles ...
  15 = max angles/atom
  scanning dihedrals ...
  3 = max dihedrals/atom
  reading bonds ...
  715 bonds
  reading angles ...
  1087 angles
  reading dihedrals ...
  455 dihedrals
Finding 1-2 1-3 1-4 neighbors ...
  special bond factors lj:    0        0        0.5     
  special bond factors coul:  0        0        0.5     
     6 = max # of 1-2 neighbors
     5 = max # of 1-3 neighbors
     9 = max # of 1-4 neighbors
    11 = max # of special neighbors
  special bonds CPU = 0.000 seconds
  read_data CPU = 0.028 seconds

# Include force field parameters (bond_coeff, angle_coeff, pair_coeff)
include         system.in.settings
pair_coeff 1 1 0.066 3.50
pair_coeff 2 2 0.066 3.50
pair_coeff 3 3 0.066 3.50
pair_coeff 4 4 0.066 3.50
pair_coeff 5 5 0.070 3.55
pair_coeff 6 6 0.070 3.55
pair_coeff 7 7 0.070 3.55
pair_coeff 8 8 0.070 3.55
pair_coeff 9 9 0.105 3.75
pair_coeff 10 10 0.105 3.75
pair_coeff 11 11 0.030 2.50
pair_coeff 12 12 0.030 2.50
pair_coeff 13 13 0.030 2.50
pair_coeff 14 14 0.030 2.42
pair_coeff 15 15 0.030 2.50
pair_coeff 16 16 0.030 2.50
pair_coeff 17 17 0.030 2.50
pair_coeff 18 18 0.170 3.00
pair_coeff 19 19 0.170 3.00
pair_coeff 20 20 0.170 2.96
pair_coeff 21 21 0.170 3.00
pair_coeff 22 22 0.170 3.25
pair_coeff 23 23 0.170 3.25
pair_coeff 24 24 0.170 3.25
pair_coeff 25 25 0.170 3.25
pair_coeff 26 26 0.255 2.95
pair_coeff 27 27 0.200 3.70
pair_coeff 28 28 0.0025 1.506
pair_coeff 29 29 0.250 3.55
pair_coeff 30 30 0.250 3.55
#  -
bond_coeff 1  268.0  1.529   # C-C   (sp3-sp3)
bond_coeff 2  414.0  1.330   # C=C   (sp2-sp2)
bond_coeff 3 320.0  1.400   #   C-C

#  -
bond_coeff 4     340.0  1.090   # C-H  (sp3 )
bond_coeff 5     340.0  1.080   # C-H  (sp2 )
bond_coeff 6    340.0  1.080   # C-H  (   )

#  -
bond_coeff 7  320.0  1.410   # C-O   (   )
bond_coeff 8  570.0  1.229   # C=O   (  )
bond_coeff 9    320.0  1.360   # C-O  (  )

#  -
bond_coeff 10  300.0  1.470   # C-N   ( )
bond_coeff 11  440.0  1.270   # C=N   (  )
bond_coeff 12   350.0  1.340   # C-N  (  )

#  -
bond_coeff 13         340.0  0.960   # O-H  (    )

#  -
bond_coeff 14         340.0  1.010   # N-H  ( )

#  -   (PF6)
bond_coeff 15         420.0  1.560   # P-F  (     )

#  -
bond_coeff 16         200.0  1.810   # S-C  (  )

#  -
bond_coeff 17         300.0  1.430   # S-O  (   )
#  - -
angle_coeff 1    50.0  109.5   # C-C-C (sp3)
angle_coeff 2    80.0  120.0   # C-C-C (sp2)
angle_coeff 3   60.0  120.0   # C-C-C (  )

#  - -
angle_coeff 4    37.5  110.7   # C-C-H (sp3)
angle_coeff 5    40.0  120.0   # C-C-H (sp2)

#  - -
angle_coeff 6    33.0  106.4   # H-C-H (sp3   )
angle_coeff 7   33.0  107.8   # H-C-H (sp3  )
angle_coeff 8    35.0  120.0   # H-C-H (sp2)

#  - -
angle_coeff 9  60.0  109.5   # C-O-C ( )
angle_coeff 10  60.0  124.0   # C-O-C ( )

#  - -
angle_coeff 11   80.0  123.0   # O-C=O (  )
angle_coeff 12  80.0  120.4   # O-C-O ( )

#  - -
angle_coeff 13        50.0  109.5   # C-C-O

#  - -
angle_coeff 14        50.0  109.5   # C-O-H ( )

#  - -
angle_coeff 15        50.0  109.5   # C-N-C ( )
angle_coeff 16  50.0  120.0   # C-N-C (  )

#  - -    (PF6)
angle_coeff 17        80.0   90.0   # F-P-F (     )
angle_coeff 18    80.0  180.0   # F-P-F (  )
#  - - -

#  - - -

#  - - -

#  - - -

#  - - -

#  - - -

#  - - =
#

#
pair_coeff 31 31 0.00034 2.126

# Neighbor list settings
neighbor        2.0 bin
neigh_modify    every 1 delay 0 check yes

# Thermodynamic output
thermo          100
thermo_style    custom step temp pe ke etotal press vol density

# =============================================================================
# Phase 0: NVE/limit with real LJ (cutoff=4.0A)
# Very small timestep (0.05 fs) and strict displacement limit (0.02 A).
# This safely transitions from soft potential to real LJ dynamics.
# =============================================================================
timestep        0.05
fix             nve_limit all nve/limit 0.02
run             500
Generated 465 of 465 mixed pair_coeff terms from geometric mixing rule
WARNING: Dihedrals are defined but no dihedral style is set (../force.cpp:202)
WARNING: Likewise 1-4 special neighbor interactions != 1.0 (../force.cpp:204)
Neighbor list info ...
  update every 1 steps, delay 0 steps, check yes
  max neighbors/atom: 2000, page size: 100000
  master list distance cutoff = 6
  ghost atom cutoff = 6
  binsize = 3, bins = 7 7 7
  1 neighbor lists, perpetual/occasional/extra = 1 0 0
  (1) pair lj/cut/coul/cut, perpetual
      attributes: half, newton on
      pair build: half/bin/newton
      stencil: half/bin/3d
      bin: standard
Per MPI rank memory allocation (min/avg/max) = 12.23 | 12.23 | 12.23 Mbytes
   Step          Temp          PotEng         KinEng         TotEng         Press          Volume        Density    
         0   0             -1543.9311      0             -1543.9311      55843.904      8000           1.3463241    
       100   65.189179     -1681.0229      149.42943     -1531.5934      55089.141      8000           1.3463241    
       200   147.05949     -1704.8668      337.09609     -1367.7707      53087.325      8000           1.3463241    
       300   195.0599      -1746.622       447.12469     -1299.4974      51238.788      8000           1.3463241    
       400   229.96476     -1629.5986      527.13511     -1102.4635      46560.486      8000           1.3463241    
       500   275.02061     -1855.6562      630.41404     -1225.2421      39999.092      8000           1.3463241    
Loop time of 0.100053 on 1 procs for 500 steps with 770 atoms

Performance: 21.589 ns/day, 1.112 hours/ns, 4997.349 timesteps/s
100.0% CPU use with 1 MPI tasks x no OpenMP threads

MPI task timing breakdown:
Section |  min time  |  avg time  |  max time  |%varavg| %total
---------------------------------------------------------------
Pair    | 0.077152   | 0.077152   | 0.077152   |   0.0 | 77.11
Bond    | 0.017002   | 0.017002   | 0.017002   |   0.0 | 16.99
Neigh   | 0          | 0          | 0          |   0.0 |  0.00
Comm    | 0.0026476  | 0.0026476  | 0.0026476  |   0.0 |  2.65
Output  | 0.00010594 | 0.00010594 | 0.00010594 |   0.0 |  0.11
Modify  | 0.0020894  | 0.0020894  | 0.0020894  |   0.0 |  2.09
Other   |            | 0.001056   |            |       |  1.06

Nlocal:            770 ave         770 max         770 min
Histogram: 1 0 0 0 0 0 0 0 0 0
Nghost:           2222 ave        2222 max        2222 min
Histogram: 1 0 0 0 0 0 0 0 0 0
Neighs:          31637 ave       31637 max       31637 min
Histogram: 1 0 0 0 0 0 0 0 0 0

Total # of neighbors = 31637
Ave neighs/atom = 41.087013
Ave special neighs/atom = 6.7376623
Neighbor list builds = 0
Dangerous builds = 0
unfix           nve_limit

# =============================================================================
# Phase 1: NVE/limit with cutoff=5.0A
# =============================================================================
pair_style      lj/cut/coul/cut 5.0 5.0
include         system.in.settings
pair_coeff 1 1 0.066 3.50
pair_coeff 2 2 0.066 3.50
pair_coeff 3 3 0.066 3.50
pair_coeff 4 4 0.066 3.50
pair_coeff 5 5 0.070 3.55
pair_coeff 6 6 0.070 3.55
pair_coeff 7 7 0.070 3.55
pair_coeff 8 8 0.070 3.55
pair_coeff 9 9 0.105 3.75
pair_coeff 10 10 0.105 3.75
pair_coeff 11 11 0.030 2.50
pair_coeff 12 12 0.030 2.50
pair_coeff 13 13 0.030 2.50
pair_coeff 14 14 0.030 2.42
pair_coeff 15 15 0.030 2.50
pair_coeff 16 16 0.030 2.50
pair_coeff 17 17 0.030 2.50
pair_coeff 18 18 0.170 3.00
pair_coeff 19 19 0.170 3.00
pair_coeff 20 20 0.170 2.96
pair_coeff 21 21 0.170 3.00
pair_coeff 22 22 0.170 3.25
pair_coeff 23 23 0.170 3.25
pair_coeff 24 24 0.170 3.25
pair_coeff 25 25 0.170 3.25
pair_coeff 26 26 0.255 2.95
pair_coeff 27 27 0.200 3.70
pair_coeff 28 28 0.0025 1.506
pair_coeff 29 29 0.250 3.55
pair_coeff 30 30 0.250 3.55
#  -
bond_coeff 1  268.0  1.529   # C-C   (sp3-sp3)
bond_coeff 2  414.0  1.330   # C=C   (sp2-sp2)
bond_coeff 3 320.0  1.400   #   C-C

#  -
bond_coeff 4     340.0  1.090   # C-H  (sp3 )
bond_coeff 5     340.0  1.080   # C-H  (sp2 )
bond_coeff 6    340.0  1.080   # C-H  (   )

#  -
bond_coeff 7  320.0  1.410   # C-O   (   )
bond_coeff 8  570.0  1.229   # C=O   (  )
bond_coeff 9    320.0  1.360   # C-O  (  )

#  -
bond_coeff 10  300.0  1.470   # C-N   ( )
bond_coeff 11  440.0  1.270   # C=N   (  )
bond_coeff 12   350.0  1.340   # C-N  (  )

#  -
bond_coeff 13         340.0  0.960   # O-H  (    )

#  -
bond_coeff 14         340.0  1.010   # N-H  ( )

#  -   (PF6)
bond_coeff 15         420.0  1.560   # P-F  (     )

#  -
bond_coeff 16         200.0  1.810   # S-C  (  )

#  -
bond_coeff 17         300.0  1.430   # S-O  (   )
#  - -
angle_coeff 1    50.0  109.5   # C-C-C (sp3)
angle_coeff 2    80.0  120.0   # C-C-C (sp2)
angle_coeff 3   60.0  120.0   # C-C-C (  )

#  - -
angle_coeff 4    37.5  110.7   # C-C-H (sp3)
angle_coeff 5    40.0  120.0   # C-C-H (sp2)

#  - -
angle_coeff 6    33.0  106.4   # H-C-H (sp3   )
angle_coeff 7   33.0  107.8   # H-C-H (sp3  )
angle_coeff 8    35.0  120.0   # H-C-H (sp2)

#  - -
angle_coeff 9  60.0  109.5   # C-O-C ( )
angle_coeff 10  60.0  124.0   # C-O-C ( )

#  - -
angle_coeff 11   80.0  123.0   # O-C=O (  )
angle_coeff 12  80.0  120.4   # O-C-O ( )

#  - -
angle_coeff 13        50.0  109.5   # C-C-O

#  - -
angle_coeff 14        50.0  109.5   # C-O-H ( )

#  - -
angle_coeff 15        50.0  109.5   # C-N-C ( )
angle_coeff 16  50.0  120.0   # C-N-C (  )

#  - -    (PF6)
angle_coeff 17        80.0   90.0   # F-P-F (     )
angle_coeff 18    80.0  180.0   # F-P-F (  )
#  - - -

#  - - -

#  - - -

#  - - -

#  - - -

#  - - -

#  - - =
#

#
pair_coeff 31 31 0.00034 2.126
neighbor        2.0 bin
neigh_modify    every 1 delay 0 check yes
timestep        0.1
fix             nve_limit all nve/limit 0.05
run             500
Generated 465 of 465 mixed pair_coeff terms from geometric mixing rule
WARNING: Dihedrals are defined but no dihedral style is set (../force.cpp:202)
WARNING: Likewise 1-4 special neighbor interactions != 1.0 (../force.cpp:204)
Per MPI rank memory allocation (min/avg/max) = 12.24 | 12.24 | 12.24 Mbytes
   Step          Temp          PotEng         KinEng         TotEng         Press          Volume        Density    
       500   275.02061     -783.87421      630.41404     -153.46016      40271.928      8000           1.3463241    
       600   327.69142     -1087.665       751.14833     -336.51672      28700.97       8000           1.3463241    
       700   385.37038     -1338.7284      883.36252     -455.36585      32331.173      8000           1.3463241    
       800   434.16778     -1552.8935      995.21802     -557.6755       41713.335      8000           1.3463241    
       900   432.44768     -1533.2591      991.27513     -541.98393      42623.386      8000           1.3463241    
      1000   454.20803     -1427.3052      1041.1551     -386.15008      36306.681      8000           1.3463241    
Loop time of 0.187024 on 1 procs for 500 steps with 770 atoms

Performance: 23.099 ns/day, 1.039 hours/ns, 2673.453 timesteps/s
99.3% CPU use with 1 MPI tasks x no OpenMP threads

MPI task timing breakdown:
Section |  min time  |  avg time  |  max time  |%varavg| %total
---------------------------------------------------------------
Pair    | 0.15684    | 0.15684    | 0.15684    |   0.0 | 83.86
Bond    | 0.017606   | 0.017606   | 0.017606   |   0.0 |  9.41
Neigh   | 0.0045282  | 0.0045282  | 0.0045282  |   0.0 |  2.42
Comm    | 0.0033929  | 0.0033929  | 0.0033929  |   0.0 |  1.81
Output  | 0.001391   | 0.001391   | 0.001391   |   0.0 |  0.74
Modify  | 0.0019523  | 0.0019523  | 0.0019523  |   0.0 |  1.04
Other   |            | 0.001318   |            |       |  0.70

Nlocal:            770 ave         770 max         770 min
Histogram: 1 0 0 0 0 0 0 0 0 0
Nghost:           2942 ave        2942 max        2942 min
Histogram: 1 0 0 0 0 0 0 0 0 0
Neighs:          51254 ave       51254 max       51254 min
Histogram: 1 0 0 0 0 0 0 0 0 0

Total # of neighbors = 51254
Ave neighs/atom = 66.563636
Ave special neighs/atom = 6.7376623
Neighbor list builds = 3
Dangerous builds = 0
unfix           nve_limit

# =============================================================================
# Phase 2: NVE/limit with cutoff=6.0A
# =============================================================================
pair_style      lj/cut/coul/cut 6.0 6.0
include         system.in.settings
pair_coeff 1 1 0.066 3.50
pair_coeff 2 2 0.066 3.50
pair_coeff 3 3 0.066 3.50
pair_coeff 4 4 0.066 3.50
pair_coeff 5 5 0.070 3.55
pair_coeff 6 6 0.070 3.55
pair_coeff 7 7 0.070 3.55
pair_coeff 8 8 0.070 3.55
pair_coeff 9 9 0.105 3.75
pair_coeff 10 10 0.105 3.75
pair_coeff 11 11 0.030 2.50
pair_coeff 12 12 0.030 2.50
pair_coeff 13 13 0.030 2.50
pair_coeff 14 14 0.030 2.42
pair_coeff 15 15 0.030 2.50
pair_coeff 16 16 0.030 2.50
pair_coeff 17 17 0.030 2.50
pair_coeff 18 18 0.170 3.00
pair_coeff 19 19 0.170 3.00
pair_coeff 20 20 0.170 2.96
pair_coeff 21 21 0.170 3.00
pair_coeff 22 22 0.170 3.25
pair_coeff 23 23 0.170 3.25
pair_coeff 24 24 0.170 3.25
pair_coeff 25 25 0.170 3.25
pair_coeff 26 26 0.255 2.95
pair_coeff 27 27 0.200 3.70
pair_coeff 28 28 0.0025 1.506
pair_coeff 29 29 0.250 3.55
pair_coeff 30 30 0.250 3.55
#  -
bond_coeff 1  268.0  1.529   # C-C   (sp3-sp3)
bond_coeff 2  414.0  1.330   # C=C   (sp2-sp2)
bond_coeff 3 320.0  1.400   #   C-C

#  -
bond_coeff 4     340.0  1.090   # C-H  (sp3 )
bond_coeff 5     340.0  1.080   # C-H  (sp2 )
bond_coeff 6    340.0  1.080   # C-H  (   )

#  -
bond_coeff 7  320.0  1.410   # C-O   (   )
bond_coeff 8  570.0  1.229   # C=O   (  )
bond_coeff 9    320.0  1.360   # C-O  (  )

#  -
bond_coeff 10  300.0  1.470   # C-N   ( )
bond_coeff 11  440.0  1.270   # C=N   (  )
bond_coeff 12   350.0  1.340   # C-N  (  )

#  -
bond_coeff 13         340.0  0.960   # O-H  (    )

#  -
bond_coeff 14         340.0  1.010   # N-H  ( )

#  -   (PF6)
bond_coeff 15         420.0  1.560   # P-F  (     )

#  -
bond_coeff 16         200.0  1.810   # S-C  (  )

#  -
bond_coeff 17         300.0  1.430   # S-O  (   )
#  - -
angle_coeff 1    50.0  109.5   # C-C-C (sp3)
angle_coeff 2    80.0  120.0   # C-C-C (sp2)
angle_coeff 3   60.0  120.0   # C-C-C (  )

#  - -
angle_coeff 4    37.5  110.7   # C-C-H (sp3)
angle_coeff 5    40.0  120.0   # C-C-H (sp2)

#  - -
angle_coeff 6    33.0  106.4   # H-C-H (sp3   )
angle_coeff 7   33.0  107.8   # H-C-H (sp3  )
angle_coeff 8    35.0  120.0   # H-C-H (sp2)

#  - -
angle_coeff 9  60.0  109.5   # C-O-C ( )
angle_coeff 10  60.0  124.0   # C-O-C ( )

#  - -
angle_coeff 11   80.0  123.0   # O-C=O (  )
angle_coeff 12  80.0  120.4   # O-C-O ( )

#  - -
angle_coeff 13        50.0  109.5   # C-C-O

#  - -
angle_coeff 14        50.0  109.5   # C-O-H ( )

#  - -
angle_coeff 15        50.0  109.5   # C-N-C ( )
angle_coeff 16  50.0  120.0   # C-N-C (  )

#  - -    (PF6)
angle_coeff 17        80.0   90.0   # F-P-F (     )
angle_coeff 18    80.0  180.0   # F-P-F (  )
#  - - -

#  - - -

#  - - -

#  - - -

#  - - -

#  - - -

#  - - =
#

#
pair_coeff 31 31 0.00034 2.126
neighbor        2.0 bin
neigh_modify    every 1 delay 0 check yes
fix             nve_limit all nve/limit 0.1
run             500
Generated 465 of 465 mixed pair_coeff terms from geometric mixing rule
WARNING: Dihedrals are defined but no dihedral style is set (../force.cpp:202)
WARNING: Likewise 1-4 special neighbor interactions != 1.0 (../force.cpp:204)
Per MPI rank memory allocation (min/avg/max) = 12.33 | 12.33 | 12.33 Mbytes
   Step          Temp          PotEng         KinEng         TotEng         Press          Volume        Density    
      1000   454.20803     -1463.7294      1041.1551     -422.57422      34525.209      8000           1.3463241    
      1100   475.54911     -1702.3961      1090.0741     -612.322        30167.184      8000           1.3463241    
      1200   504.29975     -1732.2778      1155.9775     -576.30026      32926.246      8000           1.3463241    
      1300   507.84284     -1875.28        1164.0992     -711.18085      32476.417      8000           1.3463241    
      1400   528.02805     -2067.1162      1210.3686     -856.74758      29019.75       8000           1.3463241    
      1500   536.19456     -2130.9685      1229.0882     -901.88033      28003.542      8000           1.3463241    
Loop time of 0.273383 on 1 procs for 500 steps with 770 atoms

Performance: 15.802 ns/day, 1.519 hours/ns, 1828.937 timesteps/s
99.4% CPU use with 1 MPI tasks x no OpenMP threads

MPI task timing breakdown:
Section |  min time  |  avg time  |  max time  |%varavg| %total
---------------------------------------------------------------
Pair    | 0.2419     | 0.2419     | 0.2419     |   0.0 | 88.48
Bond    | 0.01712    | 0.01712    | 0.01712    |   0.0 |  6.26
Neigh   | 0.0050497  | 0.0050497  | 0.0050497  |   0.0 |  1.85
Comm    | 0.0040736  | 0.0040736  | 0.0040736  |   0.0 |  1.49
Output  | 0.001727   | 0.001727   | 0.001727   |   0.0 |  0.63
Modify  | 0.0020859  | 0.0020859  | 0.0020859  |   0.0 |  0.76
Other   |            | 0.001426   |            |       |  0.52

Nlocal:            770 ave         770 max         770 min
Histogram: 1 0 0 0 0 0 0 0 0 0
Nghost:           3654 ave        3654 max        3654 min
Histogram: 1 0 0 0 0 0 0 0 0 0
Neighs:          77521 ave       77521 max       77521 min
Histogram: 1 0 0 0 0 0 0 0 0 0

Total # of neighbors = 77521
Ave neighs/atom = 100.67662
Ave special neighs/atom = 6.7376623
Neighbor list builds = 3
Dangerous builds = 0
unfix           nve_limit

# =============================================================================
# Phase 3: NVE/limit with full cutoff=8.0A
# =============================================================================
pair_style      lj/cut/coul/cut 8.0 8.0
include         system.in.settings
pair_coeff 1 1 0.066 3.50
pair_coeff 2 2 0.066 3.50
pair_coeff 3 3 0.066 3.50
pair_coeff 4 4 0.066 3.50
pair_coeff 5 5 0.070 3.55
pair_coeff 6 6 0.070 3.55
pair_coeff 7 7 0.070 3.55
pair_coeff 8 8 0.070 3.55
pair_coeff 9 9 0.105 3.75
pair_coeff 10 10 0.105 3.75
pair_coeff 11 11 0.030 2.50
pair_coeff 12 12 0.030 2.50
pair_coeff 13 13 0.030 2.50
pair_coeff 14 14 0.030 2.42
pair_coeff 15 15 0.030 2.50
pair_coeff 16 16 0.030 2.50
pair_coeff 17 17 0.030 2.50
pair_coeff 18 18 0.170 3.00
pair_coeff 19 19 0.170 3.00
pair_coeff 20 20 0.170 2.96
pair_coeff 21 21 0.170 3.00
pair_coeff 22 22 0.170 3.25
pair_coeff 23 23 0.170 3.25
pair_coeff 24 24 0.170 3.25
pair_coeff 25 25 0.170 3.25
pair_coeff 26 26 0.255 2.95
pair_coeff 27 27 0.200 3.70
pair_coeff 28 28 0.0025 1.506
pair_coeff 29 29 0.250 3.55
pair_coeff 30 30 0.250 3.55
#  -
bond_coeff 1  268.0  1.529   # C-C   (sp3-sp3)
bond_coeff 2  414.0  1.330   # C=C   (sp2-sp2)
bond_coeff 3 320.0  1.400   #   C-C

#  -
bond_coeff 4     340.0  1.090   # C-H  (sp3 )
bond_coeff 5     340.0  1.080   # C-H  (sp2 )
bond_coeff 6    340.0  1.080   # C-H  (   )

#  -
bond_coeff 7  320.0  1.410   # C-O   (   )
bond_coeff 8  570.0  1.229   # C=O   (  )
bond_coeff 9    320.0  1.360   # C-O  (  )

#  -
bond_coeff 10  300.0  1.470   # C-N   ( )
bond_coeff 11  440.0  1.270   # C=N   (  )
bond_coeff 12   350.0  1.340   # C-N  (  )

#  -
bond_coeff 13         340.0  0.960   # O-H  (    )

#  -
bond_coeff 14         340.0  1.010   # N-H  ( )

#  -   (PF6)
bond_coeff 15         420.0  1.560   # P-F  (     )

#  -
bond_coeff 16         200.0  1.810   # S-C  (  )

#  -
bond_coeff 17         300.0  1.430   # S-O  (   )
#  - -
angle_coeff 1    50.0  109.5   # C-C-C (sp3)
angle_coeff 2    80.0  120.0   # C-C-C (sp2)
angle_coeff 3   60.0  120.0   # C-C-C (  )

#  - -
angle_coeff 4    37.5  110.7   # C-C-H (sp3)
angle_coeff 5    40.0  120.0   # C-C-H (sp2)

#  - -
angle_coeff 6    33.0  106.4   # H-C-H (sp3   )
angle_coeff 7   33.0  107.8   # H-C-H (sp3  )
angle_coeff 8    35.0  120.0   # H-C-H (sp2)

#  - -
angle_coeff 9  60.0  109.5   # C-O-C ( )
angle_coeff 10  60.0  124.0   # C-O-C ( )

#  - -
angle_coeff 11   80.0  123.0   # O-C=O (  )
angle_coeff 12  80.0  120.4   # O-C-O ( )

#  - -
angle_coeff 13        50.0  109.5   # C-C-O

#  - -
angle_coeff 14        50.0  109.5   # C-O-H ( )

#  - -
angle_coeff 15        50.0  109.5   # C-N-C ( )
angle_coeff 16  50.0  120.0   # C-N-C (  )

#  - -    (PF6)
angle_coeff 17        80.0   90.0   # F-P-F (     )
angle_coeff 18    80.0  180.0   # F-P-F (  )
#  - - -

#  - - -

#  - - -

#  - - -

#  - - -

#  - - -

#  - - =
#

#
pair_coeff 31 31 0.00034 2.126
neighbor        2.0 bin
neigh_modify    every 1 delay 0 check yes
timestep        0.25
fix             nve_limit all nve/limit 0.2
run             500
Generated 465 of 465 mixed pair_coeff terms from geometric mixing rule
WARNING: Dihedrals are defined but no dihedral style is set (../force.cpp:202)
WARNING: Likewise 1-4 special neighbor interactions != 1.0 (../force.cpp:204)
Per MPI rank memory allocation (min/avg/max) = 12.84 | 12.84 | 12.84 Mbytes
   Step          Temp          PotEng         KinEng         TotEng         Press          Volume        Density    
      1500   536.19456     -2127.9643      1229.0882     -898.87608      26607.867      8000           1.3463241    
      1600   546.53345     -2027.9475      1252.7874     -775.1601       31838.432      8000           1.3463241    
      1700   570.16901     -2293.3483      1306.9659     -986.38247      28964.073      8000           1.3463241    
      1800   584.37551     -2120.5011      1339.5306     -780.97042      32272.891      8000           1.3463241    
      1900   580.20697     -2028.3173      1329.9753     -698.34198      29555.99       8000           1.3463241    
      2000   592.33895     -2283.552       1357.7848     -925.76724      28717.415      8000           1.3463241    
Loop time of 0.552843 on 1 procs for 500 steps with 770 atoms

Performance: 19.535 ns/day, 1.229 hours/ns, 904.415 timesteps/s
99.7% CPU use with 1 MPI tasks x no OpenMP threads

MPI task timing breakdown:
Section |  min time  |  avg time  |  max time  |%varavg| %total
---------------------------------------------------------------
Pair    | 0.50316    | 0.50316    | 0.50316    |   0.0 | 91.01
Bond    | 0.01791    | 0.01791    | 0.01791    |   0.0 |  3.24
Neigh   | 0.019443   | 0.019443   | 0.019443   |   0.0 |  3.52
Comm    | 0.0067589  | 0.0067589  | 0.0067589  |   0.0 |  1.22
Output  | 0.0016237  | 0.0016237  | 0.0016237  |   0.0 |  0.29
Modify  | 0.0019632  | 0.0019632  | 0.0019632  |   0.0 |  0.36
Other   |            | 0.001983   |            |       |  0.36

Nlocal:            770 ave         770 max         770 min
Histogram: 1 0 0 0 0 0 0 0 0 0
Nghost:           5390 ave        5390 max        5390 min
Histogram: 1 0 0 0 0 0 0 0 0 0
Neighs:         153088 ave      153088 max      153088 min
Histogram: 1 0 0 0 0 0 0 0 0 0

Total # of neighbors = 153088
Ave neighs/atom = 198.81558
Ave special neighs/atom = 6.7376623
Neighbor list builds = 7
Dangerous builds = 0
unfix           nve_limit

# =============================================================================
# Phase 4: NVT equilibration
# =============================================================================
velocity        all create 353.0 62714 dist gaussian
fix             nvt all nvt temp 353.0 353.0 100.0
timestep        1.0

# Trajectory output
dump            1 all custom 50 dump.equilibrium.lammpstrj id mol type x y z vx vy vz

run             500
Generated 465 of 465 mixed pair_coeff terms from geometric mixing rule
WARNING: Dihedrals are defined but no dihedral style is set (../force.cpp:202)
WARNING: Likewise 1-4 special neighbor interactions != 1.0 (../force.cpp:204)
Per MPI rank memory allocation (min/avg/max) = 14.14 | 14.14 | 14.14 Mbytes
   Step          Temp          PotEng         KinEng         TotEng         Press          Volume        Density    
      2000   353           -2283.552       809.16175     -1474.3903      25582.564      8000           1.3463241    
      2100   431.11377     -1881.2634      988.21748     -893.04588      24118.216      8000           1.3463241    
      2200   400.9647      -1768.236       919.10849     -849.12755      16730.197      8000           1.3463241    
      2300   383.59359     -2242.886       879.28969     -1363.5963      14884.907      8000           1.3463241    
      2400   369.03369     -2205.7196      845.91486     -1359.8047      13836.747      8000           1.3463241    
      2500   358.75912     -2334.6719      822.36305     -1512.3089      15944.819      8000           1.3463241    
Loop time of 0.669576 on 1 procs for 500 steps with 770 atoms

Performance: 64.518 ns/day, 0.372 hours/ns, 746.741 timesteps/s
95.2% CPU use with 1 MPI tasks x no OpenMP threads

MPI task timing breakdown:
Section |  min time  |  avg time  |  max time  |%varavg| %total
---------------------------------------------------------------
Pair    | 0.53197    | 0.53197    | 0.53197    |   0.0 | 79.45
Bond    | 0.018848   | 0.018848   | 0.018848   |   0.0 |  2.81
Neigh   | 0.06228    | 0.06228    | 0.06228    |   0.0 |  9.30
Comm    | 0.0080631  | 0.0080631  | 0.0080631  |   0.0 |  1.20
Output  | 0.042      | 0.042      | 0.042      |   0.0 |  6.27
Modify  | 0.0043298  | 0.0043298  | 0.0043298  |   0.0 |  0.65
Other   |            | 0.002088   |            |       |  0.31

Nlocal:            770 ave         770 max         770 min
Histogram: 1 0 0 0 0 0 0 0 0 0
Nghost:           5390 ave        5390 max        5390 min
Histogram: 1 0 0 0 0 0 0 0 0 0
Neighs:         153106 ave      153106 max      153106 min
Histogram: 1 0 0 0 0 0 0 0 0 0

Total # of neighbors = 153106
Ave neighs/atom = 198.83896
Ave special neighs/atom = 6.7376623
Neighbor list builds = 21
Dangerous builds = 0
unfix           nvt

# =============================================================================
# Phase 5: NPT equilibration
# =============================================================================
fix             npt all npt temp 353.0 353.0 100.0 iso 1.0 1.0 1000.0
timestep        1.0
run             500
Generated 465 of 465 mixed pair_coeff terms from geometric mixing rule
WARNING: Dihedrals are defined but no dihedral style is set (../force.cpp:202)
WARNING: Likewise 1-4 special neighbor interactions != 1.0 (../force.cpp:204)
Per MPI rank memory allocation (min/avg/max) = 14.14 | 14.14 | 14.14 Mbytes
   Step          Temp          PotEng         KinEng         TotEng         Press          Volume        Density    
      2500   358.75912     -2334.6719      822.36305     -1512.3089      15944.819      8000           1.3463241    
      2600   337.39302     -2570.4809      773.38676     -1797.0941      5759.226       8336.0253      1.2920537    
      2700   357.12505     -3896.2446      818.61736     -3077.6273     -2519.737       8830.3237      1.2197279    
      2800   350.80574     -2926.9159      804.13197     -2122.7839     -715.10932      9056.9335      1.1892096    
      2900   356.46403     -3420.6361      817.10215     -2603.534      -3121.4173      9228.9686      1.1670418    
      3000   345.32307     -3431.6977      791.56437     -2640.1333      534.58307      9372.7729      1.1491362    
Loop time of 0.653539 on 1 procs for 500 steps with 770 atoms

Performance: 66.102 ns/day, 0.363 hours/ns, 765.065 timesteps/s
95.3% CPU use with 1 MPI tasks x no OpenMP threads

MPI task timing breakdown:
Section |  min time  |  avg time  |  max time  |%varavg| %total
---------------------------------------------------------------
Pair    | 0.51321    | 0.51321    | 0.51321    |   0.0 | 78.53
Bond    | 0.023991   | 0.023991   | 0.023991   |   0.0 |  3.67
Neigh   | 0.054512   | 0.054512   | 0.054512   |   0.0 |  8.34
Comm    | 0.0076393  | 0.0076393  | 0.0076393  |   0.0 |  1.17
Output  | 0.042409   | 0.042409   | 0.042409   |   0.0 |  6.49
Modify  | 0.0095854  | 0.0095854  | 0.0095854  |   0.0 |  1.47
Other   |            | 0.002195   |            |       |  0.34

Nlocal:            770 ave         770 max         770 min
Histogram: 1 0 0 0 0 0 0 0 0 0
Nghost:           4979 ave        4979 max        4979 min
Histogram: 1 0 0 0 0 0 0 0 0 0
Neighs:         130594 ave      130594 max      130594 min
Histogram: 1 0 0 0 0 0 0 0 0 0

Total # of neighbors = 130594
Ave neighs/atom = 169.6026
Ave special neighs/atom = 6.7376623
Neighbor list builds = 19
Dangerous builds = 0
unfix           npt

# Output equilibrated configuration
write_data      equilibrated.data
System init for write_data ...
Generated 465 of 465 mixed pair_coeff terms from geometric mixing rule
WARNING: Dihedrals are defined but no dihedral style is set (../force.cpp:202)
WARNING: Likewise 1-4 special neighbor interactions != 1.0 (../force.cpp:204)
Total wall time: 0:00:02
LAMMPS (23 Jun 2022 - Update 4)
# =============================================================================
# LAMMPS Production Simulation Input Script
# Generated by Jinja2 template engine
# Generation time: 2026-07-10T21:29:09.574263100
# Job ID: 1380001
# Target properties: density, conductivity
# =============================================================================

# Initialization settings
units           real
atom_style      full
dimension       3
boundary        p p p

# Force field styles (using cutoff Coulomb to handle non-neutral system charge)
# Note: PPPM requires charge neutrality. The current force field gives DMC
# molecules a net charge of +0.12 each, making the system non-neutral.
# Using lj/cut/coul/cut with no kspace as a workaround.
bond_style      harmonic
angle_style     harmonic
dihedral_style  none
improper_style  none
pair_style      lj/cut/coul/cut 8.0 8.0
special_bonds   lj 0.0 0.0 0.5 coul 0.0 0.0 0.5
kspace_style    none

# Read equilibrated configuration
read_data       equilibrated.data
Reading data file ...
  orthogonal box = (-0.5420734 -0.5420734 -0.5420734) to (20.542073 20.542073 20.542073)
  1 by 1 by 1 MPI processor grid
  reading atoms ...
  770 atoms
  reading velocities ...
  770 velocities
  scanning bonds ...
  6 = max bonds/atom
  scanning angles ...
  15 = max angles/atom
  scanning dihedrals ...
  3 = max dihedrals/atom
  reading bonds ...
  715 bonds
  reading angles ...
  1087 angles
  reading dihedrals ...
  455 dihedrals
Finding 1-2 1-3 1-4 neighbors ...
  special bond factors lj:    0        0        0.5     
  special bond factors coul:  0        0        0.5     
     6 = max # of 1-2 neighbors
     5 = max # of 1-3 neighbors
     9 = max # of 1-4 neighbors
    11 = max # of special neighbors
  special bonds CPU = 0.000 seconds
  read_data CPU = 0.032 seconds

# Force field parameters (PPPM auto-selects grid size)
include         system.in.settings
pair_coeff 1 1 0.066 3.50
pair_coeff 2 2 0.066 3.50
pair_coeff 3 3 0.066 3.50
pair_coeff 4 4 0.066 3.50
pair_coeff 5 5 0.070 3.55
pair_coeff 6 6 0.070 3.55
pair_coeff 7 7 0.070 3.55
pair_coeff 8 8 0.070 3.55
pair_coeff 9 9 0.105 3.75
pair_coeff 10 10 0.105 3.75
pair_coeff 11 11 0.030 2.50
pair_coeff 12 12 0.030 2.50
pair_coeff 13 13 0.030 2.50
pair_coeff 14 14 0.030 2.42
pair_coeff 15 15 0.030 2.50
pair_coeff 16 16 0.030 2.50
pair_coeff 17 17 0.030 2.50
pair_coeff 18 18 0.170 3.00
pair_coeff 19 19 0.170 3.00
pair_coeff 20 20 0.170 2.96
pair_coeff 21 21 0.170 3.00
pair_coeff 22 22 0.170 3.25
pair_coeff 23 23 0.170 3.25
pair_coeff 24 24 0.170 3.25
pair_coeff 25 25 0.170 3.25
pair_coeff 26 26 0.255 2.95
pair_coeff 27 27 0.200 3.70
pair_coeff 28 28 0.0025 1.506
pair_coeff 29 29 0.250 3.55
pair_coeff 30 30 0.250 3.55
#  -
bond_coeff 1  268.0  1.529   # C-C   (sp3-sp3)
bond_coeff 2  414.0  1.330   # C=C   (sp2-sp2)
bond_coeff 3 320.0  1.400   #   C-C

#  -
bond_coeff 4     340.0  1.090   # C-H  (sp3 )
bond_coeff 5     340.0  1.080   # C-H  (sp2 )
bond_coeff 6    340.0  1.080   # C-H  (   )

#  -
bond_coeff 7  320.0  1.410   # C-O   (   )
bond_coeff 8  570.0  1.229   # C=O   (  )
bond_coeff 9    320.0  1.360   # C-O  (  )

#  -
bond_coeff 10  300.0  1.470   # C-N   ( )
bond_coeff 11  440.0  1.270   # C=N   (  )
bond_coeff 12   350.0  1.340   # C-N  (  )

#  -
bond_coeff 13         340.0  0.960   # O-H  (    )

#  -
bond_coeff 14         340.0  1.010   # N-H  ( )

#  -   (PF6)
bond_coeff 15         420.0  1.560   # P-F  (     )

#  -
bond_coeff 16         200.0  1.810   # S-C  (  )

#  -
bond_coeff 17         300.0  1.430   # S-O  (   )
#  - -
angle_coeff 1    50.0  109.5   # C-C-C (sp3)
angle_coeff 2    80.0  120.0   # C-C-C (sp2)
angle_coeff 3   60.0  120.0   # C-C-C (  )

#  - -
angle_coeff 4    37.5  110.7   # C-C-H (sp3)
angle_coeff 5    40.0  120.0   # C-C-H (sp2)

#  - -
angle_coeff 6    33.0  106.4   # H-C-H (sp3   )
angle_coeff 7   33.0  107.8   # H-C-H (sp3  )
angle_coeff 8    35.0  120.0   # H-C-H (sp2)

#  - -
angle_coeff 9  60.0  109.5   # C-O-C ( )
angle_coeff 10  60.0  124.0   # C-O-C ( )

#  - -
angle_coeff 11   80.0  123.0   # O-C=O (  )
angle_coeff 12  80.0  120.4   # O-C-O ( )

#  - -
angle_coeff 13        50.0  109.5   # C-C-O

#  - -
angle_coeff 14        50.0  109.5   # C-O-H ( )

#  - -
angle_coeff 15        50.0  109.5   # C-N-C ( )
angle_coeff 16  50.0  120.0   # C-N-C (  )

#  - -    (PF6)
angle_coeff 17        80.0   90.0   # F-P-F (     )
angle_coeff 18    80.0  180.0   # F-P-F (  )
#  - - -

#  - - -

#  - - -

#  - - -

#  - - -

#  - - -

#  - - =
#

#
pair_coeff 31 31 0.00034 2.126

# Neighbor list settings (delay 5 to reduce overhead)
neighbor        2.0 bin
neigh_modify    every 1 delay 5 check yes

# Thermodynamic output
thermo          1000

thermo_style    custom step temp pe ke etotal press vol density


# Output thermodynamic data to thermo.out file (for post-processing analysis)
# Format: step temp pe ke etotal press vol density
variable        s_out equal step
variable        t_out equal temp
variable        pe_out equal pe
variable        ke_out equal ke
variable        et_out equal etotal
variable        pr_out equal press
variable        v_out equal vol
variable        d_out equal density
fix             thermo_out all print 1000 "${s_out} ${t_out} ${pe_out} ${ke_out} ${et_out} ${pr_out} ${v_out} ${d_out}" file thermo.out screen no

# Trajectory output (production)
dump            1 all custom 50 dump.trajectory.lammpstrj id mol type x y z vx vy vz


# Conductivity/Dielectric: output trajectory with charges
compute         charge all property/atom q
dump            2 all custom 50 dump.charge.lammpstrj id type x y z c_charge








# NPT production simulation
timestep        1.0
fix             1 all npt temp 353.0 353.0 100.0 iso 1.0 1.0 1000.0
run             1000
Generated 465 of 465 mixed pair_coeff terms from geometric mixing rule
WARNING: Dihedrals are defined but no dihedral style is set (../force.cpp:202)
WARNING: Likewise 1-4 special neighbor interactions != 1.0 (../force.cpp:204)
Neighbor list info ...
  update every 1 steps, delay 5 steps, check yes
  max neighbors/atom: 2000, page size: 100000
  master list distance cutoff = 10
  ghost atom cutoff = 10
  binsize = 5, bins = 5 5 5
  1 neighbor lists, perpetual/occasional/extra = 1 0 0
  (1) pair lj/cut/coul/cut, perpetual
      attributes: half, newton on
      pair build: half/bin/newton
      stencil: half/bin/3d
      bin: standard
Per MPI rank memory allocation (min/avg/max) = 15.5 | 15.5 | 15.5 Mbytes
   Step          Temp          PotEng         KinEng         TotEng         Press          Volume        Density    
         0   345.32307     -3431.6977      791.56437     -2640.1333      534.58307      9372.7729      1.1491362    
      1000   365.8158      -3207.5439      838.53868     -2369.0052      1090.4571      9850.9687      1.0933536    
Loop time of 1.28061 on 1 procs for 1000 steps with 770 atoms

Performance: 67.468 ns/day, 0.356 hours/ns, 780.876 timesteps/s
90.5% CPU use with 1 MPI tasks x no OpenMP threads

MPI task timing breakdown:
Section |  min time  |  avg time  |  max time  |%varavg| %total
---------------------------------------------------------------
Pair    | 0.94178    | 0.94178    | 0.94178    |   0.0 | 73.54
Bond    | 0.047496   | 0.047496   | 0.047496   |   0.0 |  3.71
Neigh   | 0.10249    | 0.10249    | 0.10249    |   0.0 |  8.00
Comm    | 0.015159   | 0.015159   | 0.015159   |   0.0 |  1.18
Output  | 0.14735    | 0.14735    | 0.14735    |   0.0 | 11.51
Modify  | 0.02182    | 0.02182    | 0.02182    |   0.0 |  1.70
Other   |            | 0.004513   |            |       |  0.35

Nlocal:            770 ave         770 max         770 min
Histogram: 1 0 0 0 0 0 0 0 0 0
Nghost:           4832 ave        4832 max        4832 min
Histogram: 1 0 0 0 0 0 0 0 0 0
Neighs:         123891 ave      123891 max      123891 min
Histogram: 1 0 0 0 0 0 0 0 0 0

Total # of neighbors = 123891
Ave neighs/atom = 160.8974
Ave special neighs/atom = 6.7376623
Neighbor list builds = 37
Dangerous builds = 0
unfix           1

# Output final configuration
write_data      final.data
System init for write_data ...
Generated 465 of 465 mixed pair_coeff terms from geometric mixing rule
WARNING: Dihedrals are defined but no dihedral style is set (../force.cpp:202)
WARNING: Likewise 1-4 special neighbor interactions != 1.0 (../force.cpp:204)
Total wall time: 0:00:01
