LAMMPS data file via write_data, version 23 Jun 2022, timestep = 58000

770 atoms
31 atom types
715 bonds
17 bond types
1087 angles
18 angle types
455 dihedrals
9 dihedral types
0 impropers
2 improper types

-0.42470339252810696 20.424703392528087 xlo xhi
-0.42470339252810696 20.424703392528087 ylo yhi
-0.42470339252810696 20.424703392528087 zlo zhi

Masses

1 12.011
2 12.011
3 12.011
4 12.011
5 12.011
6 12.011
7 12.011
8 12.011
9 12.011
10 12.011
11 1.008
12 1.008
13 1.008
14 1.008
15 1.008
16 1.008
17 1.008
18 15.999
19 15.999
20 15.999
21 15.999
22 14.007
23 14.007
24 14.007
25 14.007
26 18.998
27 30.974
28 6.941
29 32.065
30 32.065
31 6.941

Pair Coeffs # lj/cut/coul/cut

1 0.066 3.5
2 0.066 3.5
3 0.066 3.5
4 0.066 3.5
5 0.07 3.55
6 0.07 3.55
7 0.07 3.55
8 0.07 3.55
9 0.105 3.75
10 0.105 3.75
11 0.03 2.5
12 0.03 2.5
13 0.03 2.5
14 0.03 2.42
15 0.03 2.5
16 0.03 2.5
17 0.03 2.5
18 0.17 3
19 0.17 3
20 0.17 2.96
21 0.17 3
22 0.17 3.25
23 0.17 3.25
24 0.17 3.25
25 0.17 3.25
26 0.255 2.95
27 0.2 3.7
28 0.0025 1.506
29 0.25 3.55
30 0.25 3.55
31 0.00034 2.126

Bond Coeffs # harmonic

1 268 1.529
2 414 1.33
3 320 1.4
4 340 1.09
5 340 1.08
6 340 1.08
7 320 1.41
8 570 1.229
9 320 1.36
10 300 1.47
11 440 1.27
12 350 1.34
13 340 0.96
14 340 1.01
15 420 1.56
16 200 1.81
17 300 1.43

Angle Coeffs # harmonic

1 50 109.5
2 80 120
3 60 120
4 37.5 110.7
5 40 120
6 33 106.4
7 33 107.8
8 35 120
9 60 109.5
10 60 124
11 80 123
12 80 120.4
13 50 109.5
14 50 109.5
15 50 109.5
16 50 120
17 80 90
18 80 180

Atoms # full

349 30 9 0.52 4.522965319562845 0.5159753473744181 3.7387214224732075 0 1 0
99 9 19 -0.35 3.322826560780156 4.403247100112847 1.0879004322791506 0 0 0
360 30 11 0.06 3.8125091648101535 0.02685696255676623 1.2486059190980676 0 1 0
352 30 19 -0.35 3.415460017937767 1.1553989606715926 3.083037488867085 0 1 0
103 9 11 0.06 1.7433436118823784 3.7938784759415913 2.3201095145471626 0 0 0
354 30 1 0.22 3.6358343063558394 1.0367912746551222 1.6191991433703103 0 1 0
358 30 11 0.06 2.698696296594949 1.4724089635052797 1.2350654207634664 0 1 0
105 9 11 0.06 2.2326062795185453 5.305534131233966 2.8590777856470577 0 0 0
359 30 11 0.06 4.425942062118636 1.6947733926596915 1.3272463358167805 0 1 0
101 9 1 0.22 2.5784273310031542 4.370651257220827 2.4198495634327286 0 0 0
275 23 11 0.06 1.1335274217059517 2.8883274599967774 18.971440144040137 1 0 0
350 30 20 -0.5 5.640380712482381 0.5944066964351022 3.303174012752921 0 1 0
100 9 19 -0.35 5.702683554272449 4.224004373773661 1.6692644081338082 0 0 0
102 9 1 0.22 6.828941090643494 4.615908596203686 0.9148938177277322 0 0 0
222 19 1 0.22 8.542416269683766 0.6990156782539418 3.3612041686469745 0 0 0
228 19 11 0.06 8.353623876511666 0.7319974058259155 4.408410522303229 0 0 0
108 9 11 0.06 7.782391152903173 4.032814487286916 1.012663474290144 0 0 0
106 9 11 0.06 6.553832426279874 4.554708938549143 -0.1470616265702122 0 0 0
223 19 11 0.06 10.202389358515308 4.060414041353473 1.6424654731941906 0 0 0
70 6 11 0.06 10.348111319752086 0.7764794453173314 19.33224651152461 0 1 -1
226 19 11 0.06 7.958212134815078 1.6161439410812664 3.111367829104597 0 0 0
220 19 19 -0.35 9.887668691324695 0.9657903815689672 3.028945315940658 0 0 0
219 19 19 -0.35 11.227443257324914 2.9539709370001104 2.9461596099486256 0 0 0
217 19 9 0.52 10.47925852069531 2.0766684946617415 3.71650910466834 0 0 0
221 19 1 0.22 10.520440520520898 4.145336317348522 2.707957206284393 0 0 0
62 6 20 -0.5 13.386382274279546 0.2468067907763758 0.1630117253638581 0 1 0
71 6 11 0.06 9.721190514783213 0.5111153286026004 0.10457421456035043 0 1 0
698 61 11 0.06 14.360110411186529 5.049965896334145 3.1733027809862575 0 0 0
697 61 11 0.06 14.676114998994752 6.270242186970134 1.956919977795867 0 0 0
696 61 2 0.22 15.116350960687056 5.786861103452032 2.88290154566415 0 0 0
68 6 11 0.06 13.441277185436169 19.60146413185756 3.3605231197939496 0 0 0
66 6 1 0.22 10.643501459537978 0.6264697720672852 20.40234182903854 0 1 -1
64 6 19 -0.35 11.34416338091788 20.242598003477724 -0.3843559619910959 0 0 0
540 45 11 0.06 15.883839678435761 2.025345334664653 1.9185568460189382 0 0 0
134 12 20 -0.5 20.37170483355429 -0.39809046588642616 -0.01801816779640736 0 1 0
539 45 11 0.06 15.493868881071002 1.995058897281714 3.715354608958087 0 0 0
533 45 1 0.22 19.00454898203664 2.766962940605769 3.4380910153176893 0 0 0
529 45 9 0.52 18.05964626168013 0.8199597082367331 2.826107268768858 0 0 0
531 45 19 -0.35 18.53814806070698 1.490232718306475 3.919874922345296 0 0 0
532 45 19 -0.35 16.73088486700427 0.34191762562226546 2.8705526029741186 0 0 0
733 67 31 1 19.15056089256457 0.5976535716985265 0.13769137302737933 0 0 1
530 45 20 -0.5 18.63060511065563 0.601329652979244 1.7878568389579352 0 0 0
535 45 11 0.06 18.256665101400934 3.493667562212402 3.500047532541027 0 0 0
534 45 1 0.22 15.691371448825477 1.3925874811686076 2.745106681895356 0 0 0
537 45 11 0.06 19.541381642668043 2.90279120932758 2.5153598020088315 0 0 0
536 45 11 0.06 19.815192221186756 3.0330843816198545 4.186214976852064 0 0 0
266 23 20 -0.5 19.48218731979614 2.3567162421669092 -0.22159837336175062 0 0 1
693 61 19 -0.35 16.41862869508963 5.465885502308728 2.3612283949698054 0 0 0
538 45 11 0.06 14.803912215542983 0.8222724097419403 2.442207328522199 0 0 0
104 9 11 0.06 3.1512207424795466 3.7704420023613485 3.152541636917578 0 0 0
97 9 9 0.52 4.584440885483628 5.063527164103293 1.3393742692085984 0 0 0
206 18 20 -0.5 3.52863651599324 8.300398881921627 2.720438015325362 0 0 0
205 18 9 0.52 2.7325608022075163 9.099596318886604 3.280015275563898 0 0 0
208 18 19 -0.35 1.732223236184578 9.72769715195147 2.4174385742474906 0 0 0
98 9 20 -0.5 4.7120525675315585 6.274278382574952 1.3302601597677794 0 0 0
734 68 31 1 4.77871405608359 7.917017933182212 1.646888559280133 0 0 1
229 20 9 0.52 4.970922216668812 9.891684876825186 20.280729492769552 0 0 -1
91 8 11 0.06 0.6745162489158743 7.177187850212441 -0.2139986544292672 1 0 0
107 9 11 0.06 7.164867960762961 5.532215523685016 1.292992955646653 0 0 0
230 20 20 -0.5 5.142356014874527 9.153276158099334 0.3626576304076995 0 0 0
736 70 27 1.34 7.331223017955402 7.785314114336186 4.006543800386945 0 0 0
739 70 26 -0.39 6.016895471311915 7.130007070364954 4.540981146707165 0 0 0
741 70 26 -0.39 6.540879611288403 8.149355376703667 2.754988762637246 0 0 0
737 70 26 -0.39 7.630796252306599 6.384450187343402 3.3879931214021624 0 0 0
17 2 1 0.22 8.898620430729004 9.033745443532574 -0.009155775878709804 0 0 0
21 2 11 0.06 9.147397004360204 8.425633915742688 19.986726107917775 0 0 -1
738 70 26 -0.39 6.908617508386013 9.13195331038889 4.718769368875934 0 0 0
224 19 11 0.06 9.60072139907126 4.4717200949733025 3.253265092783985 0 0 0
740 70 26 -0.39 8.691685330772975 8.384807367738754 3.4020732087302776 0 0 0
20 2 11 0.06 7.881443069459811 8.676186847695895 0.3560598700606411 0 0 0
225 19 11 0.06 11.212882278967022 5.0220751885296115 2.5228185961982783 0 0 0
761 73 26 -0.39 12.459840892789076 8.578981213300464 3.1052481301725945 0 0 0
762 73 26 -0.39 11.312166534028172 9.157896924815393 4.789845142461764 0 0 0
757 73 27 1.34 12.535128303672478 9.81164402917924 3.9938005687017473 0 0 0
763 73 26 -0.39 13.779919658027424 10.437259343620687 3.232168816320604 0 0 0
700 61 11 0.06 15.140558506955212 6.87489530110789 4.906193361787681 0 0 0
699 61 11 0.06 14.992166699294156 7.901246692892611 3.4916355501712224 0 0 0
695 61 2 0.22 15.401612446748565 6.955234005164219 3.87765813439737 0 0 0
758 73 26 -0.39 13.570744756512308 9.119158510325915 4.978947335468574 0 0 0
299 25 11 0.06 13.283891587298747 8.681449930363712 0.6096969708204654 0 0 1
92 8 11 0.06 0.5441476942881326 8.788134092546143 0.013256123632666095 1 0 0
93 8 11 0.06 -0.24398085769453706 7.5083449323286215 1.095847241463298 1 0 0
89 8 1 0.22 -0.07752252154265854 7.879824492081154 0.03220931801591248 1 0 0
692 61 20 -0.5 18.39636925584903 6.513931893135135 2.375586509752704 0 0 0
691 61 9 0.52 17.37099808878437 6.257824009195 3.0215665876280284 0 0 0
694 61 19 -0.35 16.738097184903097 7.2656594092228435 3.842737292687336 0 0 0
85 8 9 0.52 18.474785991688847 8.514734965363166 -0.2728467285583972 0 0 0
88 8 19 -0.35 18.522036538203295 9.867249776403632 0.23253911322959597 0 0 0
90 8 1 0.22 17.865657267008572 10.089795295057549 1.5086002241445997 0 0 0
95 8 11 0.06 16.87087573457363 9.587688116132012 1.5432491194162228 0 0 0
96 8 11 0.06 18.471057773517707 9.836073379987562 2.451334831436309 0 0 0
46 4 11 0.06 20.243048346966752 5.51152863161421 6.300243655566704 0 0 0
215 18 11 0.06 0.17505744161844017 8.941588420780946 3.5228656982583315 0 0 0
210 18 1 0.22 0.4118004368480481 9.883656023594131 3.0164602859686114 0 0 0
214 18 11 0.06 -0.30766273145364864 10.185243589802745 2.255773164945596 0 0 0
616 53 2 0.22 3.6586222090501073 14.665669516609839 2.317680161056902 0 0 0
620 53 11 0.06 2.661045470738728 12.801650972241195 2.8655373650592484 0 0 0
618 53 11 0.06 3.4660348605659546 14.883416169579036 3.4459971669589864 0 0 0
170 15 20 -0.5 0.5694243335770686 13.747922211306642 3.725551759724425 0 0 1
615 53 2 0.22 3.301768344228878 13.187680215745166 2.09431437053241 0 0 0
619 53 11 0.06 4.23324631431336 12.575256910111476 2.0629937969415306 0 0 0
614 53 19 -0.35 2.2335870376582014 13.265294023544659 1.1600475778971344 0 0 0
617 53 11 0.06 4.756858233548943 14.954581477228308 2.3376764508727423 0 0 0
611 53 9 0.52 2.2155479087121175 14.548687417630411 0.6542412835665106 0 0 0
216 18 11 0.06 0.2928732155053714 10.564247177976936 3.8473144464119553 0 0 0
16 2 19 -0.35 7.917018430774403 11.985084124174744 1.3625058358048183 0 0 0
22 2 11 0.06 6.677427938280113 12.114342668526302 3.178970223677922 0 0 0
18 2 1 0.22 7.364101551362829 11.435883467890358 2.52023218258374 0 0 0
23 2 11 0.06 6.868877189114069 10.533006631559003 2.1103210331418434 0 0 0
24 2 11 0.06 8.167561318671543 11.098753931332244 3.2085791997113726 0 0 0
13 2 9 0.52 9.0191347503743 11.228631989283452 0.8154123400966096 0 0 0
594 51 19 -0.35 8.54588298779751 11.933689034700102 5.588042299150677 0 0 0
366 31 1 0.22 6.80879723618083 14.540766023342556 -0.007852389490403955 0 0 1
14 2 20 -0.5 10.189111263816242 11.592084418139498 0.8775610145034454 0 0 0
370 31 11 0.06 7.417631082184687 13.633133892371939 -0.2792464688196861 0 0 1
759 73 26 -0.39 11.57966073583951 10.528999377712786 2.944825489656605 0 0 0
672 59 20 -0.5 11.599905155060226 13.779743861397485 1.7615200398289508 0 0 0
735 69 31 1 11.622911567853993 12.237878201230133 1.3454806889689175 0 0 0
671 59 9 0.52 11.284199529165592 14.613756583594506 2.6477750905384303 0 0 0
290 25 20 -0.5 12.890733110324048 11.682717409416362 0.4814771448617913 0 0 1
165 14 11 0.06 15.773427826406413 14.245828132236051 3.0512284791079463 0 0 0
295 25 11 0.06 15.99808871382396 13.046304663597883 20.15985667869861 0 0 0
160 14 19 -0.35 14.47591676688187 15.404718611116248 4.825172763347481 0 0 0
161 14 1 0.22 15.71879396843284 13.21325791737658 3.357886264763116 0 0 0
674 59 19 -0.35 10.014863045574984 14.616895180334911 3.253064909431306 0 0 0
599 51 11 0.06 9.966693736615495 11.912448252682234 5.36829969407557 0 0 0
292 25 19 -0.35 14.727392348941196 10.296693716694456 0.07963707018249067 0 0 1
296 25 11 0.06 14.882340605013919 14.17969602939135 19.40386534500096 0 0 0
94 8 11 0.06 17.570964124592443 11.133639146144512 1.4374574606848587 0 0 0
169 15 9 0.52 20.305650767287915 13.918448861030052 3.2877530352664848 -1 0 1
177 15 11 0.06 18.45180507566478 13.197261735359458 0.7347895768353554 -1 0 1
171 15 19 -0.35 19.613662464745495 12.946611024652 2.597301163311614 -1 0 1
176 15 11 0.06 20.20815139521023 12.774452499619354 0.612413725396926 -1 0 1
173 15 1 0.22 19.44803848508579 13.383970044727558 1.197869746590032 -1 0 1
172 15 19 -0.35 19.941341731572514 15.26212405586906 3.295951458397943 -1 0 1
174 15 1 0.22 18.874187351805126 15.452976211563218 4.156004833124056 -1 0 1
164 14 11 0.06 15.041754915430493 12.680460349259434 2.7860990607387643 0 0 0
163 14 11 0.06 16.70542824333983 12.81614805703631 3.3484050943953223 0 0 0
175 15 11 0.06 19.73940756419652 14.378897632652338 0.9834287378025783 -1 0 1
427 36 11 0.06 0.6909542161224382 16.900065336701473 5.639226965079242 0 0 0
422 36 20 -0.5 4.443702454171974 16.515478011874002 4.9128348155299975 0 0 0
429 36 11 0.06 1.3807955315612408 16.14143735671641 4.126447128866027 0 0 0
613 53 19 -0.35 3.1077160650213562 15.395176599692709 1.305978945361712 0 0 0
425 36 1 0.22 1.2627930946927814 17.111845014000366 4.7312771828198015 0 0 0
133 12 9 0.52 0.25896874916380264 19.42458990647497 -0.02248443473907774 1 0 0
135 12 19 -0.35 1.6453809265942865 19.62243000303055 -0.19058934284390713 1 0 0
612 53 20 -0.5 1.3002750106162562 14.987794943971164 -0.08270643242125808 0 0 0
428 36 11 0.06 0.7130964170611116 17.88449712698727 4.13997721389363 0 0 0
311 26 11 0.06 3.879870895970095 18.164199603833424 2.8819198884100765 0 0 0
310 26 11 0.06 5.39099210612503 18.74377699791284 3.6881695203141263 0 0 0
372 31 11 0.06 6.49072468590735 14.439112560727585 1.0212668481855958 0 0 1
227 19 11 0.06 8.100337047190404 -0.11298928817257708 2.786304173599813 0 0 0
306 26 1 0.22 4.976712599747784 18.248015610702296 2.7561682078204197 0 0 0
312 26 11 0.06 5.296358845923333 17.224504679108385 2.9165281579831364 0 0 0
304 26 19 -0.35 5.277734969760405 18.61975194589283 1.4361274955752588 0 0 0
680 59 11 0.06 8.750963522608801 16.411801370048067 2.8001068654701933 0 0 0
675 59 2 0.22 9.724341204536417 16.01431982948578 3.176641623376292 0 0 0
679 59 11 0.06 9.685646945454993 15.605133694325053 4.199927039803876 0 0 0
302 26 20 -0.5 7.374034827953203 17.68454597951532 1.4003087524339792 0 0 0
301 26 9 0.52 6.623298567828452 18.69615053231928 1.2047688497783415 0 0 0
678 59 11 0.06 11.010736534290128 17.16071006124291 1.7365678528064454 0 0 0
303 26 19 -0.35 7.108749686406981 19.825407209527164 0.5107916331344624 0 0 0
67 6 11 0.06 11.84416837439354 20.00961638719103 3.5043093023379663 0 0 0
61 6 9 0.52 12.440119831647298 20.37621493551419 0.49399056121983453 0 0 0
676 59 2 0.22 10.913571927286455 16.879355284713654 2.757827999640424 0 0 0
677 59 11 0.06 11.490293525707816 17.33808300237802 3.5637505210227522 0 0 0
69 6 11 0.06 12.998657299206917 0.3262092445343726 2.9202795143931297 0 1 0
65 6 1 0.22 12.65561365223843 20.107311882216898 2.875231221342443 0 0 0
63 6 19 -0.35 12.49918281511872 19.4963110760673 1.6220694489589547 0 0 0
673 59 19 -0.35 11.864861949210667 15.8541168998275 2.657168879577667 0 0 0
687 60 11 0.06 14.95589033120427 19.13096601436142 1.5056606394024925 0 0 1
178 15 11 0.06 18.258536245971285 16.153393177952545 3.696653249786097 -1 0 1
682 60 20 -0.5 17.360177322735858 15.568854927066955 1.175474885604868 0 0 1
144 12 11 0.06 19.66679701766696 18.196665851868183 1.9113599911168055 0 0 0
683 60 19 -0.35 16.70667764355514 17.704811191045124 1.5924683759273783 0 0 1
681 60 9 0.52 16.926720977402347 16.611122259567438 0.7483889211994283 0 0 1
142 12 11 0.06 19.7357939770567 16.692248482366864 1.094012170356627 0 0 0
138 12 1 0.22 20.272183807789794 17.640090320840514 1.1751060405117681 0 0 0
686 60 2 0.22 15.65723986555619 18.45188132193892 0.9577684742152206 0 0 1
688 60 11 0.06 16.340815377019325 19.092952833412255 0.4279308515982606 0 0 1
703 62 19 -0.35 17.488051622734254 18.35846837776485 4.7510316868012925 0 -1 0
143 12 11 0.06 0.29351594101400613 17.445729325718986 1.6514095467031482 1 0 0
136 12 19 -0.35 -0.38862236282075147 18.185319326201373 -0.16412503072410617 1 0 0
684 60 19 -0.35 15.954798084363352 16.4743431451126 -0.2857953147085973 0 0 1
685 60 2 0.22 15.052106248778284 17.62948040090209 -0.17060320654277705 0 0 1
708 62 11 0.06 15.61746883239966 18.14101991047219 5.8515323135080735 0 -1 0
39 4 19 -0.35 1.7240418336149315 3.7888055084267886 5.4509388591552606 1 0 0
41 4 1 0.22 1.6116573733752086 2.9768863934257217 6.63033417231604 1 0 0
44 4 11 0.06 2.139544616809763 2.0740732696940016 6.450937118608444 1 0 0
353 30 1 0.22 4.93461088879946 -0.19443004969470615 5.962479637430097 0 1 0
351 30 19 -0.35 4.223217991325533 -0.4005495179144418 4.784316977299 0 1 0
356 30 11 0.06 4.519512436593557 0.6348267934187897 6.579133048009791 0 1 0
43 4 11 0.06 0.5497571475456579 2.7545985081275166 6.77770950570004 1 0 0
383 32 11 0.06 1.1670672567728892 5.231675705581357 9.078936745192468 0 0 0
218 19 20 -0.5 10.765871269986695 1.9674647481297751 4.877518785806394 0 0 0
355 30 11 0.06 6.012990860658877 -0.10184628330361245 5.778802197081453 0 1 0
663 58 19 -0.35 6.645860428169352 2.9212711427370968 5.849563151813951 0 0 0
662 58 20 -0.5 6.446652146641874 1.9957146654262092 7.903656865598178 0 0 0
666 58 2 0.22 6.5534724303445175 4.225551827086938 5.371318839649644 0 0 0
661 58 9 0.52 6.144897275246065 2.893885424340956 7.143333236209366 0 0 0
664 58 19 -0.35 5.465765951197988 4.038788045283227 7.48846078504129 0 0 0
667 58 11 0.06 7.502244740739555 4.603706846270142 5.083031817769421 0 0 0
528 44 11 0.06 10.830020611557975 2.12247457481645 11.251445925099725 0 0 0
668 58 11 0.06 5.957820665081806 4.080899236930485 4.487973290460528 0 0 0
549 46 11 0.06 8.80788325278405 19.824030252327432 6.818476182823733 0 0 0
650 56 11 0.06 13.450031424856387 3.262087389172996 6.026216931101212 0 0 0
648 56 11 0.06 12.34765314474542 3.793846562083276 8.05004073062594 0 0 0
645 56 2 0.22 13.270367687729504 4.348797589196345 6.079982390905909 0 0 0
646 56 2 0.22 12.692721311226867 4.72669556790084 7.481497858206484 0 0 0
647 56 11 0.06 13.454684275306793 5.128983627965157 8.134425471425029 0 0 0
604 52 19 -0.35 11.967017291777617 -0.2155529143364045 7.591739527499083 0 1 0
609 52 11 0.06 10.354490677407798 19.760473594121216 9.184723546936628 0 0 0
649 56 11 0.06 14.210678955193172 4.815623782591592 5.82465149242885 0 0 0
601 52 9 0.52 12.95703983627861 19.83080892749689 7.155464274310519 0 0 0
602 52 20 -0.5 13.380976999195381 19.86018970421786 6.032098437623566 0 0 0
526 44 11 0.06 10.137026709192773 2.717579785134969 9.727051374369843 0 0 0
610 52 11 0.06 11.809867262987172 -0.21103589071295706 9.339028131895747 0 1 0
605 52 2 0.22 11.339916121773904 19.92250844561655 8.71023098549685 0 0 0
45 4 11 0.06 2.044664328066735 3.3691589624418077 7.598576236664705 1 0 0
765 74 26 -0.39 15.98706512527698 4.274222213853603 7.8744209699642305 0 0 0
770 74 26 -0.39 16.411953435748288 4.388825235714556 5.7196204618162865 0 0 0
769 74 26 -0.39 18.151698116951543 3.6952083322980647 8.28082099291096 0 0 0
767 74 26 -0.39 16.889125322689395 2.5600024491647897 6.850561484829897 0 0 0
764 74 27 1.34 17.274508926110926 4.092279969570079 7.015221545222447 0 0 0
766 74 26 -0.39 18.500182070565934 3.8187967546473134 6.20240450817143 0 0 0
11 1 11 0.06 0.2453180024866215 20.19326785736361 6.376398876199136 0 -1 0
768 74 26 -0.39 17.74574165612929 5.553860075030228 7.284284307826356 0 0 0
6 1 1 0.22 0.5729241865755836 20.02073079285958 7.437423706185008 0 -1 0
10 1 11 0.06 -0.265381889235645 19.883508223377234 8.06323415082657 0 -1 0
38 4 20 -0.5 2.7110940357351336 5.650089224004237 6.439286824016313 1 0 0
207 18 19 -0.35 3.2602540791922077 9.861601100627697 4.335396798440244 0 0 0
37 4 9 0.52 1.8562962112351071 5.111407934824569 5.682705897009551 1 0 0
40 4 19 -0.35 0.9426311475781863 5.972130927236996 4.969130617667642 1 0 0
209 18 1 0.22 3.2124951811696487 9.12482268147413 5.541303472145555 0 0 0
213 18 11 0.06 3.521672902849192 8.110728844061766 5.489145803123247 0 0 0
212 18 11 0.06 2.13345544253308 9.079302948351302 5.947436983055975 0 0 0
211 18 11 0.06 3.888046792231121 9.57493056624273 6.291056320594966 0 0 0
458 39 20 -0.5 4.200858540571921 8.502080817121056 9.071168204587611 0 0 0
500 42 11 0.06 2.4312591760515314 9.787745351568292 8.332038074162217 0 0 0
48 4 11 0.06 19.85122109224598 6.384409693601234 5.019032179594556 0 0 0
384 32 11 0.06 0.8718717132474285 5.750737975317091 10.668874496287005 0 0 0
382 32 11 0.06 2.34484823844674 6.304875330335548 9.740398722171049 0 0 0
378 32 1 0.22 1.723963115220633 5.46854341209841 10.01683337379278 0 0 0
665 58 2 0.22 5.91717889928679 4.984184818852095 6.548970343442626 0 0 0
669 58 11 0.06 6.7578611732678135 5.566288099650554 6.988396253278233 0 0 0
742 70 26 -0.39 8.11462288780384 7.4253457735838255 5.256180478030071 0 0 0
670 58 11 0.06 5.161345060793196 5.670934876452576 6.243093127200867 0 0 0
460 39 19 -0.35 5.9274170140011755 9.905836817516347 8.805707769776518 0 0 0
457 39 9 0.52 5.450955372297629 8.597473388238374 8.981013175003831 0 0 0
466 39 11 0.06 6.391072861422347 10.740435683545627 6.957245872681632 0 0 0
462 39 1 0.22 6.800244210603436 10.091635560951536 7.69775730098042 0 0 0
467 39 11 0.06 7.689552958316851 10.605669206371713 8.115783424710488 0 0 0
459 39 19 -0.35 6.390093674179364 7.5464053697052025 9.189100367868555 0 0 0
321 27 11 0.06 11.261372553469197 6.627552937540639 9.78593447865858 0 0 0
731 65 31 1 10.07568217289746 8.11390625673525 5.400233944612875 0 0 0
314 27 20 -0.5 9.833599917488309 8.775137710773306 7.205976222744175 0 0 0
643 56 19 -0.35 11.471237323896707 5.326137330084579 7.175287510945762 0 0 0
317 27 1 0.22 10.261396572303882 7.237255669050089 9.760485305388343 0 0 0
644 56 19 -0.35 12.728483946066095 5.224181395721778 5.193808456673621 0 0 0
642 56 20 -0.5 10.913972564799757 6.621350255074282 5.4206262084232115 0 0 0
641 56 9 0.52 11.630821841541607 5.760090532200918 5.848784478486444 0 0 0
315 27 19 -0.35 10.252890088420838 8.609438313134993 9.395352568332926 0 0 0
313 27 9 0.52 10.730377219616873 8.700994941480605 8.132796186509632 0 0 0
316 27 19 -0.35 12.127419906535332 8.533011923763437 8.032819737257247 0 0 0
319 27 11 0.06 9.7805890254477 7.129429987169665 10.697454991407161 0 0 0
559 47 11 0.06 16.324988648677767 10.031108583301702 4.577913020249662 -1 0 0
47 4 11 0.06 0.030002252915069194 7.170441672764095 6.445365152811904 1 0 0
42 4 1 0.22 -0.1922568200516857 6.3160787873772195 5.703121940383583 1 0 0
557 47 11 0.06 16.0585379820548 8.344951568852316 6.520937455649934 -1 0 0
556 47 2 0.22 16.71250870117308 9.14519616708993 6.752483174004632 -1 0 0
553 47 19 -0.35 18.015970658943388 8.674364364025454 6.691904715259485 -1 0 0
558 47 11 0.06 16.289758205893214 9.521314873040177 7.684939470917854 -1 0 0
555 47 2 0.22 16.581813647961056 10.296558660205674 5.657254398163523 -1 0 0
551 47 9 0.52 18.743312879676438 9.556310201479414 5.862072510730073 -1 0 0
396 33 11 0.06 15.42277156563835 8.9598001342582 9.607691886563158 0 0 0
560 47 11 0.06 15.748629220046562 10.902307592884647 5.95287175723437 -1 0 0
554 47 19 -0.35 17.932368694087145 10.622551147094407 5.360692273294007 -1 0 0
407 34 11 0.06 18.545339723418486 6.5841088596825434 10.196180024763267 0 0 0
493 42 9 0.52 2.6927701147814136 12.554326917164204 8.22071060811968 0 0 0
496 42 19 -0.35 3.741610960405085 12.077534851481534 7.430339608586083 0 0 0
494 42 20 -0.5 2.907019835486311 13.560409985323208 8.885616667365941 0 0 0
503 42 11 0.06 3.1396437135094524 12.936885571312823 5.583597184573201 0 0 0
82 7 11 0.06 0.501254714106477 12.966552547782415 6.301469060053289 1 0 0
498 42 1 0.22 3.963264533485077 12.820321137533927 6.227807703215305 0 0 0
502 42 11 0.06 4.648800562393946 12.159409902204812 5.664187659073621 0 0 0
497 42 1 0.22 2.1821337007722463 10.557603269077065 9.082165552877571 0 0 0
495 42 19 -0.35 1.619205159014391 11.728776807882562 8.517037662092841 0 0 0
504 42 11 0.06 4.461421204376855 13.783736038440225 6.467207617487198 0 0 0
78 7 1 0.22 20.32073955496559 12.713765111169224 6.49201733939396 0 0 0
83 7 11 0.06 20.23558128084202 11.859496188469993 7.15625393204554 0 0 0
592 51 20 -0.5 6.703558681736281 13.392943704899231 5.2235051211284045 0 0 0
468 39 11 0.06 7.286280552717656 9.117038202553728 7.37623122271443 0 0 0
591 51 9 0.52 7.954482662543455 13.226633076490003 5.4629137444913605 0 0 0
593 51 19 -0.35 8.743471052089678 14.234628334898654 5.992261495875877 0 0 0
129 11 11 0.06 6.2874717401838955 14.961480384812429 7.669640314937977 0 0 0
595 51 2 0.22 9.682470346887273 12.047669373599046 6.333579949605004 0 0 0
598 51 11 0.06 9.777025890472206 13.795257654242619 7.880226915480208 0 0 0
596 51 2 0.22 9.68616704149134 13.565565245247265 6.741236678676631 0 0 0
128 11 11 0.06 5.727449126883341 14.412455316690718 9.1796530984068 0 0 0
125 11 1 0.22 6.644697088996297 14.502672637107366 8.581041122256424 0 0 0
123 11 19 -0.35 7.706940264665468 15.168053769300075 9.240985774782073 0 0 0
127 11 11 0.06 6.975546639836576 13.454746782102617 8.394416895725328 0 0 0
159 14 19 -0.35 15.244647330817642 12.997585484958083 4.679909622361432 0 0 0
157 14 9 0.52 15.19720293300522 14.31075712176534 5.417146179252399 0 0 0
322 27 11 0.06 13.024461848142707 9.982891663305773 9.184014181409129 0 0 0
597 51 11 0.06 10.517357716736003 14.142186948983785 6.277128533513967 0 0 0
600 51 11 0.06 10.35936055134559 11.406403789612838 6.97363467919677 0 0 0
760 73 26 -0.39 12.599120037606829 11.069750241131818 4.972347385729236 0 0 0
323 27 11 0.06 13.839614053882812 9.657146740171598 7.720726529447269 0 0 0
318 27 1 0.22 12.898648335036006 9.750401799368634 8.134399020096637 0 0 0
324 27 11 0.06 12.479350031186865 10.649037385813651 7.611186762174306 0 0 0
722 64 20 -0.5 13.232537762975394 12.92033948161986 9.094139690745351 0 0 0
721 64 9 0.52 14.375270946613718 12.921963442496585 9.328058755033348 0 0 0
32 3 11 0.06 10.77390931701821 14.166193402349858 9.605163874616785 0 0 0
167 14 11 0.06 14.212348271898875 16.72136709189494 6.290978466140343 0 0 0
179 15 11 0.06 18.347851863806227 14.539116152361792 4.4474049383251915 -1 0 1
552 47 20 -0.5 19.9715932645028 9.582305059198072 5.862654846396403 -1 0 0
73 7 9 0.52 19.939457285681975 14.635164632140944 7.936507588684137 0 0 0
76 7 19 -0.35 19.505379269981297 13.793308906446919 6.882870880052393 0 0 0
84 7 11 0.06 20.059319869662502 12.380115782955125 5.470255586724465 0 0 0
74 7 20 -0.5 19.59429748966204 14.355543228062919 9.069126810280599 0 0 0
723 64 19 -0.35 14.970050474310778 14.158813490329594 9.824540517466842 0 0 0
724 64 19 -0.35 15.341918924264107 11.941419479485692 8.879895710972596 0 0 0
729 64 11 0.06 16.975753749496114 12.819830422745248 7.829202833094332 0 0 0
725 64 2 0.22 16.582317016351183 12.664451475864839 8.844784699208681 0 0 0
730 64 11 0.06 17.231512391081232 11.99564116753122 9.385791410217081 0 0 0
726 64 2 0.22 16.391842987370886 13.945181165233663 9.65245992985669 0 0 0
728 64 11 0.06 16.858985595423135 13.660907724532077 10.633514899181725 0 0 0
158 14 20 -0.5 16.040282632260038 14.55115300687181 6.2374387873197055 0 0 0
727 64 11 0.06 16.854722769147813 14.773640200251982 9.235483428995508 0 0 0
357 30 11 0.06 4.626440284750467 19.76941628532893 6.4052613442570445 0 0 0
423 36 19 -0.35 2.4886505055117984 17.69458253355579 5.1248827568244675 0 0 0
75 7 19 -0.35 20.20595348650582 15.973132574136978 7.700269636689077 0 0 0
1 1 9 0.52 2.0582897060176184 -0.31611403657952175 9.250285262988886 0 0 0
4 1 19 -0.35 1.6038323149374323 0.036621504498211 7.98108766087581 0 0 0
421 36 9 0.52 3.4441257503982183 16.70077062462331 5.598270308948316 0 0 0
3 1 19 -0.35 2.5643537978444764 19.295944602475174 9.564391895562201 0 -1 0
424 36 19 -0.35 3.0044462125422315 15.770011783311999 6.52574882288732 0 0 0
432 36 11 0.06 1.5997867961375851 16.107296617663152 7.921909321811295 0 0 0
426 36 1 0.22 2.615422745419533 16.388640455250382 7.686778567019168 0 0 0
431 36 11 0.06 2.619981334538837 17.498911984737852 7.715115278115642 0 0 0
430 36 11 0.06 3.1610834088421083 16.039225955135358 8.579436554370687 0 0 0
81 7 11 0.06 19.866916392630863 17.893022206736006 8.029393796540493 0 0 0
7 1 11 0.06 3.789303598262208 18.32413378257864 11.103227333387334 0 -1 0
547 46 11 0.06 7.328084109641501 19.114284667612793 4.874399008005089 0 0 0
548 46 11 0.06 7.07696479904375 17.49132158479229 5.6329167236467335 0 0 0
546 46 2 0.22 7.723010089428099 18.393824300728653 5.6489259173029955 0 0 0
550 46 11 0.06 7.236743119066848 19.56526580403208 7.319362633192051 0 0 0
543 46 19 -0.35 8.882280811418521 17.628627638152153 5.240891350277652 0 0 0
545 46 2 0.22 8.07521115379215 19.050055564720594 6.945416476573036 0 0 0
541 46 9 0.52 9.52202024905462 17.467628114665523 6.466235924437861 0 0 0
122 11 20 -0.5 6.650924155781412 17.192918476298594 9.05052355777938 0 0 0
121 11 9 0.52 7.217333480954526 16.38959857150934 9.766931384258633 0 0 0
544 46 19 -0.35 9.290567665059868 18.429498850093452 7.473622691688969 0 0 0
542 46 20 -0.5 10.497831549941406 16.70440304386932 6.654421875703763 0 0 0
707 62 11 0.06 15.692144645295125 19.571498803729853 4.67268906557434 0 -1 0
31 3 11 0.06 12.223313250210003 15.184848811914033 9.489412136069939 0 0 0
33 3 11 0.06 10.674558395207157 15.94651269874697 9.253858053319338 0 0 0
29 3 1 0.22 11.19088640614074 15.180076802183263 9.822169522384316 0 0 0
166 14 11 0.06 13.247804997499655 15.352201795571734 6.63429083411402 0 0 0
168 14 11 0.06 12.753013054874263 16.43439964148432 5.398537173477204 0 0 0
162 14 1 0.22 13.592778027280076 15.967481434333566 5.812054813985731 0 0 0
608 52 11 0.06 12.497194770422697 18.56087212926593 9.944403181411406 0 0 0
606 52 2 0.22 12.217842116587718 18.679028459478594 8.881034811175848 0 0 0
603 52 19 -0.35 13.212841000027213 18.65762662548955 7.834998146744072 0 0 0
607 52 11 0.06 11.655028028424432 17.770522299307416 8.767998641733369 0 0 0
180 15 11 0.06 19.310372979128324 15.740255066299403 5.099402238709324 -1 0 1
706 62 2 0.22 16.28537768477843 18.908703787785655 5.280225026830492 0 -1 0
12 1 11 0.06 0.9592247867468047 19.038894394966235 7.265309973283517 0 -1 0
77 7 1 0.22 19.21975069329747 17.024675445441545 7.88313526567312 0 0 0
79 7 11 0.06 18.678288015409308 16.87679328695185 8.856920410943562 0 0 0
710 62 11 0.06 16.02657810482841 19.677231090048515 7.27891228531589 0 -1 0
80 7 11 0.06 18.53240492392007 17.12380020698378 7.146100178790759 0 0 0
513 43 11 0.06 16.765288189702794 20.364692900074896 9.471063283977387 0 0 0
702 62 20 -0.5 19.6012862513167 19.280593985618978 4.906499796158593 0 -1 0
701 62 9 0.52 18.520222780749158 19.116817107945636 5.401818702902732 0 -1 0
709 62 11 0.06 16.345429258743124 0.09686236819717697 6.062607779292078 0 0 0
704 62 19 -0.35 18.059026117952882 19.752887803080718 6.585127457973815 0 -1 0
705 62 2 0.22 16.67586369159057 19.950216436620124 6.365384161472959 0 -1 0
60 5 11 0.06 20.270614358135965 1.4279940334203105 11.980582767525991 0 0 0
567 48 11 0.06 5.186771278657953 1.2043217302007994 10.453952638114398 0 0 0
2 1 20 -0.5 1.658056648813031 0.45817973658464106 10.152943670160989 0 0 0
568 48 11 0.06 5.170304238723236 1.8591674662982807 12.038964249226439 0 0 0
374 32 20 -0.5 3.9635552909107634 5.061059233076381 11.956481377228963 0 0 0
59 5 11 0.06 20.27503156257466 2.774792568176011 10.8454770294775 0 0 0
373 32 9 0.52 2.8616249843932904 4.589834862304848 11.851251543803787 0 0 0
375 32 19 -0.35 2.4016266663561416 3.6725691458510976 12.900464818159787 0 0 0
657 57 11 0.06 4.0685710213729545 1.713305878425527 15.883087966707384 0 1 0
58 5 11 0.06 19.882682900177933 1.285492250629398 10.283855411228714 0 0 0
380 32 11 0.06 3.073505140750562 4.252778441730978 14.718975181831953 0 0 0
376 32 19 -0.35 2.390921551165318 4.326539750159033 10.594555563432518 0 0 0
417 35 11 0.06 -0.1385807325691097 0.27116631766786703 18.162100445658474 1 0 0
566 48 2 0.22 5.773750422376653 1.7217207527301066 11.15926828968326 0 0 0
570 48 11 0.06 6.968737090163853 3.4819199591906114 11.331133034551792 0 0 0
563 48 19 -0.35 6.6671531931016315 0.5483127678105099 11.206286788593635 0 0 0
561 48 9 0.52 7.877256022717715 1.083597872248509 10.928251956197604 0 0 0
565 48 2 0.22 6.532916901128968 2.8427006278074947 10.63718596311838 0 0 0
569 48 11 0.06 5.993376931176582 3.5311758313448114 9.970918538179841 0 0 0
564 48 19 -0.35 7.8866247583875655 2.4480048750379027 10.602667251238802 0 0 0
203 17 11 0.06 8.395694149421251 2.12500947857821 14.230596537390477 0 0 0
527 44 11 0.06 11.623320629903363 1.9138816571313053 9.702716010103561 0 0 0
562 48 20 -0.5 8.940616580471518 0.44436454700969197 10.825328520077003 0 0 0
522 44 1 0.22 11.002224809366538 2.543021210428168 10.362441930189307 0 0 0
521 44 1 0.22 15.04683047187724 2.498242538569903 10.429695645675029 0 0 0
520 44 19 -0.35 11.717207447665478 3.764228809229401 10.563952344313613 0 0 0
148 13 19 -0.35 12.360259906881033 0.011418381549567869 13.078532273763178 0 1 0
150 13 1 0.22 11.302665507530035 19.97427574539666 13.031013857499254 0 0 0
519 44 19 -0.35 14.189075587336204 3.5746324615949514 10.120046286653489 0 0 0
517 44 9 0.52 13.06319050465262 3.5907663034394526 11.0187985154401 0 0 0
454 38 11 0.06 11.439459426956114 3.423612099751088 14.285839423332018 0 0 0
523 44 11 0.06 16.005300493200927 2.5260628319443152 9.935742449522808 0 0 0
525 44 11 0.06 14.623381738443893 1.5483883038362267 10.085167018041757 0 0 0
155 13 11 0.06 10.452007634076336 20.310302489407803 13.565781559521113 0 0 0
518 44 20 -0.5 13.341269831042528 3.865906762881794 12.191504094769142 0 0 0
450 38 1 0.22 11.973073885208272 3.048599967931868 15.210062535305799 0 0 0
455 38 11 0.06 12.101531295253764 3.852071372792124 15.889546333780222 0 0 0
524 44 11 0.06 15.255096452821784 2.492526502779691 11.514460385439127 0 0 0
54 5 1 0.22 19.77645347297404 1.9009721195210432 11.146250940819117 0 0 0
52 5 19 -0.35 18.383281902396014 2.1743404671039728 11.287137480146365 0 0 0
49 5 9 0.52 17.980506482029398 1.7783359496763231 12.629195528581308 0 0 0
50 5 20 -0.5 18.084587749376702 0.5745693702283533 12.990037004492057 0 0 0
51 5 19 -0.35 17.55548911644714 2.6886319991445022 13.556494804784686 0 0 0
56 5 11 0.06 18.946485932474502 2.004812806579003 14.971103458638042 0 0 0
53 5 1 0.22 18.616850272730986 2.9459901183396613 14.538342167005666 0 0 0
55 5 11 0.06 18.217344282058733 3.522841906731343 15.455340470101902 0 0 0
512 43 11 0.06 16.08036652889917 20.074701646019548 10.961004923933634 0 0 0
377 32 1 0.22 2.122420739595008 4.348236995417215 14.123161035727522 0 0 0
327 28 19 -0.35 4.52837163312623 9.415239855089002 14.001288994042373 0 0 0
329 28 1 0.22 4.265946847977782 8.934729219312537 12.734514616972342 0 0 0
333 28 11 0.06 4.020289593011718 7.862658836431441 12.794111577643474 0 0 0
405 34 11 0.06 0.19447038071795675 8.314606117598814 13.31808956319428 1 0 0
401 34 1 0.22 0.506674313562762 8.190265017008938 12.356727147247367 1 0 0
399 34 19 -0.35 20.381879034726985 7.571482455099699 11.597968414830076 0 0 0
499 42 11 0.06 1.4953418306372417 10.11352041533181 9.773936199237585 0 0 0
381 32 11 0.06 1.7387538322763105 5.392412627631993 14.163221403477465 0 0 0
379 32 11 0.06 1.4817512429588102 3.577148302713443 14.539989676455479 0 0 0
325 28 9 0.52 3.442262615967651 9.482610463030325 14.920980554643148 0 0 0
464 39 11 0.06 6.926011922824476 5.935250609108824 10.547868028724727 0 0 0
332 28 11 0.06 5.258074315892143 8.994512442301184 12.179495947208386 0 0 0
463 39 11 0.06 5.31801990437883 6.146410285833619 10.058334585503996 0 0 0
461 39 1 0.22 6.167110333670821 6.675596327685821 10.301089412677975 0 0 0
465 39 11 0.06 5.87962937943086 7.252955813161346 11.205231316143314 0 0 0
243 21 19 -0.35 9.273313435018853 6.713898633287839 12.989561014951086 0 0 0
241 21 9 0.52 7.965311959407238 6.7902114008909695 13.444936773767461 0 0 0
242 21 20 -0.5 7.414735001144454 7.848296123615418 13.532294809710377 0 0 0
244 21 19 -0.35 7.319689894645457 5.521531826820398 13.560565699383709 0 0 0
250 21 11 0.06 5.610177757651443 4.621165249379008 14.25267636894918 0 0 0
246 21 1 0.22 6.118558741341507 5.532542952629845 14.252434457937031 0 0 0
320 27 11 0.06 9.650538291995483 6.6058805166317764 9.110340738749056 0 0 0
252 21 11 0.06 5.325395119974895 6.202955619698032 13.82469090045226 0 0 0
245 21 1 0.22 10.239809423886044 6.5393910550949395 14.039027412537367 0 0 0
392 33 11 0.06 15.520452244491862 8.094355848079678 13.859906453205976 0 0 0
393 33 11 0.06 14.349667409259025 9.264525848755524 14.68958608321041 0 0 0
389 33 1 0.22 14.501334016646947 8.516976938329279 13.862561204094348 0 0 0
387 33 19 -0.35 14.164924069264826 9.267922508424242 12.690464778949675 0 0 0
471 40 19 -0.35 14.184652548926897 4.877293393061273 15.608331203981558 0 0 0
473 40 1 0.22 15.066862591452699 4.859440321741368 14.478517864574789 0 0 0
477 40 11 0.06 14.622632027145794 5.553264153646157 13.750237892519143 0 0 0
247 21 11 0.06 10.377824533097014 7.451876890279745 14.496000260524253 0 0 0
476 40 11 0.06 15.171118482870739 3.930262039434547 13.934824489942793 0 0 0
249 21 11 0.06 11.194513681001721 6.2936884113976745 13.554647095611577 0 0 0
394 33 11 0.06 16.848801295173978 9.889043033295202 10.075196194520075 0 0 0
406 34 11 0.06 17.084451897952356 5.396521271974473 10.726938026868769 0 0 0
404 34 11 0.06 0.7506805941571872 9.230173098776994 11.97159784756474 1 0 0
475 40 11 0.06 16.068258665189894 5.268363815620973 14.71076993834779 0 0 0
408 34 11 0.06 18.83399576619469 4.907270074654972 10.594756811822364 0 0 0
395 33 11 0.06 16.974047815770795 8.190837167492747 9.807280622025164 0 0 0
390 33 1 0.22 16.365638869711326 8.92713874901215 10.239884985553575 0 0 0
402 34 1 0.22 18.159565036018158 5.728359149397524 10.867130159223603 0 0 0
403 34 11 0.06 1.3989984274884257 7.5575486000672045 12.36430389593249 1 0 0
398 34 20 -0.5 -0.31085722753890505 5.589430339954772 12.561522107773992 1 0 0
397 34 9 0.52 19.8158477033588 6.500399485354748 12.324018424936279 0 0 0
388 33 19 -0.35 16.26860713008022 8.765961406906364 11.632887694698416 0 0 0
400 34 19 -0.35 18.467445099571528 6.166675261340435 12.162067797071094 0 0 0
501 42 11 0.06 3.1398766527163455 10.691463464765741 9.656509110194301 0 0 0
437 37 1 0.22 1.0406095457727669 13.02567216095138 11.765597767708075 1 0 0
439 37 11 0.06 2.041920697859041 12.80356411749952 11.725682583135109 1 0 0
441 37 11 0.06 0.9944085522328756 13.995287677639801 12.3244667822069 1 0 0
718 63 11 0.06 5.0053518009634566 14.086856641115787 13.888170328199676 0 0 0
632 55 20 -0.5 1.9203321723163644 15.38971456756522 14.598579882668234 0 0 0
440 37 11 0.06 0.5338191096204473 13.21079533525218 10.834477541072646 1 0 0
719 63 11 0.06 4.349638169450591 16.019822058374878 11.542458040650995 0 0 0
331 28 11 0.06 3.534355158840489 9.482543246817704 12.167286113441449 0 0 0
716 63 2 0.22 5.270441067528574 14.95304875408031 13.365767523540633 0 0 0
435 37 19 -0.35 0.3269729112528419 12.120235167179507 12.58682358915656 1 0 0
629 54 11 0.06 7.516490624593153 10.19198747800875 14.119450901638446 0 0 0
628 54 11 0.06 9.24305673275028 11.573907859992483 12.11865321315616 0 0 0
625 54 2 0.22 7.597838528476274 11.130139250510215 13.62908842160993 0 0 0
626 54 2 0.22 8.423771568376036 10.905254188864875 12.307843930181718 0 0 0
717 63 11 0.06 6.203787585465717 14.882807312118034 12.87730900682485 0 0 0
622 54 20 -0.5 5.666695947208561 12.69653971068914 11.309093820848728 0 0 0
621 54 9 0.52 6.483859797424894 11.94613310948378 11.881072503715021 0 0 0
624 54 19 -0.35 6.542428108971392 12.049310197920555 13.30742530151172 0 0 0
623 54 19 -0.35 7.5117176987331975 11.227386544783533 11.24581335320476 0 0 0
334 28 11 0.06 4.980280648848647 11.688486866914397 15.261072334589704 0 0 0
627 54 11 0.06 8.80360351053456 9.845297027089849 12.265836055302062 0 0 0
385 33 9 0.52 15.314006027541522 9.707975948547995 12.029136099125955 0 0 0
630 54 11 0.06 8.174197048504698 11.682507543360432 14.362790025723049 0 0 0
391 33 11 0.06 13.759822777679885 7.7272072144479775 14.109976766170249 0 0 0
277 24 9 0.52 12.363458535184211 12.35347567871571 14.645235757522952 0 0 0
278 24 20 -0.5 11.428353988449533 12.602723868712902 15.383407165635246 0 0 0
281 24 1 0.22 13.519172511647838 13.528594982949551 12.937533975769666 0 0 0
279 24 19 -0.35 12.317816173502354 12.895315562142262 13.318257404294151 0 0 0
283 24 11 0.06 13.460433005673908 14.120306790266506 12.006656409509501 0 0 0
285 24 11 0.06 14.452508097758395 13.019863837080766 13.01745115882053 0 0 0
284 24 11 0.06 13.682008720125468 14.33267818721171 13.709630632309382 0 0 0
280 24 19 -0.35 13.410967818484721 11.571611831372797 15.160062263057695 0 0 0
386 33 20 -0.5 15.63174813444403 10.905726381683378 12.193995498915964 0 0 0
442 37 11 0.06 17.65141652078443 10.284801206238992 13.671836303539479 0 0 0
444 37 11 0.06 17.25981846728054 11.980011487180452 13.895663603946065 0 0 0
438 37 1 0.22 18.06110585537585 11.24067171537133 13.752763700402587 0 0 0
433 37 9 0.52 19.88503724053863 12.46399599708364 12.891582524487715 0 0 0
434 37 20 -0.5 19.59915567646251 13.583779630882965 13.363053358227857 0 0 0
436 37 19 -0.35 18.89635337091925 11.479268076359558 12.648822917748017 0 0 0
443 37 11 0.06 18.53296685769665 11.337053535834382 14.714169191258998 0 0 0
515 43 11 0.06 16.74351386042278 16.686294131483685 13.606474625305557 0 0 0
116 10 11 0.06 17.340950037806344 14.024789053502444 15.24383808588304 0 0 0
5 1 1 0.22 3.7240222271114325 19.244900827613726 10.45257742067226 0 -1 0
9 1 11 0.06 3.9474611827543615 20.08802572843821 11.140810564324344 0 -1 0
8 1 11 0.06 4.535267228040349 19.021861717753865 9.832443756255806 0 -1 0
720 63 11 0.06 3.391058477157778 14.745822589621277 12.210408421078093 0 0 0
715 63 2 0.22 4.082929679668277 15.52404536522844 12.508700423353107 0 0 0
714 63 19 -0.35 3.9348000918457107 16.782263877756456 13.075703989360512 0 0 0
257 22 1 0.22 1.3503394026758941 18.55019085329223 13.850792559558577 0 0 0
256 22 19 -0.35 -0.23304438446868897 17.971328498355106 10.851764634002116 0 0 0
255 22 19 -0.35 1.3148671774576333 18.935737340076166 12.522718610955394 0 0 0
260 22 11 0.06 0.5238033360282102 17.809644025344646 14.15063623550852 0 0 0
253 22 9 0.52 0.03486809909296151 18.900475253927958 11.951164981556548 0 0 0
261 22 11 0.06 2.306521943589625 18.109840535742087 14.038571931188851 0 0 0
259 22 11 0.06 1.2930067673837777 19.389800107526 14.500114763802227 0 0 0
264 22 11 0.06 1.0055068428647194 16.59484613721697 11.825616838237952 0 0 0
258 22 1 0.22 0.010487542451105392 16.616587774578605 11.39347380509812 0 0 0
262 22 11 0.06 20.087826324005242 16.26113639278524 12.099665036432299 -1 0 0
711 63 9 0.52 4.8671184840693265 16.94683415192428 14.115481442903643 0 0 0
713 63 19 -0.35 5.73257077620194 15.871197697525828 14.294171848435257 0 0 0
132 11 11 0.06 8.027726787915691 18.65712399211713 10.378180936240042 0 0 0
130 11 11 0.06 6.7836553480688 18.570601913678253 11.6923824263915 0 0 0
712 63 20 -0.5 4.980944501488262 17.981787452197842 14.73740326489345 0 0 0
131 11 11 0.06 8.40729260172693 18.24082510883406 11.967552951726326 0 0 0
201 17 11 0.06 7.0893082245252 19.278307197071335 15.921487949082175 0 -1 0
126 11 1 0.22 7.6497214578502 18.113109804249873 11.294460375516842 0 0 0
124 11 19 -0.35 7.389060396667219 16.70692952182069 11.122701473801913 0 0 0
200 17 11 0.06 8.315326872937986 18.510985874046348 15.126162375743688 0 -1 0
189 16 11 0.06 9.235451188884257 14.27849645043978 15.410756635435657 0 0 0
147 13 19 -0.35 14.698890719236086 0.33481140016188227 12.980533829579876 0 1 0
145 13 9 0.52 13.545557280821184 -0.32713802546318355 12.469183437674465 0 1 0
156 13 11 0.06 11.013430439083207 19.90326292720666 12.007909484973334 0 0 0
152 13 11 0.06 15.650632167409475 19.62512368833184 14.054007970472794 0 0 0
154 13 11 0.06 11.574576709565116 18.92423693749344 13.2552413370323 0 0 0
514 43 11 0.06 17.629967881724973 15.198747648430782 12.95474056756532 0 0 0
27 3 19 -0.35 10.953014779511813 15.239653863176626 11.156418727454584 0 0 0
34 3 11 0.06 11.075563771707266 16.89193579498403 14.830613265571982 0 0 0
26 3 20 -0.5 10.615374276375244 17.53813204766042 11.225742477236444 0 0 0
36 3 11 0.06 11.47171318364731 15.219196339431306 14.572362990735293 0 0 0
146 13 20 -0.5 13.487983694280114 20.28886543284996 11.268988282212334 0 0 0
30 3 1 0.22 10.955030505918876 16.0622616721391 14.084073650673082 0 0 0
35 3 11 0.06 9.891821417603136 15.833144813003964 13.842137356144171 0 0 0
25 3 9 0.52 11.042994105163523 16.4999246614748 11.757133765665879 0 0 0
28 3 19 -0.35 11.676984321051409 16.538187249744702 12.998173181220315 0 0 0
149 13 1 0.22 15.193093810592478 -0.24867425480239475 14.151873335585133 0 1 0
151 13 11 0.06 14.405527944036404 -0.33654245872794064 14.844129786086656 0 1 0
744 71 26 -0.39 13.56436517246104 17.893168907533067 15.467028854805108 0 0 0
509 43 1 0.22 16.26336349584701 19.599616417701483 9.992270119036284 0 0 0
511 43 11 0.06 15.358699340646284 19.396747052267933 9.41261648318722 0 0 0
153 13 11 0.06 15.919586502838941 0.41540289050339896 14.697007245803634 0 1 0
507 43 19 -0.35 17.22109107933118 18.5343468003895 10.14517864464207 0 0 0
516 43 11 0.06 15.88726214666078 15.46490841218954 12.563376209521111 0 0 0
263 22 11 0.06 -0.07528287941986656 15.969896999878086 10.56531526204672 0 0 0
510 43 1 0.22 16.83825809987573 15.974426690991978 12.74730688773589 0 0 0
732 66 31 1 18.47750972608995 19.8026567818262 13.333735704431009 0 -1 0
506 43 20 -0.5 17.54102202285445 18.686536130276522 12.448057884595437 0 0 0
505 43 9 0.52 17.224517192562146 17.972039969140127 11.470040629127176 0 0 0
508 43 19 -0.35 17.36865894572879 16.578419578160364 11.599848424812366 0 0 0
254 22 20 -0.5 19.964248764521336 19.56617313607987 12.528494995265136 -1 0 0
410 35 20 -0.5 18.803547484294896 19.55162893360903 15.069081822879676 0 -1 0
270 23 1 0.22 0.42098063478027137 3.2687880291697886 18.26674731004355 1 0 0
276 23 11 0.06 0.7253973625015211 2.709575926379435 17.375659685819933 1 0 0
754 72 26 -0.39 3.1437439632846225 3.7991829887509407 17.599141769067714 0 0 0
658 57 11 0.06 2.687664415234238 1.2265945018483972 16.8387666038075 0 1 0
656 57 2 0.22 3.716429167763363 0.9740622792158409 16.56534574236428 0 1 0
751 72 26 -0.39 4.807324514897328 3.7504275134370912 18.881030762677618 0 0 0
655 57 2 0.22 4.468903087420749 0.7903240538405574 17.84793388541631 0 1 0
415 35 11 0.06 0.2793431363051234 19.827610854236724 16.963199457315383 1 -1 0
274 23 11 0.06 0.6371751028212695 4.336739288387387 18.127153246902964 1 0 0
660 57 11 0.06 3.9213272985364274 0.8717853007599996 18.834443371549888 0 1 0
413 35 1 0.22 -0.4204984976991355 -0.14368505572315227 17.184388748626198 1 0 0
750 72 27 1.34 4.39313709471463 4.700658430918222 17.755385066441356 0 0 0
653 57 19 -0.35 3.0629542639581655 -0.16786325989858109 16.18553248998508 0 1 0
659 57 11 0.06 5.4353879531085525 1.3685753565564884 17.84213996183049 0 1 0
195 17 19 -0.35 8.689368383548066 -0.18725702984333564 15.414264132206576 0 0 0
204 17 11 0.06 6.673681651676192 1.7548608880418617 13.75799835879633 0 0 0
198 17 1 0.22 7.315384636824516 2.1594012529181987 14.607991119828242 0 0 0
196 17 19 -0.35 7.149146298549352 1.570200541322548 15.923547095234985 0 0 0
202 17 11 0.06 7.196290323794386 3.171714900372445 14.696474050131377 0 0 0
193 17 9 0.52 8.17158450043111 0.7416894443982283 16.304434895729962 0 0 0
194 17 20 -0.5 8.415369131315698 0.6586485522413383 17.463659356417338 0 0 0
344 29 11 0.06 9.134537596689876 3.6142164135166093 17.547263541217994 0 0 -1
756 72 26 -0.39 5.089741520296611 3.820788238535302 16.70400475288055 0 0 0
343 29 11 0.06 7.712894895240577 4.512901419087468 17.03735508885417 0 0 -1
341 29 1 0.22 8.358975163495677 4.255369042185977 17.891841384688803 0 0 -1
339 29 19 -0.35 8.895779609956522 5.3397858453320035 18.577923163753695 0 0 -1
308 26 11 0.06 7.110577075766182 20.292247190079507 19.397330002827708 0 0 -1
309 26 11 0.06 8.40452703266219 19.295653606680176 19.763018188204377 0 0 -1
346 29 11 0.06 12.489982251452055 4.233216808642967 19.224788385183494 0 0 -1
342 29 1 0.22 11.644297363669075 4.846301368815698 19.26051436095343 0 0 -1
456 38 11 0.06 12.953166616414602 2.6906166077383307 14.907432238115996 0 0 0
448 38 19 -0.35 11.200899050628976 1.822817836771204 15.576522428641068 0 0 0
72 6 11 0.06 11.180339445484817 1.585646142669734 -0.2238430624820893 0 1 0
447 38 19 -0.35 12.059813289608634 -0.36558448239716856 16.11606443964972 0 0 0
446 38 20 -0.5 12.559518281942093 1.5486954965051476 17.48951681249062 0 0 0
445 38 9 0.52 12.028494874220424 1.0749931990342418 16.466729972727144 0 0 0
340 29 19 -0.35 10.56229794227823 3.955345199262167 19.504065777798367 0 0 -1
588 50 11 0.06 14.744011794908031 2.1085569236243877 18.74927987246047 0 0 0
585 50 2 0.22 15.055522011370027 0.13658823469237957 18.114000951574816 0 0 0
347 29 11 0.06 11.661341615187576 5.399899778307789 18.33800881634169 0 0 -1
590 50 11 0.06 14.986038211870612 -0.18395706768777328 17.07419807155997 0 0 0
589 50 11 0.06 13.984470216474804 0.08236287078779425 18.552314704061068 0 0 0
57 5 11 0.06 19.475837466823762 3.462510680123315 14.196921071583752 0 0 0
268 23 19 -0.35 19.87422146785756 3.01789239486124 18.50084739010748 0 0 0
587 50 11 0.06 15.275145845209469 1.9310812801386756 17.011142247076698 0 0 0
586 50 2 0.22 15.42309271023348 1.6102001912727095 18.078330050952907 0 0 0
267 23 19 -0.35 19.149636118490236 4.684238384224893 20.199689502467855 0 0 0
272 23 11 0.06 17.286734039834762 3.8725162246775 20.000313966373852 0 0 0
271 23 11 0.06 17.597038243895092 5.359419546426661 19.074431023654526 0 0 0
265 23 9 0.52 19.465989698240598 3.275391424432946 19.837660943469018 0 0 0
582 50 20 -0.5 17.73585250348757 0.19885695873783815 20.15871025562084 0 0 0
581 50 9 0.52 16.729359810705553 0.41526756526238906 19.45408941493156 0 0 0
411 35 19 -0.35 19.041009274480174 -0.36319902455625946 17.066617542105 0 0 0
583 50 19 -0.35 16.525530045288207 1.77456566291999 18.960473039941753 0 0 0
269 23 1 0.22 17.73680599672054 4.911157793948168 20.029150372932207 0 0 0
231 20 19 -0.35 3.884803556161394 10.841292543711198 20.33125782843174 0 0 -1
233 20 1 0.22 3.4347853984207872 11.41762141817119 19.15689264307776 0 0 -1
237 20 11 0.06 2.765100199335838 10.879207279412425 18.562279336599303 0 0 -1
236 20 11 0.06 4.238968205427299 11.807257816096488 18.57607062839609 0 0 -1
755 72 26 -0.39 3.649195862333195 5.6234604831449495 18.837949076264074 0 0 0
752 72 26 -0.39 3.9390852032230477 5.676665622549358 16.634280591918106 0 0 0
235 20 11 0.06 2.756079984085837 12.220768618683975 19.478317017281533 0 0 -1
489 41 11 0.06 1.331653910878382 8.016177428783818 17.168690932432888 0 0 0
251 21 11 0.06 6.310233132948009 5.866811813075147 15.203425450037164 0 0 0
345 29 11 0.06 7.701997359117387 3.6484186543977524 18.391314955166557 0 0 -1
240 20 11 0.06 4.325285274970744 8.35256557580719 18.16040248297257 0 0 -1
753 72 26 -0.39 5.706508988060143 5.533838545232234 17.955340710875205 0 0 0
239 20 11 0.06 5.501309439977994 7.68457239997341 19.035823019160155 0 0 -1
234 20 1 0.22 5.391926113741172 8.522216677872315 18.4102557968304 0 0 -1
232 20 19 -0.35 5.649968818951383 9.748419826162422 19.079317340557076 0 0 -1
238 20 11 0.06 6.052329290005078 8.563800559354188 17.565363574343785 0 0 -1
328 28 19 -0.35 3.5250766891592966 10.430286509427225 15.900217041761083 0 0 0
298 25 11 0.06 14.816997257242308 8.159917975114572 0.3433995516280194 0 0 1
348 29 11 0.06 11.937761642635525 5.466430466224741 20.11175618793696 0 0 -1
19 2 11 0.06 9.716812605602987 8.691134615844042 0.6217759960999505 0 0 0
248 21 11 0.06 9.896820737821479 5.776934327554469 14.769341584736964 0 0 0
337 29 9 0.52 9.432252531155084 4.838583363097431 19.7808825877977 0 0 -1
338 29 20 -0.5 9.379474087467027 5.552425349383264 -0.04819277674719741 0 0 0
571 49 9 0.52 11.427706275479634 8.939193562249876 17.257462951026604 0 0 0
572 49 20 -0.5 11.94407318896229 7.89868254347318 17.008118334258178 0 0 0
478 40 11 0.06 16.106662874338397 7.965580615515973 17.839301097965027 0 0 0
300 25 11 0.06 13.854824538855935 8.903870089374083 19.85640764202305 0 0 0
294 25 1 0.22 14.175919284613649 8.998437844315294 0.05101971538883049 0 0 1
470 40 20 -0.5 14.671394213295173 4.659746049587734 17.876260029262255 0 0 0
480 40 11 0.06 14.774088491386843 6.979552924192459 18.690524605769042 0 0 0
87 8 19 -0.35 19.67818954960444 7.982634554314846 19.982296350793234 0 0 -1
273 23 11 0.06 17.3546886659449 5.415911073050571 0.005534773816822103 0 0 1
86 8 20 -0.5 17.32988683468882 8.008170781202493 20.39678314882873 0 0 -1
487 41 11 0.06 0.34468457185340673 6.997717724677248 17.989931250618632 0 0 0
488 41 11 0.06 1.3386377114775767 6.433413360988076 16.704981272143172 0 0 0
485 41 1 0.22 0.6722817746180656 7.203259706183951 16.978532265334394 0 0 0
469 40 9 0.52 14.703607832639051 5.354441284124396 16.866727536263546 0 0 0
479 40 11 0.06 14.580200559490066 8.15172437976193 17.248300182834264 0 0 0
472 40 19 -0.35 15.523937289248243 6.434122818088107 16.750735827672074 0 0 0
483 41 19 -0.35 -0.26921679481208116 7.618789773014395 16.054011529215714 0 0 0
481 41 9 0.52 19.70054602773744 8.583508082604917 16.501210843596866 -1 0 0
474 40 1 0.22 15.217440308032343 7.3998207123626285 17.730041845010916 0 0 0
482 41 20 -0.5 18.849601100790437 8.926541659382915 15.662431442286449 -1 0 0
484 41 19 -0.35 20.156911802889802 9.611935673156443 17.35185248641792 -1 0 0
631 55 9 0.52 1.264125029821033 15.345622993534613 15.612514502830736 0 0 0
326 28 20 -0.5 2.4003595741304173 8.925652737503995 14.76241121499918 0 0 0
634 55 19 -0.35 1.3088786256146825 14.143871402493094 16.35004788284047 0 0 0
640 55 11 0.06 0.7271835589750801 14.005524454192074 18.40502247603424 0 0 0
635 55 2 0.22 1.182730801554371 14.678706520690724 17.639852811016546 0 0 0
639 55 11 0.06 2.245151931463854 14.728415113486367 17.903115580040534 0 0 0
490 41 11 0.06 -0.1488844107508162 11.476130247018114 17.251096767150543 0 0 0
491 41 11 0.06 1.1420322945982826 10.558602198416924 16.968325097864827 0 0 0
636 55 2 0.22 0.3808601469564793 15.964079669070289 17.50405778772609 0 0 0
363 31 19 -0.35 4.56296845350074 15.279036806065287 18.00688613728741 0 0 0
492 41 11 0.06 0.014573395304705417 10.73631415619302 15.636629468827595 0 0 0
486 41 1 0.22 0.075547138168638 10.59959766982884 16.70431761379681 0 0 0
638 55 11 0.06 20.297824326126587 15.756733053874589 17.884744203293792 -1 0 0
633 55 19 -0.35 0.7443436148634084 16.535514633543748 16.28269314030934 0 0 0
15 2 19 -0.35 8.596929013627665 10.452482993675146 -0.2889736177826416 0 0 0
187 16 11 0.06 8.8758760834051 13.710910162989773 17.00220092576331 0 0 0
336 28 11 0.06 3.6425143735105276 12.485628639484037 16.27170636318875 0 0 0
330 28 1 0.22 3.853417366006063 11.717165268516183 15.48835472245185 0 0 0
335 28 11 0.06 3.2668027920075 12.05268346757599 14.572184779650662 0 0 0
579 49 11 0.06 8.960210726732285 10.531894809519262 18.151480055444857 0 0 0
580 49 11 0.06 9.611946716787878 11.232471076455969 16.847683696045145 0 0 0
575 49 2 0.22 9.81996484767 10.424170666704883 17.503561632712803 0 0 0
362 31 20 -0.5 6.154522099916426 13.715598509732397 18.131205130492354 0 0 0
361 31 9 0.52 5.672519456925603 14.670597897694627 18.711193243487152 0 0 0
364 31 19 -0.35 5.579587358794942 14.719726990320957 20.1659554415782 0 0 0
289 25 9 0.52 13.896514651471444 11.389303033703596 -0.14251091441110342 0 0 1
574 49 19 -0.35 10.126410096560706 9.19727362211755 16.958503654185023 0 0 0
573 49 19 -0.35 12.128564429353514 10.016362469515016 17.95593269913052 0 0 0
293 25 1 0.22 14.900060734299231 13.29414908642889 20.112306612220507 0 0 0
297 25 11 0.06 14.582330612303982 13.584443647998034 0.22772647785540778 0 0 1
288 24 11 0.06 14.132935204425722 13.261529769582644 16.251633661685894 0 0 0
282 24 1 0.22 14.403248548719619 12.281222242284397 15.94926912778592 0 0 0
286 24 11 0.06 14.662367781938443 11.779301571814575 16.921228571955552 0 0 0
287 24 11 0.06 15.400469941149787 12.215804387535982 15.589836606959457 0 0 0
578 49 11 0.06 11.61278978428996 11.681533760444255 17.751375971506825 0 0 0
577 49 11 0.06 10.892163059351672 11.115107480912949 19.281523122726583 0 0 0
576 49 2 0.22 11.046673255938764 10.893978236569566 18.286580331524043 0 0 0
291 25 19 -0.35 14.2056220992679 12.181909532531186 19.59321296609764 0 0 0
117 10 11 0.06 17.475992625709637 14.970490457860837 16.717534854808164 0 0 0
111 10 19 -0.35 18.9590564411144 13.428484262192098 16.362993386401776 0 0 0
109 10 9 0.52 18.5682939720253 12.850520858106808 17.559669391960107 0 0 0
112 10 19 -0.35 17.27655709081354 12.269195079489366 17.63456144679696 0 0 0
114 10 1 0.22 17.47774125476115 10.92272092031354 18.098421057401012 0 0 0
120 10 11 0.06 18.379579963605465 10.688028152620754 18.704850009037948 0 0 0
119 10 11 0.06 17.624482039619643 10.239123438167878 17.27508973769362 0 0 0
118 10 11 0.06 16.594659590868396 10.536145090617664 18.621958815451144 0 0 0
113 10 1 0.22 18.075601475632162 14.43343565714916 15.961337641817098 0 0 0
110 10 20 -0.5 19.239343409668038 13.090014450158364 18.544674746222427 0 0 0
139 12 11 0.06 2.466262632411596 17.807882134739558 0.6845740653377204 1 0 0
137 12 1 0.22 2.4123861479059188 18.363764405649135 -0.24838627382462533 1 0 0
416 35 11 0.06 -0.1354261863450636 0.583185435012848 16.49652804945331 1 0 0
637 55 11 0.06 0.7048613983677725 16.787016991547077 18.143427631462657 0 0 0
141 12 11 0.06 3.4416344776012484 18.75762262916428 -0.3839636800929477 1 0 0
651 57 9 0.52 3.414025094580357 19.728418828511707 17.142458734018632 0 0 0
652 57 20 -0.5 2.613991303062771 18.84157462622246 17.421103758866174 0 0 0
140 12 11 0.06 2.1066853322921535 17.72363188790601 19.781554832228792 1 0 -1
654 57 19 -0.35 4.375623298435155 20.243802843655672 18.13172002381794 0 0 0
369 31 11 0.06 5.077344548302167 17.298446960272507 18.589619824300804 0 0 0
197 17 1 0.22 7.841195634877559 19.563189333474597 15.167012872648462 0 -1 0
307 26 11 0.06 6.8519438491335825 18.56680296211394 19.529555991544136 0 0 -1
188 16 11 0.06 7.712966731769868 14.815691492792471 16.17752600147029 0 0 0
185 16 1 0.22 8.733660686925903 14.54317247856885 16.346431876194444 0 0 0
305 26 1 0.22 7.336401658711459 19.415739909049712 20.015686601497258 0 0 -1
371 31 11 0.06 7.576131452996236 15.427604501220213 -0.09173458152859693 0 0 1
367 31 11 0.06 5.641316150340991 16.81083639045984 16.933143600185154 0 0 0
368 31 11 0.06 3.9091584351626834 16.95499323942675 17.333149751211202 0 0 0
199 17 11 0.06 7.264975787022528 19.82142285727528 14.282010770129089 0 -1 0
365 31 1 0.22 4.888681230046289 16.636819197608446 17.725530192301967 0 0 0
182 16 20 -0.5 8.065298505978381 16.968635479574147 18.142087768926366 0 0 0
183 16 19 -0.35 9.44989715664633 15.665861268683978 16.807980148225028 0 0 0
181 16 9 0.52 9.008780901537094 16.12195923610303 18.073800160063627 0 0 0
184 16 19 -0.35 9.705117076394016 15.712485596158997 19.175282574855224 0 0 0
451 38 11 0.06 11.47073903940018 18.62881426326163 16.744612264234625 0 -1 0
191 16 11 0.06 11.609215546846423 15.983727104040073 20.04334400592701 0 0 0
192 16 11 0.06 11.287042053373241 16.642682887759314 18.478889183785434 0 0 0
449 38 1 0.22 11.576263280968464 19.60925681544918 17.11079560037855 0 -1 0
453 38 11 0.06 10.520248748876067 19.842198289874716 17.431030773081964 0 -1 0
190 16 11 0.06 10.67565838921896 17.49553289239733 19.913985255853312 0 0 0
452 38 11 0.06 12.142626120212205 19.645379882761368 18.047339422038853 0 -1 0
186 16 1 0.22 10.842114250947727 16.522800040718103 19.44444066874815 0 0 0
743 71 27 1.34 14.340296682758627 16.824169906328038 16.359655417421834 0 0 0
745 71 26 -0.39 15.001694151637162 15.80037810010454 17.330768711221275 0 0 0
748 71 26 -0.39 13.795950514834212 17.490966781421363 17.67167934208107 0 0 0
746 71 26 -0.39 13.10633598429682 15.908544372115392 16.381047263963744 0 0 0
747 71 26 -0.39 15.637101190902348 17.72553839088379 16.36520110425416 0 0 0
749 71 26 -0.39 14.835808926127536 16.06294310872024 15.087156165441954 0 0 0
689 60 11 0.06 14.016471537323467 17.32008261041043 0.01803704036064996 0 0 1
115 10 11 0.06 18.812848286924172 15.203834735704154 15.384890308775478 0 0 0
418 35 11 0.06 18.81249752154656 18.250826196877732 18.89729636748693 0 -1 0
690 60 11 0.06 14.908976874007166 18.144429738479616 19.818117221485288 0 0 0
409 35 9 0.52 18.781468569805725 19.34787728859319 16.340417021389463 0 -1 0
412 35 19 -0.35 19.006756318177928 18.08909438270748 16.843864667995646 0 -1 0
584 50 19 -0.35 15.920335925917902 20.202420986830177 18.96182706185281 0 -1 0
420 35 11 0.06 18.088237928170003 16.808322301099587 18.232714470204513 0 -1 0
419 35 11 0.06 17.33759666522984 18.36274745134834 18.09486371892858 0 -1 0
414 35 1 0.22 18.301580851992313 17.878628216505085 18.06907572684723 0 -1 0

Velocities

349 0.007647101723780822 -0.002001230518620497 0.00729842808600595
99 -0.00658348575184894 0.0025493972788662904 -0.00014406042257794188
360 0.007800600054579143 -0.030350132327990623 -0.0077539754968067596
352 -0.003042781861701856 -0.0003246988893094374 0.00044949792043282114
103 0.023563412344372685 -0.021425243700633336 0.0055101598132084
354 0.004698873917078045 0.0008247367422657638 -0.0030076887434004555
358 0.0012659093438798005 -0.010041895739007158 -0.00015541694006791041
105 0.004214053797851999 0.0031411472902492265 0.029452435177528647
359 -0.0042531475843705134 0.016718395827666904 0.0030236875716454386
101 -0.0007622319230417161 0.005305514544828742 0.0011754642229713924
275 -0.019903422321933883 2.3936747188051183e-05 -0.028990029186831637
350 -0.007355314972071212 0.0028472141505615925 -0.004267659229468371
100 -0.0028196233878720577 0.0042289298767965 0.0022163266111246928
102 -0.005505470300451097 -0.0004349698184366968 -0.002562344294102774
222 -0.0028069172383819604 0.0055530710698430625 0.008796807257664612
228 -0.0074272995447334355 -0.0007408564021691645 -0.0370590453652369
108 -0.02387172675740197 0.006511020669672886 0.013253449097696162
106 -0.01913174959252004 -0.001958230802350951 0.006739297612149581
223 -0.010058873694498718 -0.027434662716753617 0.00997367425465298
70 -0.00506121084646927 0.007137329097843378 -0.013894614774722532
226 0.02095600229913628 -0.021939201370294342 0.02493510158881525
220 -0.000726342365279963 -0.0023336531808881593 -0.007343491526285889
219 -0.00121894798989596 -0.0013276301091750926 -0.0061075698907006575
217 -0.007588683568311924 0.007388129005012156 -0.003940079766656691
221 0.0019296339113895463 -0.006805938689832085 -0.0019415108388326178
62 -0.000322019851092923 0.003013234431120776 0.0047249982737294655
71 -0.0027466174382366998 -0.009106615707327912 -0.022831316810227015
698 -0.004243559620379698 -0.012706085285704799 -0.01385361267793763
697 -0.019469137701756702 -0.023952402621812904 -0.008075561560059476
696 0.005792525480736875 0.0029595123897268494 0.003711337140471629
68 0.01226510633537742 -0.009485190013210921 -0.004664003382498988
66 -0.004619349663098735 -0.00015094960116438205 0.003930398281493435
64 -0.006231436808228438 0.004228956247585352 -0.003033362422871587
540 -0.010432104751134125 0.005708746479535665 0.007192302505135219
134 0.004254721577713185 0.006017163533626393 -0.00336654886410237
539 0.029480318403937694 0.017988586688454856 0.02690541380524598
533 9.705086466169642e-05 -0.009578516959803818 0.00561335582204044
529 0.0008982893095574447 -0.0053595706363759035 -0.003912230045114427
531 0.008497780730022502 0.009795513525973342 0.0009184139555829902
532 -0.003438756156300683 -0.002471372537651018 -0.0020711826433632108
733 -0.004475506845059074 -0.0033806576587631903 0.010562449997575355
530 -0.005330800646293452 -0.00511391182976238 0.0032377827898293424
535 -0.016717804274595384 0.008465662138745472 -0.001026429573637854
534 -0.00039056513591116925 0.008180100095128245 0.00010777772384908604
537 -0.0037226890636276756 -0.01451649714994036 0.021466567690062173
536 -0.002082395307846769 -0.014824198647964098 0.008996045886500619
266 0.0009136197959849383 -0.004952424853251256 0.002848542533472998
693 -0.006193051690044288 0.0018598854924727893 -0.002681296172831265
538 0.02739708104006889 0.02602635017116782 0.006463470805417105
104 0.011809632084631216 -0.0110062259392655 -0.0043987135553821295
97 0.001992893952477873 -0.00364150753563684 -0.007581736667629142
206 0.0038886968963321353 -0.008724485625275289 -0.005755278583913326
205 0.0019652352185608375 0.005369643866638414 0.0007157497858642461
208 0.0034297177223946273 0.0021202050589767944 0.009925885692682747
98 -0.0023812799904538518 -0.006689034747296641 -0.00551822846395913
734 -0.003270672206943581 -0.0024500856053317533 -0.0012368179243035856
229 0.0034185643381000634 -0.009254672126142015 -0.001333786426811172
91 -0.027350100358920444 -0.021554458692431253 -0.021610069888488792
107 -0.024875609644485545 -0.018276377427125526 -0.00998040610625999
230 -0.009970012537065812 -0.0012575375644129326 0.0021717529005430627
736 -0.001269470629735016 0.0017495292669541566 -0.00040538737593610565
739 0.011800216737031945 0.008179727915339038 -0.0014712264192053492
741 0.0028672503477767744 0.007842116793259624 -0.0018676612869211974
737 -0.00527864830940275 -0.0005925746050886956 -0.0029204597641298287
17 -0.00960173048787906 -0.0027841678934967776 0.0005875520421527292
21 0.013146397298341038 -0.010253824033681639 -0.0047005286926007465
738 -0.0015441396387905347 0.00812936794865451 0.0029869652148787887
224 0.0007384883075943413 -0.013558513532312995 -0.004345269324349961
740 -0.005892482839987394 -0.003644186491584942 -0.0018891393177586477
20 0.022994820094366555 0.014711034358343152 -0.020691641093763924
225 -0.003515806408215855 -0.004409547333991838 0.012352106881600683
761 0.004042574742237289 0.0031016536655580703 0.0010318310864517364
762 -0.0037760555438445744 0.006054332073138907 -0.0003605791996194766
757 0.001654869829259299 0.0007495617908231755 0.0019222881435280298
763 0.004377310302468978 -0.0004936384630494519 -0.007502443320082896
700 0.006466980830271494 0.003233555011587495 0.00948971700822651
699 -0.004467768383065759 -0.0037932729925893726 0.02986858348479714
695 -0.0022941973557240474 0.0022834365154142497 -0.001978237450904175
758 -0.006585248121168002 0.00040517433789113386 0.0055431168115929515
299 -0.01467070329869719 0.004044668880726274 -0.001828095521774062
92 -0.04239726557751768 -0.018061476743735202 -0.023482732531716444
93 0.04147471377390623 0.0160418114375188 -0.009067307276117252
89 0.001460031469907891 0.0009471943779745615 0.0037139098957211683
692 -0.007836189024700395 -0.0004084305893391945 -0.002289081938592807
691 -0.001379229996267349 -0.0019065505178453219 0.006440108888217066
694 -0.007313438809242858 0.0042184065847599705 -0.003162767233559614
85 0.0046885471762513325 -0.0029135014038957365 -0.007813241859857194
88 0.008034152748787035 0.000734961437684208 -0.0006335948420507182
90 -0.00033772408602210743 0.005677731510102968 -0.00875956793703901
95 -0.029125979785858614 -0.011234152105026032 -0.007731028407634829
96 0.006051943756620164 0.007825821617537138 0.013555514199803852
46 -0.010995950328022986 0.012899133133448116 -0.00405322862202606
215 -0.00607205879095848 0.006865082193904837 0.036062068082515865
210 0.0027079634545191713 0.0020399713516670876 0.004215426400915148
214 0.010502538550663127 -0.02579659072207592 -0.023770874296959846
616 0.01108232823334875 0.005557993158870121 0.001618854034967551
620 0.006284906078970087 -0.04194325035444485 -0.006418863385069911
618 -0.007110942768563049 0.02056894728707485 0.013633100865188024
170 -0.003138209731454504 -0.0043171880466448395 -0.003149825744540387
615 -0.0009488864331691011 -0.006896087320430128 -0.008471321669881602
619 -0.018130470555016136 -0.02301691247420212 0.03032456966708359
614 -0.00047317605717178256 -0.0009874182828576042 -0.00438919736494883
617 -0.017258245763761334 0.005037311891143119 -0.01071061481101149
611 0.005896119709690785 0.004835619099615367 -0.0009028567512974085
216 -0.02948882765757812 0.011532862504064182 -0.004623645019166671
16 0.006958183777429225 0.006471682367153641 0.003924669959528121
22 -0.0030499351228307466 -0.011394106764793657 -0.001768079528430275
18 -3.344339471894861e-06 0.008835989558742166 -0.0019082556764331469
23 -0.006108499821429444 -0.006982790717707256 0.013654611004783187
24 -0.0012041885327432398 -0.005528236073226339 -0.0062324239825502035
13 0.007762320753011955 0.007331027587590505 6.450805473250286e-05
594 -0.0016443649877378084 0.0030454787373114804 -0.010871734596376475
366 0.0022992446658973015 0.00172164276997034 -0.0020955520203774
14 -0.004423337446498131 0.005568181456534879 -0.005552245609816956
370 0.017505405438325954 -0.022536002121233897 -0.003974279848870651
759 0.0012690148073204869 -0.0031694326455311483 0.003697684803486997
672 -0.004972240315237953 -0.003429545899406238 0.0006736029556535306
735 0.0009485130809851829 -0.0005277938509252787 0.011083699421981723
671 -0.003071391874285421 0.003106167003615351 -0.002293379517909354
290 0.0021380095745557994 0.003342423482825412 -0.0015599786982370622
165 0.006030077476024963 -0.004436798398009534 -0.0017848807682658274
295 -0.010665309794675209 0.016167241260954385 -0.0004069104818306161
160 -0.008390827755997447 -0.002450081272714087 0.0030386936811350167
161 0.004341140205238635 -0.0016349916214258755 -0.006086593575446603
674 -0.0018475663083886039 -0.007133670064414406 -0.002098070475728691
599 -0.030954927519831348 0.0027535515268596726 -0.0059834271144893455
292 0.0005734048315751219 0.003699445006355448 -0.0032837751139280147
296 -0.00856202651594692 -0.01715161093790116 0.018835956609675984
94 -0.01353422723423642 -0.002171854139527734 0.013077092416979626
169 0.0008247011377533078 -0.008992417274924936 0.0014470652822177652
177 0.018173873994283284 -0.0042378207959639785 0.0034356697584986854
171 0.002019889617826062 -0.003998614111167114 -0.005317356308264303
176 -0.00247286464254974 0.013518141433752616 -0.01613535625265139
173 0.006970922214981709 0.008739904320667126 0.007754614006992705
172 0.004208619331279795 0.004954173896526906 -0.0021970860490551675
174 -0.0010331375600385632 -0.005903246149554514 -0.005025054387364125
164 0.024593821163800326 -0.02606970377439707 0.012909042619264885
163 -0.026651507325181775 -0.0030342492726480783 -0.015562077584992843
175 0.016781088770732075 -0.008105417661650204 -0.0019722081044596406
427 -0.01651708748389613 0.0017569168896745418 0.009578062252966344
422 -0.0006362843907804673 0.0065912278113334655 0.0014494261769675248
429 -0.005848722162266702 0.0055121562890281875 -0.01647319985370618
613 -0.004866798092912674 -0.004583935248338076 0.007047046828019738
425 0.002478426986860506 0.0065215795564085 0.002899517418088282
133 -0.008530432369943131 -0.006143532025447966 0.009985028277491297
135 -0.004539507281814739 -0.005555286158945683 0.0008260148724229272
612 0.004531664684616785 0.005608006633868348 -0.006360447548411042
428 0.01766385523578899 0.0011590230256949918 0.022615474402672937
311 0.001365436018903909 0.005271861872413988 0.0004823519988540818
310 -0.012263071658015141 0.01104812954219621 0.03921567573871435
372 0.030493383524787185 -0.0052362415623600994 0.032294367577219395
227 -0.02497439397392361 0.015933910699713987 -0.008617341540414256
306 0.0029065515194107703 0.0006282867366699115 0.0017640759225645208
312 0.00527080198368119 0.014387239970779958 -0.005910208829671445
304 0.0058771583198907375 -0.00015193765989276063 -0.0035480027435681296
680 -0.022651249783372893 0.009452797307130488 0.011699252623966214
675 0.011137642339113043 -0.004160996137748066 -5.7089774649079246e-05
679 0.02246072142651646 -0.025619732741906504 0.018458165286323918
302 -0.0023165938084746093 -0.0063439771492880045 0.0027741919192342656
301 -0.0019017705231047016 -0.0008179126424723025 0.0004541804058477313
678 -0.00567544041128241 0.025841197516802316 0.003848588149413188
303 -0.0017357373503354072 -0.002091071469722837 -0.005158637069984676
67 0.009788765838322262 0.002405188392966711 -0.01180589611256138
61 0.005541661639055048 0.0012068245082307238 -0.0010726220315908355
676 -0.009777437467386255 0.0017682039858564096 0.007703259321152102
677 0.00583037185847028 0.03638155168728019 -0.002703715398000369
69 -0.00106733431653857 -0.005052547133309954 -0.011362847730470606
65 -0.0024725030183046174 0.0016122151699865524 0.007833561248771595
63 -0.003130910342469613 0.001501687682568194 -0.002807126590693844
673 -0.0031640835762732685 0.0013991733637848682 0.0013048106532800334
687 -0.014341208951596546 0.03772714858453881 0.002671865904967736
178 0.03016151910237653 -0.012593472613836351 -0.003644753911484181
682 0.0051118803279981044 -0.0061910669798675285 -0.004933811542752925
144 -0.005163956882792048 -0.0014625060606808995 0.023992841514199163
683 0.0016855441444709014 0.004080203038506986 0.0005172351339667964
681 0.004453567282944832 0.0014990078535698393 0.003526781436262161
142 0.027184135551059363 -0.015344760136600738 -0.0061012611716684895
138 0.004143651768283786 -0.006399735811954334 0.008618231086412558
686 -0.0032124093358778167 0.003039522876271976 0.006131206724113481
688 -0.007095322168650461 0.019907970509032792 -0.006906266684722884
703 0.0016488238665237026 0.0003089021761468688 0.004378988678307683
143 -0.02133703758338095 0.008221346070481726 0.004853042811304242
136 0.0014871840572898492 0.00817701461220448 -0.00045820011414822134
684 -0.001008733124313309 0.0008789797177050962 -0.008993890500013955
685 -0.0021820819889702046 -0.005891480704201785 -0.006988993332401914
708 0.008730917423358246 -0.030005805079412477 -0.013227849334350712
39 -0.003395585196853337 0.00035347638698979 0.003771047546415061
41 -0.0031421800288030976 0.009196100508702513 -0.00028402487779936023
44 -0.013226704858697822 0.00735003199584219 -0.02577584699260488
353 -0.007922127185200033 0.005382276733759943 0.0015834273907954803
351 -0.003128233416886617 0.0020831986777558116 0.005405685547510738
356 0.00802240892751047 -0.003389237876510944 -0.0023409017912188685
43 0.01961744184984504 0.012138926327488763 0.01484326142679427
383 -0.004378972157588792 0.01819771933824571 -0.017823356546140947
218 -0.0011656550847662288 0.0034928987156458502 -0.010613848627816771
355 0.030646724865515205 -0.003993378731170723 0.005470313621051731
663 0.0023861908557198793 0.0008723739773093858 -0.0030558527579789617
662 -0.002395208856362994 0.008370428307330405 -0.0009255647252062947
666 0.008907555953458903 0.0036179140953783175 0.009551925075161451
661 -0.0004871499944566112 0.0031580274903623695 -0.007976170640902362
664 -0.0029220565489984206 -0.004820789400559455 -0.002411641395606081
667 0.02108302247642193 -0.019828882647551643 -0.03595216913942686
528 0.022020815220602508 -0.0006294719084864326 -0.012086669714439908
668 0.014208337041802657 -0.015022022087452158 0.025138340958631544
549 0.022671230095919634 0.009085909594630464 -0.007008698281785131
650 -5.988776291830036e-05 -0.03750371743080233 0.007586507214285726
648 0.01417302507107758 0.016117242710976892 0.009429920039162841
645 0.009863186345546096 0.0022947595855740697 -0.008566112623101217
646 0.009678590580712954 0.0030193029291852506 0.006024212622014612
647 -0.002643495597448051 0.02595573250446006 0.007049498613962578
604 -0.0035727267240169436 -0.011592191304161927 0.008057429705614278
609 -0.03475052182831612 0.01364866362624444 -0.020397388700667013
649 -0.026245369911967256 0.0038682806103411045 0.028799518266228914
601 0.007691548997620256 0.002422976420774728 0.0021063805404344894
602 0.0005911432256489996 0.0052399691018243455 0.0013168426673486958
526 -0.002460953243647485 0.025964953268785736 -0.03671518198640192
610 0.018504271349057976 -0.015282180521981317 -0.00144740030223952
605 -0.002316283259413046 -0.0006347073852565592 -0.006567938850047899
45 0.005424285309950828 -0.007633647096793701 0.0019944910812457746
765 -0.00556086414683273 0.0032573978422825887 0.00011770410721205497
770 0.0035168140495378366 -0.0032752714298551807 0.0005637249430034915
769 0.0035630842681410005 0.00176507369688105 0.007015212187289035
767 -0.0038482450071415783 0.00245620323889786 0.003511659443557148
764 0.0012066501017737779 -0.003954059974874443 0.0007596053146295105
766 0.0020577506728722615 0.005578517909318626 0.007390108791391054
11 0.015266416505333546 -0.0027336442562258933 -6.325577555982914e-05
768 -0.0023991155533041666 0.0024755821118912667 -0.0075728006834186205
6 0.0012195036271398872 0.002134420228107657 0.0016425428621781573
10 -0.009762844376349706 0.0009168544200960768 0.011825361070162431
38 0.004644778006787496 -0.0064940614259572935 -0.004042814814123554
207 -0.005696956113980986 0.002249993942345051 0.002807794528512341
37 -0.0063471960801710645 0.0013597048865746338 -0.006609075661486771
40 -0.000895786875610582 -0.005980621351148955 0.0037056941734874096
209 -0.0008360074942789385 0.00010607017267069586 -0.01231296467338312
213 0.01764121040218386 0.01005319436020369 -0.007341450852315902
212 0.015158666194828743 -0.0011446222951281854 0.012395146944842735
211 -0.0016756797192839733 0.01859385307443841 0.009103570175450581
458 -0.006968910864461278 0.0019559231545060347 0.006004287353474234
500 -0.009988671486615601 0.013210779595603475 0.0116351750948028
48 -0.024403082144101643 -0.008117219296385363 0.00562763321911562
384 -0.005549206030962366 -0.010881100566248617 0.011469613166454559
382 0.012913386643678505 -0.027709815822155055 -0.01856722450249229
378 0.015380324233091797 0.004545244264662314 0.0015068179860686793
665 0.00689070766840227 0.013675362143994365 0.004926589977781806
669 0.00031280270334934143 0.0037582881775688106 -0.012461051637090452
742 0.00689366437359996 0.003619031288909111 -0.0037242017789294478
670 -0.005644430814667575 -0.00793852852716088 0.0054062366848364185
460 -0.002961457012783996 -0.0006623055110009651 0.0010917844646411458
457 -6.062304443023916e-05 -0.0009723685864018629 0.0002543411301245111
466 0.005848591139904812 0.003804922872633594 -0.020852664214553653
462 -0.0015254077764255414 0.0029295072158414845 0.001904442718840293
467 0.005319398631522588 0.026265787991777034 0.0030886236042415986
459 0.0028620576663831417 0.0007820535435286091 0.0033654069946019486
321 0.016381568922492352 -0.004336729106824302 0.0012374121934754646
731 0.0028535755130289883 -0.0033276227843981 -0.003775638174218433
314 -0.002671112295036733 -0.002792931647443089 0.0024416108123196762
643 0.003553735295478568 -0.004813270959883605 -0.001980590379417105
317 0.007852733056153924 -0.004910976912580292 0.00030718617198065144
644 0.004231911169705608 -0.006061562512154048 0.007371977689379138
642 0.0008040919426726891 0.007343110013171899 0.001948683266101422
641 0.0017167881558757113 -0.00704740435711267 -0.0009282212116068331
315 -0.004609571523277154 0.0065415303729328975 0.0038468552629442004
313 -0.0028008106512466967 -0.004876944710851115 -0.004784077826820314
316 0.0033786223991607994 -0.006523525715992997 0.0011311035682199406
319 -0.007365557075308385 0.013604729709131416 -0.003748146102764807
559 -0.015356995095702083 0.008004111703150176 -0.029772148809485227
47 -0.00801859635641184 0.004073373179159694 0.0009912044449949986
42 0.004126827551791533 -0.0038196006846085606 0.0029100842063792573
557 -0.0003819635040969019 0.00835004160197128 0.041328934056384076
556 0.0021604561249749573 0.000511709000568838 0.0016226211171408535
553 -0.0030479661241220256 0.0008960199110333708 -0.0029734289189803607
558 0.010283416326801176 -0.00044568669211213886 0.0007794650592942704
555 -0.0005319308198362165 -0.0007951801078788629 -0.0071263475684126484
551 -0.004687726625675669 0.00511341386725169 -0.002224380450361019
396 0.02590887018074237 -0.014926447650635307 -0.03584929028088236
560 0.004679078957499505 -0.03550569459687886 0.033932364598079974
554 -0.003572545460985225 0.003742393118095305 -0.002432280719210715
407 0.0032467612919082 -0.007571626860369938 0.01886525306683765
493 -0.002192405532618585 -0.004300616897557578 0.009036794913270042
496 0.0027157993289217957 -0.006752954096211339 0.012590525113941207
494 0.002228179352967576 -0.00047219493812940673 0.000243299777183962
503 0.014271971969576254 0.009680868487620314 0.02697024884531885
82 -0.015321787361191087 -0.007281582250633738 -0.043258970889119064
498 -0.006584027731836578 -0.0035473122364585163 -0.001055106019888361
502 -0.014082160666810561 -0.006098853300804725 -0.004755124716547734
497 -0.00021219346229438732 -0.009256841595128507 0.0024492510676822014
495 0.0036295573999562836 -0.003848522034671058 -0.004755770061840118
504 -0.01874208582503903 -0.014347512870023536 0.0055929853560608925
78 0.003005147727609932 0.013362176372100302 0.0013333001867953521
83 0.0036073213273803847 0.01122143026206295 0.007140591625617636
592 0.00019114489369101838 0.0006298940505158228 0.0006072084344498513
468 0.012027075895815158 -0.010636994088168315 0.008779961292227792
591 -0.0006621423447185778 -0.001503935651444654 0.008709913509103339
593 -0.0019183036645144171 -0.005602930265433243 -0.002944880996771624
129 -0.014479882378934696 -0.055645197777869505 -0.009949852794187322
595 0.007019887496505994 -0.0008891239673051883 -0.0032562037110982155
598 0.0031004095338848067 -0.006810853860391644 0.01150401427090859
596 -0.005832947315364487 0.006106295717386478 0.006858013368271666
128 0.01785024312877999 -0.014051954434510976 0.0006952639828413097
125 0.0056713458788749645 -0.0026691411063091337 -0.0043949057809787185
123 -0.00426262867282388 -0.0017527588637061282 0.011577450306117225
127 -0.00857566585976192 -0.03241645856145832 -0.020162205803001727
159 -7.615089709413755e-05 -0.0011928600481114669 -0.009532929735540409
157 0.0006077200930054233 0.002210855491370206 0.007943153991692662
322 0.014310346710411427 -0.011414046669315753 0.0015117518416846482
597 -0.0020494377072206187 -0.012784518421047754 -0.007355759608389876
600 -0.031232376172708767 -0.0026136223800694016 0.009587536965736766
760 0.004280620454198841 -0.0030983262373993612 0.0006110366003022303
323 -0.02214705241010909 -0.002792941881615302 -0.007549768699761965
318 0.0002841888017374309 -0.0011904729029666257 -0.003219621591682086
324 0.004073049048943786 -0.0076476283835085835 0.030484511447161175
722 0.0025652082863641796 0.00156248256557566 0.006151511883959443
721 0.005919593884189399 0.0012023411893648322 -0.008865118274126242
32 0.025764257342055355 -0.0029649212824927806 -0.002981034785010904
167 -0.04907479300370549 -0.01151227857026337 0.0360908776790067
179 -0.011686252245060777 -0.025883277178653206 -0.0017633159479608002
552 -0.0039418104497915205 -0.0013345200239174388 0.0020216988334311303
73 -0.0074130161816804525 -0.004326250369787972 0.0005982291801242715
76 0.0014823178342448268 0.00253348550125285 -0.0011045229587016822
84 0.008076927019078979 -0.010198247914643953 0.021524781423279734
74 0.0008171146953634928 0.0029460682154683116 0.0037517483079226315
723 0.0007494746027312087 0.0049820507708117885 0.004405808147792874
724 0.00031407125814512476 -0.0019099134521371201 -0.0025760346916500945
729 0.018558762034862803 0.012934091896076921 0.0014821337666066057
725 0.007294052329105538 -0.0036750403611167802 -0.005128924485869016
730 -0.03011086652861792 -0.00011942625396250488 -0.022753534633195703
726 0.0033926595433841347 -0.0024215246475612663 -0.0038565928593376447
728 -0.013515504295262845 0.03674580568943472 0.01566193373766347
158 -0.002477654186781583 0.0027855587849769095 0.004642423233569996
727 -0.007332497084487573 -0.04393075500318221 -0.03644605286561782
357 -0.00859483366679511 -0.013804365647671265 -0.02162085081797924
423 -0.0018291150121431674 -0.0027940951230046307 0.00377092477468202
75 0.0019048682455166466 0.0027203046109243703 0.003339514155257453
1 -0.0050840230518426855 -0.0033792329164514016 -0.0013558268526775376
4 0.004007627295599279 -0.000927393075162535 -0.006246768102797543
421 -0.0005055456150828513 -0.004216806731601027 0.004324420521030698
3 0.003607429911059898 -0.004474884051256836 0.008715726374392737
424 0.000808991238685167 -0.003394300831675485 0.0031890009112263197
432 0.0031011792874801906 -0.023688175705004998 -0.014993436688171278
426 -0.0015737936578780862 -0.0022013036030453584 -0.002782748461842081
431 0.0005212656682443141 0.009974699476378211 0.01582846268429206
430 0.005150268620900941 0.013139025138980591 0.024368902181605787
81 -0.011806704313025343 0.013160505391363915 -0.02487338847407545
7 0.034909462762655136 0.027452611252560204 0.006534516877321415
547 0.0030533234204683513 -0.008926573288715614 -0.014330628945020385
548 0.0092059407792791 0.018507379846739645 -0.027767808312875855
546 -0.004516711547509505 0.0021753453433560857 0.001705444297325561
550 -0.013868683535672272 -0.0003467899252926053 -0.0032602265728854567
543 -0.0003209208076708695 -0.0030171223316889937 0.005842539136693998
545 0.004137274139850007 0.0026578705831417247 0.00420737813178625
541 0.0035366578364715317 4.190288994409062e-05 -0.0017495640539561517
122 0.0009122322527590343 -0.005164934425560625 -0.0018572572554596458
121 -0.004842393872215663 -0.003947158519498387 -2.9645209709609665e-05
544 -0.00253078358561979 0.00035533182228156843 0.0013767946727598315
542 -0.00010378971479755054 0.0008045284654155104 0.0007547458400473139
707 -0.0017703196427546607 0.012639839121545765 -0.023809268635982078
31 -0.01825488359005913 0.007530796959289109 -0.012186524712953648
33 -0.013566049058653412 0.018125831549537286 -0.04820888788462768
29 -0.004145320138451005 -0.001195759329703313 -0.013133552896608086
166 -0.0030922390436636093 -0.00805544384668868 -0.0007330917488053989
168 0.021033491335644913 -0.017570245542108606 -0.023184418927831425
162 0.0013501135095672287 0.0021414253308123187 -0.0018615403294618557
608 0.004116931636957454 0.010887905977952026 -0.024651464226114618
606 0.004148944094574901 -0.003169183659901524 0.0032980362838820063
603 0.0011294824054079772 -0.0002498270091593881 0.0009842073036628713
607 0.006343694672799576 0.024275692285218402 -0.011042416229379069
180 0.010780987646576765 0.007855018170628645 -0.005796539523925957
706 -0.0006122592781613298 0.0027641808820539483 0.0014736947079486379
12 0.004121458053410929 -0.011141975433698688 0.021257396006570815
77 -0.006161264636687756 -0.0007098479199910037 0.004366555223477176
79 -0.020379248766411104 0.0037738069470190194 0.028648702952622347
710 0.016167014099341757 0.03545339657607901 0.016616170098979827
80 -0.017343605658906993 -0.007669764207797956 0.0033130757198476064
513 -0.0002315930663691965 0.005590228463328635 -0.008704065618999113
702 -0.0006957161971166121 0.00951094488184654 -0.0027804310438066236
701 0.0022270559426121124 -0.001360942381755303 0.006921454972259304
709 -0.021053841542777563 -0.029238540229119182 0.006715226634457608
704 -0.00018394630087029075 -0.00410269795562781 0.0004152963810959336
705 0.0011005606440218849 -0.003913967726303127 -0.0029444516526180887
60 0.013819259064097977 -0.014748365582163928 0.01685130220918546
567 -0.00719913916961561 -8.625371871339397e-06 0.00998029970886126
2 0.0038659467411353184 -0.0022317229455116844 0.003407608566969628
568 -0.009569023173282395 0.0008081665053758407 0.0008694274701742768
374 0.0015444567312001287 -0.0023018885468232544 0.0003418615218714751
59 0.025174403588175652 0.00808379764732275 0.017792642046963104
373 0.0004893135604589465 0.005512061153966552 -0.0037754063953022673
375 0.0033856891341347657 -0.006331517976950094 -0.006840468771009412
657 0.01390306538003204 -0.0004943840460099358 0.0031168788561646704
58 0.004942357514388012 0.011558729603177149 0.01105017091494768
380 0.0059280178955445975 0.02880426949866761 0.0029195597881795225
376 -0.002972281767005128 0.0050713506186270685 -0.002522797624880507
417 -0.03073682472512933 -0.02644945129152242 -0.022045953015288396
566 -0.00188787285285473 0.0034104519275979573 -0.011263581464497624
570 -0.008252436446740733 0.014044002676942348 -0.007969450533136814
563 -0.003762821845624043 -0.008495858731940864 -0.00016866913871163412
561 0.003411909735961728 -0.0009014181482300648 0.0008127961448001359
565 -0.0011833980592211764 0.0007844635498266577 0.00016628959404403962
569 -0.01573346609046832 -0.016756368877324204 0.013321695910841185
564 0.003051387348690213 -0.0019226053714823804 0.0029925313174946665
203 -0.020016187842079133 0.005085765929515584 -0.0008509761582138021
527 -0.0137968420559073 -0.0007488246824743612 -0.0077285100793178145
562 -0.005146873532865022 0.0016927783996217949 0.005430780065689171
522 -0.00506446525044158 0.002351733193786585 0.00021830483981487322
521 0.0019579635026644184 0.002220055874812975 -0.0033130320460539953
520 0.0015741627934164823 0.007512524670912862 0.006836993097695675
148 -0.005473739517261127 -0.002819038557140653 0.0031377466665777507
150 0.0038826760542947387 -0.006110815464945726 0.00032648922725399704
519 0.00030910785342329745 0.0037424221224989264 -0.011260940620236266
517 -0.0023203150970346523 0.003916591618706464 0.0025974712754055626
454 -0.026612741164509374 -0.021808396578993552 -0.03222518807047909
523 -0.00996184970252708 -0.028908242826003128 0.0033322851755111993
525 0.026488223035967026 0.022541690227487966 -0.009925851905933798
155 -0.010574688004367725 -0.0015850602894193597 -0.0004290214992823593
518 0.0012455930942658396 0.006766421101584917 0.000289238996222188
450 0.00355102838492935 -0.010468018424594308 -0.0013195840942059362
455 -0.005334510012794612 -0.041067995254766544 -0.021664337018079582
524 0.013374972755074712 0.014919960987838373 0.0037116087603380633
54 -0.00042176239890262106 -0.0027973971073530857 -0.0049484854162772434
52 0.0032708333942000007 0.008404979247798124 -0.005664735741648987
49 0.001397022356285997 -0.010461654715203534 0.006909439004314983
50 0.004679823736036101 0.0009335026630408722 0.0012706197974695502
51 0.005940204416714188 0.0012171548071554365 0.0005496851462648069
56 0.04000992475943915 -0.0012503001802431975 0.001922351726976352
53 0.0013657002200396526 -0.0018614139724624857 -0.0016572553926825434
55 -0.00905394519548399 0.0019449630432632752 0.024618089968796726
512 -0.025862561697296484 -0.0076571798907423974 -0.035634632093245994
377 0.0009084237768296157 0.0013019527030309378 -0.001793792902325837
327 0.0037258764125988916 0.0055846821144364565 -0.009168272207677757
329 0.002943467323802163 0.00557763626297829 -0.004737721274937958
333 0.0066956000357948665 0.011265959796559498 -0.0018736454050024103
405 0.006311982179923521 0.011549175281728967 0.005747032266820902
401 0.005429197106426565 -0.0005588113564945768 0.007032007074142852
399 0.004711617511821612 -0.0001686753388972596 -0.0051280544097166685
499 0.011986714520788118 0.0033036076323103955 -0.0014569641771392233
381 -0.01893905365875816 -0.015244650648173354 0.009233364652898006
379 0.03776253251932623 -0.005542642872383338 -0.026800488144289515
325 -0.012474622975185055 0.0032665084244413185 -0.0036486284756722127
464 0.01416403453145032 0.008287435449922761 0.011116544453921238
332 0.001499897047262973 -0.004595455595511959 0.0055649218295824535
463 -0.000326449477203354 0.0028003960155062978 0.013174052947997167
461 0.011616144812079508 0.00036382057096543996 -0.0025500113836371676
465 0.01427611154965448 0.010094298041715256 -0.015223515775749447
243 0.002321774453256285 -0.005770619368224612 -0.004114968621120908
241 0.0036270665750864316 0.0028184578096137076 0.004859384712722093
242 0.001510707240673874 -0.0008163715561367635 0.008685017129059691
244 -0.004862210538544197 0.0009732359530251202 0.0037477811577614553
250 0.009348918985997769 0.002082132596207485 -0.01728091643871766
246 -0.0064420288297731675 -0.005065544176288637 0.001368638820366264
320 0.04100484366856551 -0.00785591627062514 0.006531014915006279
252 -0.017562573856618677 0.009837710056116566 -0.015411935686840555
245 -0.0014717069124203185 0.00014730914311615308 -0.00449698185353232
392 -0.012343569336359082 0.010893728466044994 -0.0015393248594691162
393 0.0021159832092763143 0.0026949241349431175 0.002476984707580039
389 0.006371011451380636 -0.004021767820110026 0.0017265940442090697
387 0.006830434231287133 -0.00507029269244411 -0.00016956795576254812
471 0.002922088112065852 0.0006579516285216975 0.009009635445536538
473 -0.002834431545851265 -0.0013552264876066878 0.0069053970298678085
477 -0.007262245394269452 -0.007254845392552179 -0.000998919815476292
247 -0.03521094290468605 0.028724999216252278 -0.048611947410685474
476 0.014106285342387167 -0.026172694484560236 0.023609305629959883
249 0.0032443033867659596 0.009811292523928422 0.031027321910557414
394 -0.008871139179917437 0.004735297403984683 -0.01643966580272918
406 -0.0234584492355884 0.016057760496499044 -0.03259428836760542
404 0.0089160314077866 -0.012538288117664482 0.005704478741503642
475 0.014453274656402941 -0.0003891129034243431 -0.011271466834614354
408 0.004193083779673468 0.009788414312008291 0.015564197251556722
395 -0.0002489542153338917 -0.005531514535503069 -0.026257272605002057
390 -0.0032944973314586613 -0.0008807555097047388 0.009029781146529322
402 -0.009737091644413868 -0.0010402348831035936 -0.004494577184424739
403 -0.006739993803429755 0.028032410024107675 0.014059694735454053
398 0.0016500253812688106 -0.004752238153000809 -0.0003748157806522632
397 -0.006425293630832458 0.001224999077698879 -0.002646149537675737
388 0.00220749977636687 -0.0007770300462020329 -0.004377028802632082
400 -0.000993226522761016 0.003379827969379281 0.0067287137365736075
501 -0.0004942670643786066 0.03833404332013923 -0.0016119337687988072
437 -0.0005383374650407837 0.0019131372900078006 -0.0004280005932591289
439 -0.006598650706189107 -0.0003315757640269487 0.010159593853867948
441 -0.00513274717266717 -0.0020145028329016383 -0.02616700771137892
718 0.0182457407158035 0.017697056502034108 -0.007676485387764891
632 -0.009794025951527943 0.0015354169724746429 -0.0029784330843093047
440 -0.02355339450196112 -0.0014654385451918404 -0.00968278020137473
719 0.03558037106619029 -0.03790516509003541 0.020392317329541255
331 -0.006708326254697215 0.004264412540709849 0.003016971711313674
716 0.003078993508041091 0.0006531446746152359 0.011087869072448742
435 0.007588376610160311 0.005490156209816556 -0.004332058162504802
629 -0.010303317406940323 -0.022109723168679613 0.004247318433169723
628 0.03389444860257442 0.012135370867865963 0.006242065642821954
625 -0.0018634114573442722 -0.00738448659717195 -0.00014223393042137354
626 -0.002942511858665697 -0.003997283989070441 -0.014515546952612642
717 -0.0015050472166203914 0.017823455611705983 0.0006514374942409726
622 -0.0066587151524643675 -0.004748756437471185 -0.005402511958065502
621 -0.009142163489481098 -0.00036710478460633524 0.0007499274854753719
624 -0.0033244268578356234 0.0052728001342315575 -0.0012170869413387893
623 0.0009917731791396808 -0.006325763403005234 -0.004310669987133262
334 0.01108386164220131 -0.010812256707515039 0.003713937663109898
627 0.013049232517011176 0.013086735123636518 -0.04632539279732298
385 -0.0029011342229209886 -0.003970862342077108 -0.0037772711308311537
630 0.015636213716826795 0.018529472480528223 0.020401802780143304
391 -0.007082839865312616 -0.007751233600158366 -0.01668275273372635
277 0.00320150271856663 -0.0013363610043150163 -0.0010281259914316566
278 -0.00197782677379769 0.0015255701423132508 5.565826706934748e-05
281 -0.004984268065999264 0.004043341509066993 -0.004113021599516356
279 -0.002490610370295072 0.003106855271388741 -0.007102031467259895
283 0.023405776271296804 -0.03303203587728856 -0.038549995401286084
285 -0.003011961090182167 0.012125442221338312 0.009376914691864155
284 -0.019584462216883626 0.006622383032552097 -0.009244116919882845
280 -0.001868093242923592 -0.0043727011801649816 -0.006840617723568101
386 -0.005258402133415476 0.0018107882513934402 0.004580021938739912
442 -0.03278338125969228 -0.017946358165702933 0.05941337225099596
444 0.002314018603747722 0.015020781517657218 -0.016501385295167897
438 -0.0017837964112050115 -0.001402685348157198 0.0005882212459435289
433 0.005621096506404845 0.009813868139541899 -0.0025723991943135327
434 0.004902250456082611 0.0011081003615931626 0.002722012492559046
436 -0.0024403154134734323 -0.004225222464775754 -0.0018169322985331835
443 -0.002938530836547669 -0.009386125390931505 0.001260381729036075
515 -0.0017987842776956118 -0.021130165842387347 0.0065100141030058865
116 -0.009054202158973871 -0.0007150199692492014 0.005923448181635114
5 -0.0011021155309565056 0.0021284116689330806 0.0018096772861679177
9 -0.004371811696114186 -0.036553406954207716 0.004962878761984688
8 -0.019085985233861836 -0.011484643825907238 -0.02025384656949638
720 0.004397587596670113 0.010433113437192297 0.014342472927057271
715 -0.004173795891319443 -0.005573814997819597 0.0026250507822640962
714 -0.006559149938991813 0.0057139969093895765 -0.0006889543721833816
257 -0.00319745994678522 -0.004808608634666629 -0.0014888428974902126
256 -0.004003012389685602 0.0013833795387683233 0.001903728318861069
255 0.003992036876689897 -0.00834326109281283 -0.00028303638270526734
260 -0.03248013491897602 0.030321873814453896 -0.01605410959389269
253 -0.0062322730716947 0.005995519615160473 0.0037909945232708193
261 -0.011618398864695645 -0.013924224426791266 -0.011038667123459899
259 -0.008956053490498472 0.006915854248157467 -0.03217273238728516
264 -0.019947404876701165 0.022756933663880857 -0.035617861641822214
258 0.005222965213121924 -0.0005797801761148933 0.00968641761753403
262 0.021434645709348332 0.01798733507340351 -0.008101991610513996
711 -0.0014698251453573487 6.99207463874159e-05 0.0033536809328003287
713 -0.004603389265761091 0.0006087541647310562 -0.0015543393304870545
132 0.014246804825006044 -0.02000612755726706 0.010098349420286755
130 0.03605210677012153 0.0364494848408104 0.00804135697088017
712 -0.00013286411169839487 0.003359453497732864 0.0014982909897432453
131 0.030258453756906986 0.02093089320866402 -0.013717433758133432
201 0.025063518041273623 -0.006822169962401076 0.008712022804407577
126 0.004614905857509667 -0.00021385636352492195 0.008330405111956936
124 -0.0008890676523794438 0.0037081563812617685 -0.004572267156372716
200 -0.016816854105796437 0.016070441927029024 -0.03596493032968819
189 -0.0061871207779429825 0.010295522740073613 -0.006922127062089063
147 0.005629263849144272 0.0010802285572760178 -0.006645969252927552
145 0.007657965324773137 0.004966574669025235 -0.0005779097534209326
156 0.0075538229733617705 0.01249034064662307 0.033275974472186165
152 0.009584795446861806 -0.02911066169397009 -0.014512390467099023
154 0.03005969903435032 0.02654375723887748 -0.0027635101952809596
514 0.03899618810821021 0.0019099439003148872 -0.0005575727395777488
27 0.002589953272736178 0.008564434189915029 0.0024841953779884012
34 -0.018648418255438174 -0.0061299470237668 -0.009162870813848357
26 0.00023769786168304632 0.0001715761375546557 0.003328404164128391
36 0.021247254141582902 -0.009413425238776979 -0.025574454044644326
146 0.005663904977371244 -0.0018566477249538703 -0.0017780240145352528
30 -0.003345485812810077 0.0006699436455141442 0.00040243386505079163
35 -0.025618874609842465 -0.00995682377488355 0.0015857675998960832
25 -0.004984991716102175 -0.005055504896595397 -0.0027080588288933695
28 -0.002215951601192435 0.003478134427473305 -0.0013892747381929781
149 0.00010091343916728724 0.001104218910291205 -0.004372572545912402
151 0.016182959016535707 0.01849391244266426 -0.01736436225170199
744 1.7041907752270658e-05 0.00199641640816363 0.004453906215739758
509 -0.008687086125563398 -0.003178364616779542 1.377977204000309e-05
511 -0.015520523478412046 0.00197071201349736 0.0029267370421260353
153 0.0005240328756410024 -0.009280754229128215 0.006067684157931259
507 0.0015060041913940532 -0.0006523205156765427 -0.0012491852945152437
516 -0.00969993469389633 -0.009369979606636275 0.025324659995557507
263 -0.004457111843746548 -0.03160517972384712 0.0025843517532899984
510 -0.002999638665102562 0.0048034085748991035 0.008891069392627167
732 -0.009510050032818993 -0.0020326835661187443 0.007038988993253471
506 0.002630142077146945 0.007199403817148598 0.00016682543254488376
505 -0.007690740097669359 -0.006052722897900717 0.0020671852827081226
508 -9.354105893947678e-05 0.0001427701423826798 -0.0005803191109663425
254 -0.001255820576787303 4.871744073341456e-05 0.0002746725082841201
410 -0.0037997297415779535 0.007584156829775514 0.002149960589807269
270 -0.0006971261261600056 -0.002054078837068887 -0.0028498228140469454
276 0.005634184946557051 0.0017239562939241166 -0.004821228768113689
754 -0.0005244998172833488 0.004363136454128943 -0.002847436311654144
658 0.05500128223950825 -0.0022718040017716814 -0.01812178413903568
656 0.004449863101357048 -0.0014683657670106435 0.004387613570191683
751 0.00015350906679049026 7.197402054852997e-05 -0.005419204882160336
655 0.004444157338580279 -0.0044923941803842226 0.004480118974693628
415 0.028911383879945865 -0.033908969409160515 -0.01327790241825774
274 0.012747805853486428 0.02844595442993955 -0.021203066103065268
660 0.006509893044171693 0.025861507790423045 0.0033458213127953223
413 0.00650899556279946 -0.006333100855809282 -0.0035842076724985367
750 -0.002217977748607149 0.0004470388204881022 -0.0006889571196235565
653 -0.01010560844035975 -0.00565261221180573 0.0039981122272103415
659 -0.008116808289591602 -0.013145414481026471 0.019423163555943306
195 -0.0020325587322148307 0.0018695162317430723 -0.004248688856214655
204 0.01837930101509731 -0.024645453705078778 0.0018365569148655703
198 -0.00939269053145961 -0.003227354876971389 -0.00023734308938610233
196 -0.006939561652997333 -0.00016183207090735002 0.0027276915003324373
202 -0.012982484217311987 -0.002935324940771466 -0.018468782177948034
193 -0.0047862583166855665 -0.0012824926623843103 0.007033847413733874
194 -0.0025191447254354674 -0.003797132188364677 -0.0037757777435857747
344 0.0304540080062695 0.002584619487012775 -0.0033934577685601534
756 -0.002622870052318841 -3.5856281921388703e-05 0.0015411621147102376
343 -0.0295794587422122 -0.006836537099921623 -0.0030452959618107777
341 0.0029199812232246552 -0.00012083772935189161 0.002097803647658375
339 -0.004289415213241696 7.991049012254307e-05 0.0024962373991796556
308 0.012011832818281554 0.0007651114133695131 -0.005975625661877241
309 0.005605371636501577 -0.005433492689842679 0.02451038423697853
346 0.003191948764767311 -0.011015614199614443 -0.020939339203149374
342 -0.003985170531005204 -0.007526295495425533 0.008674631770253067
456 -0.011726805032869513 -0.004314166282391693 -0.0161045079347796
448 0.012547874779659027 -0.005585808148468348 0.0006183607360907175
72 -0.010636098695227905 0.03771926299817802 0.017602322144781746
447 0.0021892909978066784 -0.0011805828887219783 -0.004398699441887673
446 -0.002754912673148203 -0.0018635186452510173 0.0033863736299755763
445 -0.0029389334063027045 0.00309212159373551 0.011077026673952012
340 0.0022443838149438615 0.004977789672013383 0.0044669148053201385
588 0.04598090469306772 -0.003908112276063815 -0.006051910370043681
585 0.0024576757232519313 0.0017161235018456854 0.0009001354316503614
347 0.027888187985747843 -0.011660319733400391 0.016118886578997817
590 -0.0037400289334968157 -0.026244432287048747 -0.008040340764604465
589 -0.0045882745101103045 -0.006351006024651775 0.023680823292736648
57 -0.024848799708268608 0.01717488904879221 0.026183620827323294
268 0.001160628210208508 0.0046608643140127375 0.004358114320081153
587 -0.01127844174085383 0.017577556200524574 0.012194596751057073
586 0.0049971840279018015 3.671379649588668e-05 -0.007484298475848137
267 -0.002766358702985671 0.002162843965465766 -0.002871683027854921
272 0.005480630030330816 -0.009552246588812506 -0.015331682556809357
271 -0.016493193022374834 -0.0018572535449517438 -0.012620770075187089
265 -0.004134368896128725 0.0013338420240221706 -0.005145705989372768
582 0.0001630380666568355 -0.00019044091077577145 -0.0076977138473092906
581 0.0015178099680702045 0.000911940499513677 -0.0009379889418918414
411 -0.0022997060683398224 -0.00819212037705987 0.0007968057112296527
583 -0.003395707881713481 0.0011459431336615035 0.0016601677626874205
269 -0.0011767336072569827 0.0011801536241023924 -4.818625547938606e-05
231 0.0035348008750279176 0.0005791454446409226 -0.005577691019974456
233 -0.0026920806127491794 -0.0041881659550162854 0.010999867599854775
237 0.004044184367985259 0.005454348443436395 0.0010332858482801277
236 0.023876271458861432 0.008204810479889597 -0.03051147438360847
755 0.00027294721103493936 0.003989754430054888 0.00042757955028689204
752 0.009441186410420523 0.004217988500011991 -0.0013141339271839207
235 -0.00659353086380143 -0.013254489231164934 0.011291340681939065
489 -0.010769622847602002 0.003113935646829589 -0.004660846148586142
251 0.02434337835458003 0.028611655320983427 -0.01755937251213091
345 -0.01134938966392875 -0.03741716873782563 -0.011211061719798932
240 0.010988684207562271 -0.025930438336716505 0.0017869466101422759
753 -0.005130052869302705 -0.011574180032730693 0.006727011040831069
239 0.02443375407127092 -0.01677298757391309 -0.009455229886186023
234 -0.0027876563833756918 -0.0066321211497333415 0.0006298382063940063
232 6.348037886497417e-06 -0.0006613260921606917 -0.003822077167660332
238 -0.004363607807685259 -0.01451800963624495 -0.007288310753856628
328 -0.004159621221489468 -0.00106370701250844 -0.004612787256542475
298 -0.03271524106860664 -0.011823345170405399 -0.012644463147085838
348 0.024194351522898 0.0023178388463623296 -0.0042917171596425305
19 -0.011467767129821059 0.0068538192991944285 -0.010319610939132095
248 0.007677730509455641 0.011237876894818697 -0.007690434652038093
337 -0.0026278559028019436 -0.007647926620399591 0.00234749947496735
338 0.002436192723606214 -0.0010340530805180192 0.0067606033628869145
571 0.005837051856494665 -0.0002142466453070527 -0.0020031635466307074
572 -0.008843382714206397 0.007057443795895468 0.0016782228240925952
478 -0.03194796791652604 0.00798756829641722 0.01060285713074914
300 0.0028823168138650485 -0.000496373748625006 -0.017970007992943036
294 0.004122680128321503 -0.006942784792467323 0.0010298162816620982
470 0.0023650763663806487 -0.00023400459396679334 0.001157413671781932
480 0.013197400047284745 -0.003567497967242703 -0.008709271155905342
87 0.0003836637150756893 0.004749002860845095 -0.002717826280132341
273 0.0011183849230653694 -0.0001901697925990813 -0.013112125650790023
86 0.0031072232699660488 0.0051677681009873 0.0010568654226779672
487 0.021882611065621407 -0.014112291788570807 0.005023784511774624
488 -0.01771632051989939 -0.02079224444231846 -0.039607730260936926
485 -0.0010676787997598125 0.005296104635620496 -0.003570464838808066
469 4.0614177280797465e-05 -0.0013036991653431244 -0.005490922979810065
479 0.003963900152707377 -0.03673243220205499 -0.0033282325886520095
472 0.005348580314297301 -0.0013314567533164112 -0.008541675563624876
483 0.0011617203309902723 -0.003942059454412967 -0.0024116909318000596
481 0.002407436379319523 -0.0022061336719346792 -0.003368479095315927
474 0.0005953128295966326 -0.005022479511036739 0.0018525040849664911
482 0.0014407010868224426 0.0030652942858089022 -0.003290687364401338
484 0.003723859392374775 -0.006159653114130406 0.006572920218086954
631 0.011879531404160246 0.0007688882028802128 -0.007309187642632339
326 -0.00956629391562436 -0.004391250211829025 0.0022571302817004234
634 0.006478678485392329 -0.0011670373314567532 -0.005343756707699149
640 0.0499715910287853 0.06069478146186365 0.008484059273197219
635 0.0009002960071176944 -0.006307997440331384 3.501252075563161e-05
639 0.0007412880344161734 -0.013685812367923565 0.029542225276741507
490 0.008268983147180877 -0.018075603235361237 -0.006805644153213754
491 -0.016480084882367244 0.02795677980743316 -0.013418738108997028
636 -0.007442502508420218 -0.0016810226288487497 0.00472354117566265
363 0.002180698583541463 0.0016322534461384946 0.0048333666516498335
492 0.008099542444636457 -0.006939426888542794 0.0027553874561123547
486 0.010788615463234022 -0.0037684216424460283 0.0011272568133265173
638 0.014864035288671359 -0.009404278848272052 -0.00041228148178438167
633 0.0009106044264348892 -0.0002294507379536606 0.0028953734298292877
15 -0.0009738319519695503 -0.006322646579035167 -0.0009982954424102245
187 -0.027764108427483628 0.020028063017784842 0.004648853580579588
336 -0.030665493102809287 -0.028304028938497518 0.0008705433979801418
330 -0.004486932703046381 -0.003468228596077391 -0.007418018086171124
335 -0.022758928996157446 0.03379188501988288 -0.03759777207805006
579 -0.010370178313734563 -0.011083229849441404 -0.016902852131402427
580 0.021399536617920364 -0.006475532172009456 0.03409399808961695
575 0.006644129623162892 0.0005164336699026859 0.00022392041873798104
362 -0.0009778071671246154 -0.0011915272415109015 -8.38495423692778e-05
361 0.003474612922795428 0.012393971702788336 0.0016784187193562541
364 -0.0019812043428463614 -0.0018929937530834007 -0.0009697119658533286
289 0.0047326218240574935 0.004062375399545504 0.0016189625944195065
574 0.0071068254381940026 0.005200374672993407 0.00424236044082168
573 0.007241727161642013 -0.006536802337569511 0.0021332861003430822
293 0.004233092608502416 -0.0073052760032788185 -0.0017389184933872303
297 0.004903102013381929 -0.0023253995154975345 0.019120474968625713
288 0.021210541893109953 0.010737644509512326 -0.0533378226864377
282 0.0012845200806789806 -0.006655044078472232 0.003263595665631098
286 0.022066314769750472 0.022555879622996728 0.013875194131291102
287 -0.0052357556682710105 0.01669539942127499 0.009507758257917947
578 0.0030412898656561075 -0.000601579723706693 -0.003819641133423912
577 0.0032131219977327074 0.010033629284905246 -0.016895704120410682
576 0.0014451691585251143 4.315116767394641e-05 0.0040864969026142605
291 0.003408164947908532 0.0033713897391296536 0.006099709608483688
117 -0.0036280467237824704 0.007319984827434294 0.003049290162343111
111 -0.0008490670876875805 0.001213398162484813 -0.0031039210573714734
109 -0.0045777730400277175 -0.010296245667562128 0.007670398375505649
112 0.0004400791490250768 0.008544745174658216 0.002781004558586542
114 0.0060636850653102495 0.00409873554916444 -0.001110340822021368
120 0.014275654174166366 0.0014737629302994284 -0.016850437004429657
119 -0.028318659284192225 -0.012379578506182374 0.0031267578492495053
118 -0.005898707553334039 0.022484275130148324 -0.0015376650258477162
113 -0.0005626025065844204 -0.003345469418011265 -0.0078251005964114
110 0.0024138486057488947 0.000816490536480934 0.0010861543523596616
139 0.012732944879754814 -0.016084451720388873 -0.020228392506040915
137 -0.003879360835836891 -0.005918858436773599 -0.0009615535472824044
416 0.03864095057175512 -0.013364894106570366 0.01182361939851911
637 -0.017715821812520433 0.009177770209259382 -0.003393453343067493
141 -0.03235262208804918 -0.004776288947969269 -0.013719838419423308
651 0.0026351262916715907 0.008470490315289916 -0.00039799381726778694
652 0.003844722171344878 0.0058372560016611485 -0.0006956221543413307
140 0.011600263101959617 -0.014121349387160583 -0.007383436962023637
654 -0.003932616039884294 -0.0030189916849050393 0.002227763037135205
369 -0.013652459309525262 -0.005728497687163114 -0.02399505925031801
197 -0.0012991303066852257 -0.0030096176197721173 -0.00020101677839575344
307 -0.005457108305755366 -0.01578656385302027 -0.01840831784772291
188 0.013910167175165392 0.007339119349986857 0.017403684369186698
185 -0.005972593199772218 -0.002453985316044998 0.00605735584506441
305 -0.001358804671298629 -0.0025641693645115696 0.011984391942686076
371 -0.010329486541960935 0.004468186475810629 0.003276178891040275
367 0.02113126477259012 0.001962179673938735 -0.007915673128436149
368 -0.004521946620176166 -0.012933283756348642 0.0056565650617086795
199 -0.03705855927023412 0.010405031281377628 -0.0052213401593963
365 -0.0016278283580277576 -0.001672789902122545 -0.003514087056599637
182 0.0033455786311409174 -0.0038848270395449953 -0.0002902277037925004
183 -0.001985222313181111 -0.004516424965416985 0.00029112209689587733
181 -0.005556514057710129 -0.0009611858181965779 -0.004837499537506224
184 0.0010798306606995707 0.004063325510280489 -0.0035711104664232205
451 -0.029195110255767 -0.02131061974508051 0.006398051675091901
191 -0.007274941335205868 -0.0033990239343960863 -0.023485831091475534
192 0.018331469250630526 -0.01604919645691585 -0.02316655757454575
449 0.005789427842941184 0.0009826534701569119 0.0057022022474181484
453 -0.035800837086690275 0.013262496618059361 -0.0032075979081717405
190 0.0046499507492231695 -0.004359781853320215 -0.012325091345314204
452 -0.027848020888166677 -0.02839059914318718 -0.003638479915894692
186 -3.8506719806141856e-05 -0.0064455202554593175 0.0025445673700475436
743 0.0023965205765719886 0.0029062246704103264 0.0029919362506855176
745 -0.005246996527066502 -0.0024850160456015313 -1.7439609338777112e-05
748 0.0025105196999436158 0.006167281469977391 0.000712016678435884
746 -0.0009953998774632667 0.007843332463204183 -0.005693389172824303
747 -0.003127156415420437 -0.00301467778840477 -0.007072517647651283
749 0.0025427081457533073 0.0006702618328202266 0.0025759505449493626
689 -0.017983649972922507 -0.020084263703757998 0.012415803784255098
115 0.01754497950128839 0.0028547473644333454 0.018686977904861634
418 0.0019800923502407766 0.0034310825108891468 0.01447862396097048
690 -0.02435708462228782 0.03602527140876757 -0.0013820284470408932
409 -0.004716670689990502 0.0011802133433618533 -0.003225176498858452
412 -0.002857357362844777 8.991045193625427e-05 0.002341389472871482
584 -0.0026032472391691293 0.000893099170250463 0.001617936083423763
420 0.009072310034591642 -0.028102196074473996 -0.014753728820892369
419 -0.00011962370753387128 0.01315748333096087 -0.03435237374468303
414 6.569190499459349e-06 0.0003428110135123034 0.00466957734193421

Bonds

1 8 349 350
2 7 349 351
3 7 349 352
4 7 99 101
5 7 352 354
6 4 354 358
7 4 354 359
8 4 354 360
9 4 101 103
10 4 101 104
11 4 101 105
12 7 100 102
13 4 102 106
14 4 102 107
15 4 102 108
16 4 222 226
17 4 222 227
18 4 222 228
19 7 220 222
20 7 219 221
21 8 217 218
22 7 217 219
23 7 217 220
24 4 221 223
25 4 221 224
26 4 221 225
27 4 696 697
28 4 696 698
29 4 66 70
30 4 66 71
31 4 66 72
32 7 64 66
33 4 533 535
34 4 533 536
35 4 533 537
36 8 529 530
37 7 529 531
38 7 529 532
39 7 531 533
40 7 532 534
41 4 534 538
42 4 534 539
43 4 534 540
44 7 693 696
45 8 97 98
46 7 97 99
47 7 97 100
48 8 205 206
49 7 205 207
50 7 205 208
51 7 208 210
52 8 229 230
53 7 229 231
54 7 229 232
55 15 736 737
56 15 736 738
57 15 736 739
58 15 736 740
59 15 736 741
60 15 736 742
61 4 17 19
62 4 17 20
63 4 17 21
64 15 757 758
65 15 757 759
66 15 757 760
67 15 757 761
68 15 757 762
69 15 757 763
70 1 695 696
71 4 695 699
72 4 695 700
73 4 89 91
74 4 89 92
75 4 89 93
76 8 691 692
77 7 691 693
78 7 691 694
79 7 694 695
80 8 85 86
81 7 85 87
82 7 85 88
83 7 88 90
84 4 90 94
85 4 90 95
86 4 90 96
87 4 210 214
88 4 210 215
89 4 210 216
90 4 616 617
91 4 616 618
92 1 615 616
93 4 615 619
94 4 615 620
95 7 614 615
96 8 611 612
97 7 611 613
98 7 611 614
99 7 16 18
100 4 18 22
101 4 18 23
102 4 18 24
103 8 13 14
104 7 13 15
105 7 13 16
106 7 594 595
107 4 366 370
108 4 366 371
109 4 366 372
110 8 671 672
111 7 671 673
112 7 671 674
113 7 160 162
114 4 161 163
115 4 161 164
116 4 161 165
117 7 674 675
118 7 292 294
119 8 169 170
120 7 169 171
121 7 169 172
122 7 171 173
123 4 173 175
124 4 173 176
125 4 173 177
126 7 172 174
127 4 174 178
128 4 174 179
129 4 174 180
130 7 613 616
131 4 425 427
132 4 425 428
133 4 425 429
134 8 133 134
135 7 133 135
136 7 133 136
137 7 135 137
138 4 306 310
139 4 306 311
140 4 306 312
141 7 304 306
142 1 675 676
143 4 675 679
144 4 675 680
145 8 301 302
146 7 301 303
147 7 301 304
148 7 303 305
149 8 61 62
150 7 61 63
151 7 61 64
152 4 676 677
153 4 676 678
154 4 65 67
155 4 65 68
156 4 65 69
157 7 63 65
158 7 673 676
159 7 683 686
160 8 681 682
161 7 681 683
162 7 681 684
163 4 138 142
164 4 138 143
165 4 138 144
166 4 686 687
167 4 686 688
168 7 703 706
169 7 136 138
170 7 684 685
171 1 685 686
172 4 685 689
173 4 685 690
174 7 39 41
175 4 41 43
176 4 41 44
177 4 41 45
178 4 353 355
179 4 353 356
180 4 353 357
181 7 351 353
182 7 663 666
183 4 666 667
184 4 666 668
185 8 661 662
186 7 661 663
187 7 661 664
188 7 664 665
189 1 645 646
190 4 645 649
191 4 645 650
192 4 646 647
193 4 646 648
194 7 604 605
195 8 601 602
196 7 601 603
197 7 601 604
198 1 605 606
199 4 605 609
200 4 605 610
201 15 764 765
202 15 764 766
203 15 764 767
204 15 764 768
205 15 764 769
206 15 764 770
207 4 6 10
208 4 6 11
209 4 6 12
210 7 207 209
211 8 37 38
212 7 37 39
213 7 37 40
214 7 40 42
215 4 209 211
216 4 209 212
217 4 209 213
218 4 378 382
219 4 378 383
220 4 378 384
221 1 665 666
222 4 665 669
223 4 665 670
224 7 460 462
225 8 457 458
226 7 457 459
227 7 457 460
228 4 462 466
229 4 462 467
230 4 462 468
231 7 459 461
232 7 643 646
233 4 317 319
234 4 317 320
235 4 317 321
236 7 644 645
237 8 641 642
238 7 641 643
239 7 641 644
240 7 315 317
241 8 313 314
242 7 313 315
243 7 313 316
244 7 316 318
245 4 42 46
246 4 42 47
247 4 42 48
248 4 556 557
249 4 556 558
250 7 553 556
251 1 555 556
252 4 555 559
253 4 555 560
254 8 551 552
255 7 551 553
256 7 551 554
257 7 554 555
258 8 493 494
259 7 493 495
260 7 493 496
261 7 496 498
262 4 498 502
263 4 498 503
264 4 498 504
265 4 497 499
266 4 497 500
267 4 497 501
268 7 495 497
269 4 78 82
270 4 78 83
271 4 78 84
272 8 591 592
273 7 591 593
274 7 591 594
275 7 593 596
276 1 595 596
277 4 595 599
278 4 595 600
279 4 596 597
280 4 596 598
281 4 125 127
282 4 125 128
283 4 125 129
284 7 123 125
285 7 159 161
286 8 157 158
287 7 157 159
288 7 157 160
289 4 318 322
290 4 318 323
291 4 318 324
292 8 721 722
293 7 721 723
294 7 721 724
295 8 73 74
296 7 73 75
297 7 73 76
298 7 76 78
299 7 723 726
300 7 724 725
301 1 725 726
302 4 725 729
303 4 725 730
304 4 726 727
305 4 726 728
306 7 423 425
307 7 75 77
308 8 1 2
309 7 1 3
310 7 1 4
311 7 4 6
312 8 421 422
313 7 421 423
314 7 421 424
315 7 3 5
316 7 424 426
317 4 426 430
318 4 426 431
319 4 426 432
320 4 546 547
321 4 546 548
322 7 543 546
323 1 545 546
324 4 545 549
325 4 545 550
326 8 541 542
327 7 541 543
328 7 541 544
329 8 121 122
330 7 121 123
331 7 121 124
332 7 544 545
333 4 29 31
334 4 29 32
335 4 29 33
336 4 162 166
337 4 162 167
338 4 162 168
339 4 606 607
340 4 606 608
341 7 603 606
342 4 706 707
343 4 706 708
344 4 77 79
345 4 77 80
346 4 77 81
347 8 701 702
348 7 701 703
349 7 701 704
350 7 704 705
351 1 705 706
352 4 705 709
353 4 705 710
354 8 373 374
355 7 373 375
356 7 373 376
357 7 375 377
358 7 376 378
359 4 566 567
360 4 566 568
361 7 563 566
362 8 561 562
363 7 561 563
364 7 561 564
365 1 565 566
366 4 565 569
367 4 565 570
368 7 564 565
369 4 522 526
370 4 522 527
371 4 522 528
372 4 521 523
373 4 521 524
374 4 521 525
375 7 520 522
376 7 148 150
377 4 150 154
378 4 150 155
379 4 150 156
380 7 519 521
381 8 517 518
382 7 517 519
383 7 517 520
384 4 450 454
385 4 450 455
386 4 450 456
387 4 54 58
388 4 54 59
389 4 54 60
390 7 52 54
391 8 49 50
392 7 49 51
393 7 49 52
394 7 51 53
395 4 53 55
396 4 53 56
397 4 53 57
398 4 377 379
399 4 377 380
400 4 377 381
401 7 327 329
402 4 329 331
403 4 329 332
404 4 329 333
405 4 401 403
406 4 401 404
407 4 401 405
408 7 399 401
409 8 325 326
410 7 325 327
411 7 325 328
412 4 461 463
413 4 461 464
414 4 461 465
415 7 243 245
416 8 241 242
417 7 241 243
418 7 241 244
419 7 244 246
420 4 246 250
421 4 246 251
422 4 246 252
423 4 245 247
424 4 245 248
425 4 245 249
426 4 389 391
427 4 389 392
428 4 389 393
429 7 387 389
430 7 471 473
431 4 473 475
432 4 473 476
433 4 473 477
434 4 390 394
435 4 390 395
436 4 390 396
437 4 402 406
438 4 402 407
439 4 402 408
440 8 397 398
441 7 397 399
442 7 397 400
443 7 388 390
444 7 400 402
445 4 437 439
446 4 437 440
447 4 437 441
448 4 716 717
449 4 716 718
450 7 435 437
451 1 625 626
452 4 625 629
453 4 625 630
454 4 626 627
455 4 626 628
456 8 621 622
457 7 621 623
458 7 621 624
459 7 624 625
460 7 623 626
461 8 385 386
462 7 385 387
463 7 385 388
464 8 277 278
465 7 277 279
466 7 277 280
467 4 281 283
468 4 281 284
469 4 281 285
470 7 279 281
471 7 280 282
472 4 438 442
473 4 438 443
474 4 438 444
475 8 433 434
476 7 433 435
477 7 433 436
478 7 436 438
479 4 5 7
480 4 5 8
481 4 5 9
482 1 715 716
483 4 715 719
484 4 715 720
485 7 714 715
486 4 257 259
487 4 257 260
488 4 257 261
489 7 256 258
490 7 255 257
491 8 253 254
492 7 253 255
493 7 253 256
494 4 258 262
495 4 258 263
496 4 258 264
497 8 711 712
498 7 711 713
499 7 711 714
500 7 713 716
501 4 126 130
502 4 126 131
503 4 126 132
504 7 124 126
505 7 147 149
506 8 145 146
507 7 145 147
508 7 145 148
509 7 27 29
510 4 30 34
511 4 30 35
512 4 30 36
513 8 25 26
514 7 25 27
515 7 25 28
516 7 28 30
517 4 149 151
518 4 149 152
519 4 149 153
520 4 509 511
521 4 509 512
522 4 509 513
523 7 507 509
524 4 510 514
525 4 510 515
526 4 510 516
527 8 505 506
528 7 505 507
529 7 505 508
530 7 508 510
531 4 270 274
532 4 270 275
533 4 270 276
534 4 656 657
535 4 656 658
536 1 655 656
537 4 655 659
538 4 655 660
539 4 413 415
540 4 413 416
541 4 413 417
542 15 750 751
543 15 750 752
544 15 750 753
545 15 750 754
546 15 750 755
547 15 750 756
548 7 653 656
549 7 195 197
550 4 198 202
551 4 198 203
552 4 198 204
553 7 196 198
554 8 193 194
555 7 193 195
556 7 193 196
557 4 341 343
558 4 341 344
559 4 341 345
560 7 339 341
561 4 342 346
562 4 342 347
563 4 342 348
564 7 448 450
565 7 447 449
566 8 445 446
567 7 445 447
568 7 445 448
569 7 340 342
570 1 585 586
571 4 585 589
572 4 585 590
573 7 268 270
574 4 586 587
575 4 586 588
576 7 267 269
577 8 265 266
578 7 265 267
579 7 265 268
580 8 581 582
581 7 581 583
582 7 581 584
583 7 411 413
584 7 583 586
585 4 269 271
586 4 269 272
587 4 269 273
588 7 231 233
589 4 233 235
590 4 233 236
591 4 233 237
592 4 234 238
593 4 234 239
594 4 234 240
595 7 232 234
596 7 328 330
597 8 337 338
598 7 337 339
599 7 337 340
600 8 571 572
601 7 571 573
602 7 571 574
603 4 294 298
604 4 294 299
605 4 294 300
606 7 87 89
607 4 485 487
608 4 485 488
609 4 485 489
610 8 469 470
611 7 469 471
612 7 469 472
613 7 472 474
614 7 483 485
615 8 481 482
616 7 481 483
617 7 481 484
618 4 474 478
619 4 474 479
620 4 474 480
621 7 484 486
622 8 631 632
623 7 631 633
624 7 631 634
625 7 634 635
626 1 635 636
627 4 635 639
628 4 635 640
629 4 636 637
630 4 636 638
631 7 363 365
632 4 486 490
633 4 486 491
634 4 486 492
635 7 633 636
636 7 15 17
637 4 330 334
638 4 330 335
639 4 330 336
640 1 575 576
641 4 575 579
642 4 575 580
643 8 361 362
644 7 361 363
645 7 361 364
646 7 364 366
647 8 289 290
648 7 289 291
649 7 289 292
650 7 574 575
651 7 573 576
652 4 293 295
653 4 293 296
654 4 293 297
655 4 282 286
656 4 282 287
657 4 282 288
658 4 576 577
659 4 576 578
660 7 291 293
661 7 111 113
662 8 109 110
663 7 109 111
664 7 109 112
665 7 112 114
666 4 114 118
667 4 114 119
668 4 114 120
669 4 113 115
670 4 113 116
671 4 113 117
672 4 137 139
673 4 137 140
674 4 137 141
675 8 651 652
676 7 651 653
677 7 651 654
678 7 654 655
679 4 197 199
680 4 197 200
681 4 197 201
682 4 185 187
683 4 185 188
684 4 185 189
685 4 305 307
686 4 305 308
687 4 305 309
688 4 365 367
689 4 365 368
690 4 365 369
691 7 183 185
692 8 181 182
693 7 181 183
694 7 181 184
695 7 184 186
696 4 449 451
697 4 449 452
698 4 449 453
699 4 186 190
700 4 186 191
701 4 186 192
702 15 743 744
703 15 743 745
704 15 743 746
705 15 743 747
706 15 743 748
707 15 743 749
708 8 409 410
709 7 409 411
710 7 409 412
711 7 412 414
712 7 584 585
713 4 414 418
714 4 414 419
715 4 414 420

Angles

1 11 350 349 351
2 11 350 349 352
3 12 351 349 352
4 9 97 99 101
5 9 349 352 354
6 4 352 354 358
7 4 352 354 359
8 4 352 354 360
9 7 358 354 359
10 7 358 354 360
11 7 359 354 360
12 4 99 101 103
13 4 99 101 104
14 4 99 101 105
15 7 103 101 104
16 7 103 101 105
17 7 104 101 105
18 9 97 100 102
19 4 100 102 106
20 4 100 102 107
21 4 100 102 108
22 7 106 102 107
23 7 106 102 108
24 7 107 102 108
25 4 220 222 226
26 4 220 222 227
27 4 220 222 228
28 7 226 222 227
29 7 226 222 228
30 7 227 222 228
31 9 217 220 222
32 9 217 219 221
33 11 218 217 219
34 11 218 217 220
35 12 219 217 220
36 4 219 221 223
37 4 219 221 224
38 4 219 221 225
39 7 223 221 224
40 7 223 221 225
41 7 224 221 225
42 13 693 696 695
43 4 695 696 697
44 4 695 696 698
45 6 697 696 698
46 4 64 66 70
47 4 64 66 71
48 4 64 66 72
49 7 70 66 71
50 7 70 66 72
51 7 71 66 72
52 9 61 64 66
53 4 531 533 535
54 4 531 533 536
55 4 531 533 537
56 7 535 533 536
57 7 535 533 537
58 7 536 533 537
59 11 530 529 531
60 11 530 529 532
61 12 531 529 532
62 9 529 531 533
63 9 529 532 534
64 4 532 534 538
65 4 532 534 539
66 4 532 534 540
67 7 538 534 539
68 7 538 534 540
69 7 539 534 540
70 9 691 693 696
71 11 98 97 99
72 11 98 97 100
73 12 99 97 100
74 11 206 205 207
75 11 206 205 208
76 12 207 205 208
77 9 205 208 210
78 11 230 229 231
79 11 230 229 232
80 12 231 229 232
81 18 737 736 738
82 18 739 736 740
83 18 741 736 742
84 17 737 736 739
85 17 737 736 740
86 17 737 736 741
87 17 737 736 742
88 17 738 736 739
89 17 738 736 740
90 17 738 736 741
91 17 738 736 742
92 17 739 736 741
93 17 739 736 742
94 17 740 736 741
95 17 740 736 742
96 4 15 17 19
97 4 15 17 20
98 4 15 17 21
99 7 19 17 20
100 7 19 17 21
101 7 20 17 21
102 18 758 757 759
103 18 760 757 761
104 18 762 757 763
105 17 758 757 760
106 17 758 757 761
107 17 758 757 762
108 17 758 757 763
109 17 759 757 760
110 17 759 757 761
111 17 759 757 762
112 17 759 757 763
113 17 760 757 762
114 17 760 757 763
115 17 761 757 762
116 17 761 757 763
117 13 694 695 696
118 4 696 695 699
119 4 696 695 700
120 6 699 695 700
121 4 87 89 91
122 4 87 89 92
123 4 87 89 93
124 7 91 89 92
125 7 91 89 93
126 7 92 89 93
127 11 692 691 693
128 11 692 691 694
129 12 693 691 694
130 9 691 694 695
131 11 86 85 87
132 11 86 85 88
133 12 87 85 88
134 9 85 88 90
135 4 88 90 94
136 4 88 90 95
137 4 88 90 96
138 7 94 90 95
139 7 94 90 96
140 7 95 90 96
141 4 208 210 214
142 4 208 210 215
143 4 208 210 216
144 7 214 210 215
145 7 214 210 216
146 7 215 210 216
147 13 613 616 615
148 4 615 616 617
149 4 615 616 618
150 6 617 616 618
151 13 614 615 616
152 4 616 615 619
153 4 616 615 620
154 6 619 615 620
155 9 611 614 615
156 11 612 611 613
157 11 612 611 614
158 12 613 611 614
159 9 13 16 18
160 4 16 18 22
161 4 16 18 23
162 4 16 18 24
163 7 22 18 23
164 7 22 18 24
165 7 23 18 24
166 11 14 13 15
167 11 14 13 16
168 12 15 13 16
169 9 591 594 595
170 4 364 366 370
171 4 364 366 371
172 4 364 366 372
173 7 370 366 371
174 7 370 366 372
175 7 371 366 372
176 11 672 671 673
177 11 672 671 674
178 12 673 671 674
179 9 157 160 162
180 4 159 161 163
181 4 159 161 164
182 4 159 161 165
183 7 163 161 164
184 7 163 161 165
185 7 164 161 165
186 9 671 674 675
187 9 289 292 294
188 11 170 169 171
189 11 170 169 172
190 12 171 169 172
191 9 169 171 173
192 4 171 173 175
193 4 171 173 176
194 4 171 173 177
195 7 175 173 176
196 7 175 173 177
197 7 176 173 177
198 9 169 172 174
199 4 172 174 178
200 4 172 174 179
201 4 172 174 180
202 7 178 174 179
203 7 178 174 180
204 7 179 174 180
205 9 611 613 616
206 4 423 425 427
207 4 423 425 428
208 4 423 425 429
209 7 427 425 428
210 7 427 425 429
211 7 428 425 429
212 11 134 133 135
213 11 134 133 136
214 12 135 133 136
215 9 133 135 137
216 4 304 306 310
217 4 304 306 311
218 4 304 306 312
219 7 310 306 311
220 7 310 306 312
221 7 311 306 312
222 9 301 304 306
223 13 674 675 676
224 4 676 675 679
225 4 676 675 680
226 6 679 675 680
227 11 302 301 303
228 11 302 301 304
229 12 303 301 304
230 9 301 303 305
231 11 62 61 63
232 11 62 61 64
233 12 63 61 64
234 13 673 676 675
235 4 675 676 677
236 4 675 676 678
237 6 677 676 678
238 4 63 65 67
239 4 63 65 68
240 4 63 65 69
241 7 67 65 68
242 7 67 65 69
243 7 68 65 69
244 9 61 63 65
245 9 671 673 676
246 9 681 683 686
247 11 682 681 683
248 11 682 681 684
249 12 683 681 684
250 4 136 138 142
251 4 136 138 143
252 4 136 138 144
253 7 142 138 143
254 7 142 138 144
255 7 143 138 144
256 13 683 686 685
257 4 685 686 687
258 4 685 686 688
259 6 687 686 688
260 9 701 703 706
261 9 133 136 138
262 9 681 684 685
263 13 684 685 686
264 4 686 685 689
265 4 686 685 690
266 6 689 685 690
267 9 37 39 41
268 4 39 41 43
269 4 39 41 44
270 4 39 41 45
271 7 43 41 44
272 7 43 41 45
273 7 44 41 45
274 4 351 353 355
275 4 351 353 356
276 4 351 353 357
277 7 355 353 356
278 7 355 353 357
279 7 356 353 357
280 9 349 351 353
281 9 661 663 666
282 13 663 666 665
283 4 665 666 667
284 4 665 666 668
285 6 667 666 668
286 11 662 661 663
287 11 662 661 664
288 12 663 661 664
289 9 661 664 665
290 13 644 645 646
291 4 646 645 649
292 4 646 645 650
293 6 649 645 650
294 13 643 646 645
295 4 645 646 647
296 4 645 646 648
297 6 647 646 648
298 9 601 604 605
299 11 602 601 603
300 11 602 601 604
301 12 603 601 604
302 13 604 605 606
303 4 606 605 609
304 4 606 605 610
305 6 609 605 610
306 18 765 764 766
307 18 767 764 768
308 18 769 764 770
309 17 765 764 767
310 17 765 764 768
311 17 765 764 769
312 17 765 764 770
313 17 766 764 767
314 17 766 764 768
315 17 766 764 769
316 17 766 764 770
317 17 767 764 769
318 17 767 764 770
319 17 768 764 769
320 17 768 764 770
321 4 4 6 10
322 4 4 6 11
323 4 4 6 12
324 7 10 6 11
325 7 10 6 12
326 7 11 6 12
327 9 205 207 209
328 11 38 37 39
329 11 38 37 40
330 12 39 37 40
331 9 37 40 42
332 4 207 209 211
333 4 207 209 212
334 4 207 209 213
335 7 211 209 212
336 7 211 209 213
337 7 212 209 213
338 4 376 378 382
339 4 376 378 383
340 4 376 378 384
341 7 382 378 383
342 7 382 378 384
343 7 383 378 384
344 13 664 665 666
345 4 666 665 669
346 4 666 665 670
347 6 669 665 670
348 9 457 460 462
349 11 458 457 459
350 11 458 457 460
351 12 459 457 460
352 4 460 462 466
353 4 460 462 467
354 4 460 462 468
355 7 466 462 467
356 7 466 462 468
357 7 467 462 468
358 9 457 459 461
359 9 641 643 646
360 4 315 317 319
361 4 315 317 320
362 4 315 317 321
363 7 319 317 320
364 7 319 317 321
365 7 320 317 321
366 9 641 644 645
367 11 642 641 643
368 11 642 641 644
369 12 643 641 644
370 9 313 315 317
371 11 314 313 315
372 11 314 313 316
373 12 315 313 316
374 9 313 316 318
375 4 40 42 46
376 4 40 42 47
377 4 40 42 48
378 7 46 42 47
379 7 46 42 48
380 7 47 42 48
381 13 553 556 555
382 4 555 556 557
383 4 555 556 558
384 6 557 556 558
385 9 551 553 556
386 13 554 555 556
387 4 556 555 559
388 4 556 555 560
389 6 559 555 560
390 11 552 551 553
391 11 552 551 554
392 12 553 551 554
393 9 551 554 555
394 11 494 493 495
395 11 494 493 496
396 12 495 493 496
397 9 493 496 498
398 4 496 498 502
399 4 496 498 503
400 4 496 498 504
401 7 502 498 503
402 7 502 498 504
403 7 503 498 504
404 4 495 497 499
405 4 495 497 500
406 4 495 497 501
407 7 499 497 500
408 7 499 497 501
409 7 500 497 501
410 9 493 495 497
411 4 76 78 82
412 4 76 78 83
413 4 76 78 84
414 7 82 78 83
415 7 82 78 84
416 7 83 78 84
417 11 592 591 593
418 11 592 591 594
419 12 593 591 594
420 9 591 593 596
421 13 594 595 596
422 4 596 595 599
423 4 596 595 600
424 6 599 595 600
425 13 593 596 595
426 4 595 596 597
427 4 595 596 598
428 6 597 596 598
429 4 123 125 127
430 4 123 125 128
431 4 123 125 129
432 7 127 125 128
433 7 127 125 129
434 7 128 125 129
435 9 121 123 125
436 9 157 159 161
437 11 158 157 159
438 11 158 157 160
439 12 159 157 160
440 4 316 318 322
441 4 316 318 323
442 4 316 318 324
443 7 322 318 323
444 7 322 318 324
445 7 323 318 324
446 11 722 721 723
447 11 722 721 724
448 12 723 721 724
449 11 74 73 75
450 11 74 73 76
451 12 75 73 76
452 9 73 76 78
453 9 721 723 726
454 9 721 724 725
455 13 724 725 726
456 4 726 725 729
457 4 726 725 730
458 6 729 725 730
459 13 723 726 725
460 4 725 726 727
461 4 725 726 728
462 6 727 726 728
463 9 421 423 425
464 9 73 75 77
465 11 2 1 3
466 11 2 1 4
467 12 3 1 4
468 9 1 4 6
469 11 422 421 423
470 11 422 421 424
471 12 423 421 424
472 9 1 3 5
473 9 421 424 426
474 4 424 426 430
475 4 424 426 431
476 4 424 426 432
477 7 430 426 431
478 7 430 426 432
479 7 431 426 432
480 13 543 546 545
481 4 545 546 547
482 4 545 546 548
483 6 547 546 548
484 9 541 543 546
485 13 544 545 546
486 4 546 545 549
487 4 546 545 550
488 6 549 545 550
489 11 542 541 543
490 11 542 541 544
491 12 543 541 544
492 11 122 121 123
493 11 122 121 124
494 12 123 121 124
495 9 541 544 545
496 4 27 29 31
497 4 27 29 32
498 4 27 29 33
499 7 31 29 32
500 7 31 29 33
501 7 32 29 33
502 4 160 162 166
503 4 160 162 167
504 4 160 162 168
505 7 166 162 167
506 7 166 162 168
507 7 167 162 168
508 13 603 606 605
509 4 605 606 607
510 4 605 606 608
511 6 607 606 608
512 9 601 603 606
513 13 703 706 705
514 4 705 706 707
515 4 705 706 708
516 6 707 706 708
517 4 75 77 79
518 4 75 77 80
519 4 75 77 81
520 7 79 77 80
521 7 79 77 81
522 7 80 77 81
523 11 702 701 703
524 11 702 701 704
525 12 703 701 704
526 9 701 704 705
527 13 704 705 706
528 4 706 705 709
529 4 706 705 710
530 6 709 705 710
531 11 374 373 375
532 11 374 373 376
533 12 375 373 376
534 9 373 375 377
535 9 373 376 378
536 13 563 566 565
537 4 565 566 567
538 4 565 566 568
539 6 567 566 568
540 9 561 563 566
541 11 562 561 563
542 11 562 561 564
543 12 563 561 564
544 13 564 565 566
545 4 566 565 569
546 4 566 565 570
547 6 569 565 570
548 9 561 564 565
549 4 520 522 526
550 4 520 522 527
551 4 520 522 528
552 7 526 522 527
553 7 526 522 528
554 7 527 522 528
555 4 519 521 523
556 4 519 521 524
557 4 519 521 525
558 7 523 521 524
559 7 523 521 525
560 7 524 521 525
561 9 517 520 522
562 9 145 148 150
563 4 148 150 154
564 4 148 150 155
565 4 148 150 156
566 7 154 150 155
567 7 154 150 156
568 7 155 150 156
569 9 517 519 521
570 11 518 517 519
571 11 518 517 520
572 12 519 517 520
573 4 448 450 454
574 4 448 450 455
575 4 448 450 456
576 7 454 450 455
577 7 454 450 456
578 7 455 450 456
579 4 52 54 58
580 4 52 54 59
581 4 52 54 60
582 7 58 54 59
583 7 58 54 60
584 7 59 54 60
585 9 49 52 54
586 11 50 49 51
587 11 50 49 52
588 12 51 49 52
589 9 49 51 53
590 4 51 53 55
591 4 51 53 56
592 4 51 53 57
593 7 55 53 56
594 7 55 53 57
595 7 56 53 57
596 4 375 377 379
597 4 375 377 380
598 4 375 377 381
599 7 379 377 380
600 7 379 377 381
601 7 380 377 381
602 9 325 327 329
603 4 327 329 331
604 4 327 329 332
605 4 327 329 333
606 7 331 329 332
607 7 331 329 333
608 7 332 329 333
609 4 399 401 403
610 4 399 401 404
611 4 399 401 405
612 7 403 401 404
613 7 403 401 405
614 7 404 401 405
615 9 397 399 401
616 11 326 325 327
617 11 326 325 328
618 12 327 325 328
619 4 459 461 463
620 4 459 461 464
621 4 459 461 465
622 7 463 461 464
623 7 463 461 465
624 7 464 461 465
625 9 241 243 245
626 11 242 241 243
627 11 242 241 244
628 12 243 241 244
629 9 241 244 246
630 4 244 246 250
631 4 244 246 251
632 4 244 246 252
633 7 250 246 251
634 7 250 246 252
635 7 251 246 252
636 4 243 245 247
637 4 243 245 248
638 4 243 245 249
639 7 247 245 248
640 7 247 245 249
641 7 248 245 249
642 4 387 389 391
643 4 387 389 392
644 4 387 389 393
645 7 391 389 392
646 7 391 389 393
647 7 392 389 393
648 9 385 387 389
649 9 469 471 473
650 4 471 473 475
651 4 471 473 476
652 4 471 473 477
653 7 475 473 476
654 7 475 473 477
655 7 476 473 477
656 4 388 390 394
657 4 388 390 395
658 4 388 390 396
659 7 394 390 395
660 7 394 390 396
661 7 395 390 396
662 4 400 402 406
663 4 400 402 407
664 4 400 402 408
665 7 406 402 407
666 7 406 402 408
667 7 407 402 408
668 11 398 397 399
669 11 398 397 400
670 12 399 397 400
671 9 385 388 390
672 9 397 400 402
673 4 435 437 439
674 4 435 437 440
675 4 435 437 441
676 7 439 437 440
677 7 439 437 441
678 7 440 437 441
679 13 713 716 715
680 4 715 716 717
681 4 715 716 718
682 6 717 716 718
683 9 433 435 437
684 13 624 625 626
685 4 626 625 629
686 4 626 625 630
687 6 629 625 630
688 13 623 626 625
689 4 625 626 627
690 4 625 626 628
691 6 627 626 628
692 11 622 621 623
693 11 622 621 624
694 12 623 621 624
695 9 621 624 625
696 9 621 623 626
697 11 386 385 387
698 11 386 385 388
699 12 387 385 388
700 11 278 277 279
701 11 278 277 280
702 12 279 277 280
703 4 279 281 283
704 4 279 281 284
705 4 279 281 285
706 7 283 281 284
707 7 283 281 285
708 7 284 281 285
709 9 277 279 281
710 9 277 280 282
711 4 436 438 442
712 4 436 438 443
713 4 436 438 444
714 7 442 438 443
715 7 442 438 444
716 7 443 438 444
717 11 434 433 435
718 11 434 433 436
719 12 435 433 436
720 9 433 436 438
721 4 3 5 7
722 4 3 5 8
723 4 3 5 9
724 7 7 5 8
725 7 7 5 9
726 7 8 5 9
727 13 714 715 716
728 4 716 715 719
729 4 716 715 720
730 6 719 715 720
731 9 711 714 715
732 4 255 257 259
733 4 255 257 260
734 4 255 257 261
735 7 259 257 260
736 7 259 257 261
737 7 260 257 261
738 9 253 256 258
739 9 253 255 257
740 11 254 253 255
741 11 254 253 256
742 12 255 253 256
743 4 256 258 262
744 4 256 258 263
745 4 256 258 264
746 7 262 258 263
747 7 262 258 264
748 7 263 258 264
749 11 712 711 713
750 11 712 711 714
751 12 713 711 714
752 9 711 713 716
753 4 124 126 130
754 4 124 126 131
755 4 124 126 132
756 7 130 126 131
757 7 130 126 132
758 7 131 126 132
759 9 121 124 126
760 9 145 147 149
761 11 146 145 147
762 11 146 145 148
763 12 147 145 148
764 9 25 27 29
765 4 28 30 34
766 4 28 30 35
767 4 28 30 36
768 7 34 30 35
769 7 34 30 36
770 7 35 30 36
771 11 26 25 27
772 11 26 25 28
773 12 27 25 28
774 9 25 28 30
775 4 147 149 151
776 4 147 149 152
777 4 147 149 153
778 7 151 149 152
779 7 151 149 153
780 7 152 149 153
781 4 507 509 511
782 4 507 509 512
783 4 507 509 513
784 7 511 509 512
785 7 511 509 513
786 7 512 509 513
787 9 505 507 509
788 4 508 510 514
789 4 508 510 515
790 4 508 510 516
791 7 514 510 515
792 7 514 510 516
793 7 515 510 516
794 11 506 505 507
795 11 506 505 508
796 12 507 505 508
797 9 505 508 510
798 4 268 270 274
799 4 268 270 275
800 4 268 270 276
801 7 274 270 275
802 7 274 270 276
803 7 275 270 276
804 13 653 656 655
805 4 655 656 657
806 4 655 656 658
807 6 657 656 658
808 13 654 655 656
809 4 656 655 659
810 4 656 655 660
811 6 659 655 660
812 4 411 413 415
813 4 411 413 416
814 4 411 413 417
815 7 415 413 416
816 7 415 413 417
817 7 416 413 417
818 18 751 750 752
819 18 753 750 754
820 18 755 750 756
821 17 751 750 753
822 17 751 750 754
823 17 751 750 755
824 17 751 750 756
825 17 752 750 753
826 17 752 750 754
827 17 752 750 755
828 17 752 750 756
829 17 753 750 755
830 17 753 750 756
831 17 754 750 755
832 17 754 750 756
833 9 651 653 656
834 9 193 195 197
835 4 196 198 202
836 4 196 198 203
837 4 196 198 204
838 7 202 198 203
839 7 202 198 204
840 7 203 198 204
841 9 193 196 198
842 11 194 193 195
843 11 194 193 196
844 12 195 193 196
845 4 339 341 343
846 4 339 341 344
847 4 339 341 345
848 7 343 341 344
849 7 343 341 345
850 7 344 341 345
851 9 337 339 341
852 4 340 342 346
853 4 340 342 347
854 4 340 342 348
855 7 346 342 347
856 7 346 342 348
857 7 347 342 348
858 9 445 448 450
859 9 445 447 449
860 11 446 445 447
861 11 446 445 448
862 12 447 445 448
863 9 337 340 342
864 13 584 585 586
865 4 586 585 589
866 4 586 585 590
867 6 589 585 590
868 9 265 268 270
869 13 583 586 585
870 4 585 586 587
871 4 585 586 588
872 6 587 586 588
873 9 265 267 269
874 11 266 265 267
875 11 266 265 268
876 12 267 265 268
877 11 582 581 583
878 11 582 581 584
879 12 583 581 584
880 9 409 411 413
881 9 581 583 586
882 4 267 269 271
883 4 267 269 272
884 4 267 269 273
885 7 271 269 272
886 7 271 269 273
887 7 272 269 273
888 9 229 231 233
889 4 231 233 235
890 4 231 233 236
891 4 231 233 237
892 7 235 233 236
893 7 235 233 237
894 7 236 233 237
895 4 232 234 238
896 4 232 234 239
897 4 232 234 240
898 7 238 234 239
899 7 238 234 240
900 7 239 234 240
901 9 229 232 234
902 9 325 328 330
903 11 338 337 339
904 11 338 337 340
905 12 339 337 340
906 11 572 571 573
907 11 572 571 574
908 12 573 571 574
909 4 292 294 298
910 4 292 294 299
911 4 292 294 300
912 7 298 294 299
913 7 298 294 300
914 7 299 294 300
915 9 85 87 89
916 4 483 485 487
917 4 483 485 488
918 4 483 485 489
919 7 487 485 488
920 7 487 485 489
921 7 488 485 489
922 11 470 469 471
923 11 470 469 472
924 12 471 469 472
925 9 469 472 474
926 9 481 483 485
927 11 482 481 483
928 11 482 481 484
929 12 483 481 484
930 4 472 474 478
931 4 472 474 479
932 4 472 474 480
933 7 478 474 479
934 7 478 474 480
935 7 479 474 480
936 9 481 484 486
937 11 632 631 633
938 11 632 631 634
939 12 633 631 634
940 9 631 634 635
941 13 634 635 636
942 4 636 635 639
943 4 636 635 640
944 6 639 635 640
945 13 633 636 635
946 4 635 636 637
947 4 635 636 638
948 6 637 636 638
949 9 361 363 365
950 4 484 486 490
951 4 484 486 491
952 4 484 486 492
953 7 490 486 491
954 7 490 486 492
955 7 491 486 492
956 9 631 633 636
957 9 13 15 17
958 4 328 330 334
959 4 328 330 335
960 4 328 330 336
961 7 334 330 335
962 7 334 330 336
963 7 335 330 336
964 13 574 575 576
965 4 576 575 579
966 4 576 575 580
967 6 579 575 580
968 11 362 361 363
969 11 362 361 364
970 12 363 361 364
971 9 361 364 366
972 11 290 289 291
973 11 290 289 292
974 12 291 289 292
975 9 571 574 575
976 9 571 573 576
977 4 291 293 295
978 4 291 293 296
979 4 291 293 297
980 7 295 293 296
981 7 295 293 297
982 7 296 293 297
983 4 280 282 286
984 4 280 282 287
985 4 280 282 288
986 7 286 282 287
987 7 286 282 288
988 7 287 282 288
989 13 573 576 575
990 4 575 576 577
991 4 575 576 578
992 6 577 576 578
993 9 289 291 293
994 9 109 111 113
995 11 110 109 111
996 11 110 109 112
997 12 111 109 112
998 9 109 112 114
999 4 112 114 118
1000 4 112 114 119
1001 4 112 114 120
1002 7 118 114 119
1003 7 118 114 120
1004 7 119 114 120
1005 4 111 113 115
1006 4 111 113 116
1007 4 111 113 117
1008 7 115 113 116
1009 7 115 113 117
1010 7 116 113 117
1011 4 135 137 139
1012 4 135 137 140
1013 4 135 137 141
1014 7 139 137 140
1015 7 139 137 141
1016 7 140 137 141
1017 11 652 651 653
1018 11 652 651 654
1019 12 653 651 654
1020 9 651 654 655
1021 4 195 197 199
1022 4 195 197 200
1023 4 195 197 201
1024 7 199 197 200
1025 7 199 197 201
1026 7 200 197 201
1027 4 183 185 187
1028 4 183 185 188
1029 4 183 185 189
1030 7 187 185 188
1031 7 187 185 189
1032 7 188 185 189
1033 4 303 305 307
1034 4 303 305 308
1035 4 303 305 309
1036 7 307 305 308
1037 7 307 305 309
1038 7 308 305 309
1039 4 363 365 367
1040 4 363 365 368
1041 4 363 365 369
1042 7 367 365 368
1043 7 367 365 369
1044 7 368 365 369
1045 9 181 183 185
1046 11 182 181 183
1047 11 182 181 184
1048 12 183 181 184
1049 9 181 184 186
1050 4 447 449 451
1051 4 447 449 452
1052 4 447 449 453
1053 7 451 449 452
1054 7 451 449 453
1055 7 452 449 453
1056 4 184 186 190
1057 4 184 186 191
1058 4 184 186 192
1059 7 190 186 191
1060 7 190 186 192
1061 7 191 186 192
1062 18 744 743 745
1063 18 746 743 747
1064 18 748 743 749
1065 17 744 743 746
1066 17 744 743 747
1067 17 744 743 748
1068 17 744 743 749
1069 17 745 743 746
1070 17 745 743 747
1071 17 745 743 748
1072 17 745 743 749
1073 17 746 743 748
1074 17 746 743 749
1075 17 747 743 748
1076 17 747 743 749
1077 11 410 409 411
1078 11 410 409 412
1079 12 411 409 412
1080 9 409 412 414
1081 9 581 584 585
1082 4 412 414 418
1083 4 412 414 419
1084 4 412 414 420
1085 7 418 414 419
1086 7 418 414 420
1087 7 419 414 420

Dihedrals

1 8 350 349 351 353
2 8 350 349 352 354
3 6 97 99 101 103
4 6 97 99 101 104
5 6 97 99 101 105
6 6 349 352 354 358
7 6 349 352 354 359
8 6 349 352 354 360
9 6 97 100 102 106
10 6 97 100 102 107
11 6 97 100 102 108
12 6 217 220 222 226
13 6 217 220 222 227
14 6 217 220 222 228
15 6 217 219 221 223
16 6 217 219 221 224
17 6 217 219 221 225
18 8 218 217 219 221
19 8 218 217 220 222
20 7 693 696 695 694
21 6 61 64 66 70
22 6 61 64 66 71
23 6 61 64 66 72
24 8 530 529 531 533
25 8 530 529 532 534
26 6 529 531 533 535
27 6 529 531 533 536
28 6 529 531 533 537
29 6 529 532 534 538
30 6 529 532 534 539
31 6 529 532 534 540
32 5 691 693 696 695
33 8 98 97 99 101
34 8 98 97 100 102
35 8 206 205 207 209
36 8 206 205 208 210
37 6 205 208 210 214
38 6 205 208 210 215
39 6 205 208 210 216
40 8 230 229 231 233
41 8 230 229 232 234
42 8 692 691 693 696
43 8 692 691 694 695
44 7 691 694 695 696
45 8 86 85 87 89
46 8 86 85 88 90
47 6 85 88 90 94
48 6 85 88 90 95
49 6 85 88 90 96
50 7 613 616 615 614
51 7 611 614 615 616
52 8 612 611 613 616
53 8 612 611 614 615
54 6 13 16 18 22
55 6 13 16 18 23
56 6 13 16 18 24
57 8 14 13 15 17
58 8 14 13 16 18
59 7 591 594 595 596
60 8 672 671 673 676
61 8 672 671 674 675
62 6 157 160 162 166
63 6 157 160 162 167
64 6 157 160 162 168
65 7 671 674 675 676
66 6 289 292 294 298
67 6 289 292 294 299
68 6 289 292 294 300
69 8 170 169 171 173
70 8 170 169 172 174
71 6 169 171 173 175
72 6 169 171 173 176
73 6 169 171 173 177
74 6 169 172 174 178
75 6 169 172 174 179
76 6 169 172 174 180
77 5 611 613 616 615
78 8 134 133 135 137
79 8 134 133 136 138
80 6 133 135 137 139
81 6 133 135 137 140
82 6 133 135 137 141
83 6 301 304 306 310
84 6 301 304 306 311
85 6 301 304 306 312
86 8 302 301 303 305
87 8 302 301 304 306
88 6 301 303 305 307
89 6 301 303 305 308
90 6 301 303 305 309
91 8 62 61 63 65
92 8 62 61 64 66
93 7 673 676 675 674
94 6 61 63 65 67
95 6 61 63 65 68
96 6 61 63 65 69
97 5 671 673 676 675
98 5 681 683 686 685
99 8 682 681 683 686
100 8 682 681 684 685
101 7 683 686 685 684
102 5 701 703 706 705
103 6 133 136 138 142
104 6 133 136 138 143
105 6 133 136 138 144
106 7 681 684 685 686
107 6 37 39 41 43
108 6 37 39 41 44
109 6 37 39 41 45
110 6 349 351 353 355
111 6 349 351 353 356
112 6 349 351 353 357
113 5 661 663 666 665
114 7 663 666 665 664
115 8 662 661 663 666
116 8 662 661 664 665
117 7 661 664 665 666
118 7 643 646 645 644
119 7 601 604 605 606
120 8 602 601 603 606
121 8 602 601 604 605
122 6 205 207 209 211
123 6 205 207 209 212
124 6 205 207 209 213
125 8 38 37 39 41
126 8 38 37 40 42
127 6 37 40 42 46
128 6 37 40 42 47
129 6 37 40 42 48
130 6 457 460 462 466
131 6 457 460 462 467
132 6 457 460 462 468
133 8 458 457 459 461
134 8 458 457 460 462
135 6 457 459 461 463
136 6 457 459 461 464
137 6 457 459 461 465
138 5 641 643 646 645
139 7 641 644 645 646
140 8 642 641 643 646
141 8 642 641 644 645
142 6 313 315 317 319
143 6 313 315 317 320
144 6 313 315 317 321
145 8 314 313 315 317
146 8 314 313 316 318
147 6 313 316 318 322
148 6 313 316 318 323
149 6 313 316 318 324
150 7 553 556 555 554
151 5 551 553 556 555
152 8 552 551 553 556
153 8 552 551 554 555
154 7 551 554 555 556
155 8 494 493 495 497
156 8 494 493 496 498
157 6 493 496 498 502
158 6 493 496 498 503
159 6 493 496 498 504
160 6 493 495 497 499
161 6 493 495 497 500
162 6 493 495 497 501
163 8 592 591 593 596
164 8 592 591 594 595
165 5 591 593 596 595
166 7 593 596 595 594
167 6 121 123 125 127
168 6 121 123 125 128
169 6 121 123 125 129
170 6 157 159 161 163
171 6 157 159 161 164
172 6 157 159 161 165
173 8 158 157 159 161
174 8 158 157 160 162
175 8 722 721 723 726
176 8 722 721 724 725
177 8 74 73 75 77
178 8 74 73 76 78
179 6 73 76 78 82
180 6 73 76 78 83
181 6 73 76 78 84
182 5 721 723 726 725
183 7 721 724 725 726
184 7 723 726 725 724
185 6 421 423 425 427
186 6 421 423 425 428
187 6 421 423 425 429
188 6 73 75 77 79
189 6 73 75 77 80
190 6 73 75 77 81
191 8 2 1 3 5
192 8 2 1 4 6
193 6 1 4 6 10
194 6 1 4 6 11
195 6 1 4 6 12
196 8 422 421 423 425
197 8 422 421 424 426
198 6 1 3 5 7
199 6 1 3 5 8
200 6 1 3 5 9
201 6 421 424 426 430
202 6 421 424 426 431
203 6 421 424 426 432
204 7 543 546 545 544
205 5 541 543 546 545
206 8 542 541 543 546
207 8 542 541 544 545
208 8 122 121 123 125
209 8 122 121 124 126
210 7 541 544 545 546
211 7 603 606 605 604
212 5 601 603 606 605
213 7 703 706 705 704
214 8 702 701 703 706
215 8 702 701 704 705
216 7 701 704 705 706
217 8 374 373 375 377
218 8 374 373 376 378
219 6 373 375 377 379
220 6 373 375 377 380
221 6 373 375 377 381
222 6 373 376 378 382
223 6 373 376 378 383
224 6 373 376 378 384
225 7 563 566 565 564
226 5 561 563 566 565
227 8 562 561 563 566
228 8 562 561 564 565
229 7 561 564 565 566
230 6 517 520 522 526
231 6 517 520 522 527
232 6 517 520 522 528
233 6 145 148 150 154
234 6 145 148 150 155
235 6 145 148 150 156
236 6 517 519 521 523
237 6 517 519 521 524
238 6 517 519 521 525
239 8 518 517 519 521
240 8 518 517 520 522
241 6 49 52 54 58
242 6 49 52 54 59
243 6 49 52 54 60
244 8 50 49 51 53
245 8 50 49 52 54
246 6 49 51 53 55
247 6 49 51 53 56
248 6 49 51 53 57
249 6 325 327 329 331
250 6 325 327 329 332
251 6 325 327 329 333
252 6 397 399 401 403
253 6 397 399 401 404
254 6 397 399 401 405
255 8 326 325 327 329
256 8 326 325 328 330
257 6 241 243 245 247
258 6 241 243 245 248
259 6 241 243 245 249
260 8 242 241 243 245
261 8 242 241 244 246
262 6 241 244 246 250
263 6 241 244 246 251
264 6 241 244 246 252
265 6 385 387 389 391
266 6 385 387 389 392
267 6 385 387 389 393
268 6 469 471 473 475
269 6 469 471 473 476
270 6 469 471 473 477
271 8 398 397 399 401
272 8 398 397 400 402
273 6 385 388 390 394
274 6 385 388 390 395
275 6 385 388 390 396
276 6 397 400 402 406
277 6 397 400 402 407
278 6 397 400 402 408
279 7 713 716 715 714
280 6 433 435 437 439
281 6 433 435 437 440
282 6 433 435 437 441
283 7 623 626 625 624
284 8 622 621 623 626
285 8 622 621 624 625
286 7 621 624 625 626
287 5 621 623 626 625
288 8 386 385 387 389
289 8 386 385 388 390
290 8 278 277 279 281
291 8 278 277 280 282
292 6 277 279 281 283
293 6 277 279 281 284
294 6 277 279 281 285
295 6 277 280 282 286
296 6 277 280 282 287
297 6 277 280 282 288
298 8 434 433 435 437
299 8 434 433 436 438
300 6 433 436 438 442
301 6 433 436 438 443
302 6 433 436 438 444
303 7 711 714 715 716
304 6 253 256 258 262
305 6 253 256 258 263
306 6 253 256 258 264
307 6 253 255 257 259
308 6 253 255 257 260
309 6 253 255 257 261
310 8 254 253 255 257
311 8 254 253 256 258
312 8 712 711 713 716
313 8 712 711 714 715
314 5 711 713 716 715
315 6 121 124 126 130
316 6 121 124 126 131
317 6 121 124 126 132
318 6 145 147 149 151
319 6 145 147 149 152
320 6 145 147 149 153
321 8 146 145 147 149
322 8 146 145 148 150
323 6 25 27 29 31
324 6 25 27 29 32
325 6 25 27 29 33
326 8 26 25 27 29
327 8 26 25 28 30
328 6 25 28 30 34
329 6 25 28 30 35
330 6 25 28 30 36
331 6 505 507 509 511
332 6 505 507 509 512
333 6 505 507 509 513
334 8 506 505 507 509
335 8 506 505 508 510
336 6 505 508 510 514
337 6 505 508 510 515
338 6 505 508 510 516
339 7 653 656 655 654
340 5 651 653 656 655
341 6 193 195 197 199
342 6 193 195 197 200
343 6 193 195 197 201
344 6 193 196 198 202
345 6 193 196 198 203
346 6 193 196 198 204
347 8 194 193 195 197
348 8 194 193 196 198
349 6 337 339 341 343
350 6 337 339 341 344
351 6 337 339 341 345
352 6 445 448 450 454
353 6 445 448 450 455
354 6 445 448 450 456
355 6 445 447 449 451
356 6 445 447 449 452
357 6 445 447 449 453
358 8 446 445 447 449
359 8 446 445 448 450
360 6 337 340 342 346
361 6 337 340 342 347
362 6 337 340 342 348
363 6 265 268 270 274
364 6 265 268 270 275
365 6 265 268 270 276
366 7 583 586 585 584
367 6 265 267 269 271
368 6 265 267 269 272
369 6 265 267 269 273
370 8 266 265 267 269
371 8 266 265 268 270
372 8 582 581 583 586
373 8 582 581 584 585
374 6 409 411 413 415
375 6 409 411 413 416
376 6 409 411 413 417
377 5 581 583 586 585
378 6 229 231 233 235
379 6 229 231 233 236
380 6 229 231 233 237
381 6 229 232 234 238
382 6 229 232 234 239
383 6 229 232 234 240
384 6 325 328 330 334
385 6 325 328 330 335
386 6 325 328 330 336
387 8 338 337 339 341
388 8 338 337 340 342
389 8 572 571 573 576
390 8 572 571 574 575
391 6 85 87 89 91
392 6 85 87 89 92
393 6 85 87 89 93
394 8 470 469 471 473
395 8 470 469 472 474
396 6 469 472 474 478
397 6 469 472 474 479
398 6 469 472 474 480
399 6 481 483 485 487
400 6 481 483 485 488
401 6 481 483 485 489
402 8 482 481 483 485
403 8 482 481 484 486
404 6 481 484 486 490
405 6 481 484 486 491
406 6 481 484 486 492
407 8 632 631 633 636
408 8 632 631 634 635
409 7 631 634 635 636
410 7 633 636 635 634
411 6 361 363 365 367
412 6 361 363 365 368
413 6 361 363 365 369
414 5 631 633 636 635
415 6 13 15 17 19
416 6 13 15 17 20
417 6 13 15 17 21
418 8 362 361 363 365
419 8 362 361 364 366
420 6 361 364 366 370
421 6 361 364 366 371
422 6 361 364 366 372
423 8 290 289 291 293
424 8 290 289 292 294
425 7 571 574 575 576
426 5 571 573 576 575
427 7 573 576 575 574
428 6 289 291 293 295
429 6 289 291 293 296
430 6 289 291 293 297
431 6 109 111 113 115
432 6 109 111 113 116
433 6 109 111 113 117
434 8 110 109 111 113
435 8 110 109 112 114
436 6 109 112 114 118
437 6 109 112 114 119
438 6 109 112 114 120
439 8 652 651 653 656
440 8 652 651 654 655
441 7 651 654 655 656
442 6 181 183 185 187
443 6 181 183 185 188
444 6 181 183 185 189
445 8 182 181 183 185
446 8 182 181 184 186
447 6 181 184 186 190
448 6 181 184 186 191
449 6 181 184 186 192
450 8 410 409 411 413
451 8 410 409 412 414
452 6 409 412 414 418
453 6 409 412 414 419
454 6 409 412 414 420
455 7 581 584 585 586
