LAMMPS data file via write_data, version 23 Jun 2022, timestep = 100000

770 atoms
31 atom types
715 bonds
17 bond types
1087 angles
18 angle types
455 dihedrals
9 dihedral types
0 impropers
2 improper types

-0.3912086673364552 20.391208667336414 xlo xhi
-0.3912086673364552 20.391208667336414 ylo yhi
-0.3912086673364552 20.391208667336414 zlo zhi

Masses

1 12.011
2 12.011
3 12.011
4 12.011
5 12.011
6 12.011
7 12.011
8 12.011
9 12.011
10 12.011
11 1.008
12 1.008
13 1.008
14 1.008
15 1.008
16 1.008
17 1.008
18 15.999
19 15.999
20 15.999
21 15.999
22 14.007
23 14.007
24 14.007
25 14.007
26 18.998
27 30.974
28 6.941
29 32.065
30 32.065
31 6.941

Pair Coeffs # lj/cut/coul/cut

1 0.066 3.5
2 0.066 3.5
3 0.066 3.5
4 0.066 3.5
5 0.07 3.55
6 0.07 3.55
7 0.07 3.55
8 0.07 3.55
9 0.105 3.75
10 0.105 3.75
11 0.03 2.5
12 0.03 2.5
13 0.03 2.5
14 0.03 2.42
15 0.03 2.5
16 0.03 2.5
17 0.03 2.5
18 0.17 3
19 0.17 3
20 0.17 2.96
21 0.17 3
22 0.17 3.25
23 0.17 3.25
24 0.17 3.25
25 0.17 3.25
26 0.255 2.95
27 0.2 3.7
28 0.0025 1.506
29 0.25 3.55
30 0.25 3.55
31 0.00034 2.126

Bond Coeffs # harmonic

1 268 1.529
2 414 1.33
3 320 1.4
4 340 1.09
5 340 1.08
6 340 1.08
7 320 1.41
8 570 1.229
9 320 1.36
10 300 1.47
11 440 1.27
12 350 1.34
13 340 0.96
14 340 1.01
15 420 1.56
16 200 1.81
17 300 1.43

Angle Coeffs # harmonic

1 50 109.5
2 80 120
3 60 120
4 37.5 110.7
5 40 120
6 33 106.4
7 33 107.8
8 35 120
9 60 109.5
10 60 124
11 80 123
12 80 120.4
13 50 109.5
14 50 109.5
15 50 109.5
16 50 120
17 80 90
18 80 180

Atoms # full

411 35 19 -0.35 2.560010182673293 1.1354055493351185 2.842373573271568 0 0 0
413 35 1 0.22 3.908479792027892 0.7616832337685835 3.2360227221473243 0 0 0
409 35 9 0.52 1.4919425101484574 0.536755691981363 3.6995471731589946 0 0 0
410 35 20 -0.5 0.29543830686304307 0.47529110098042004 3.323760963969779 0 0 0
610 52 11 0.06 1.3990065946672763 -0.024047581495507453 0.7784212123774095 0 0 1
648 56 11 0.06 0.9536253486889701 3.5535759184837477 0.8353742244153533 0 0 0
266 23 20 -0.5 3.4846062588950857 3.128239166842684 0.6602081797262269 0 0 0
646 56 2 0.22 0.1853642215311314 3.5488727374446585 1.5852298089333827 0 0 0
650 56 11 0.06 1.6187091254686017 4.772297218144995 2.533851026386523 0 0 0
645 56 2 0.22 0.645976664520878 4.292405904911309 2.7992153427148003 0 0 0
415 35 11 0.06 3.991201707600924 -0.20057638904237254 3.596903339559051 0 0 0
416 35 11 0.06 4.486688048323896 0.6640142149999171 2.302836702317879 0 0 0
605 52 2 0.22 1.6652448114883684 0.19068382783164495 -0.27042630478500534 0 0 1
609 52 11 0.06 0.9925982704138623 20.25014935228934 19.978119407808983 0 -1 0
649 56 11 0.06 0.9033782296835748 3.5202681911990585 3.521371192021435 0 0 0
265 23 9 0.52 4.576942767597079 3.641708350988319 0.3245097380995007 0 0 0
647 56 11 0.06 -0.2057460378797712 2.511620859406611 1.691817634644765 0 0 0
485 41 1 0.22 8.106291691286634 1.3291571590387552 2.7721485704037723 0 0 0
483 41 19 -0.35 8.586227675306997 2.0974101135649796 3.956929165766776 0 0 0
487 41 11 0.06 7.468649577024987 0.5962676285742142 3.1363294277518676 0 0 0
481 41 9 0.52 9.72399700826503 2.930958259687469 3.6871617418434974 0 0 0
488 41 11 0.06 7.5420507641409875 1.9798430466314523 2.151199887581221 0 0 0
489 41 11 0.06 8.964311723558621 0.8066908407233868 2.302315378391009 0 0 0
740 70 26 -0.39 9.551026007549961 3.2455768644232936 -0.19549295326052463 0 0 1
484 41 19 -0.35 9.51416844917602 4.304568799044741 3.693253946734745 0 0 0
486 41 1 0.22 8.833776646522296 4.713176620626673 4.919126688641143 0 0 0
490 41 11 0.06 9.194758592391569 4.217774774168752 5.824822501214037 0 0 0
268 23 19 -0.35 5.774162152805923 2.8698857107526097 -0.12074834530678219 0 0 0
275 23 11 0.06 6.1812720790277265 1.7277218351443038 19.07109155048596 0 0 -1
270 23 1 0.22 5.730380610996322 2.705997472793432 19.236270604645945 0 0 -1
482 41 20 -0.5 10.876798503104283 2.421136073421831 3.8420502067836724 0 0 0
712 63 20 -0.5 13.380833210178416 1.6326342401198617 3.5875044789529973 0 0 0
711 63 9 0.52 13.88747428491917 1.260738750320415 2.4857650865196117 0 0 0
714 63 19 -0.35 14.615171842336926 2.08759774119713 1.6154338668640467 0 0 0
732 66 31 1 12.428965666405166 2.97762679543089 4.156200887298901 0 0 0
715 63 2 0.22 14.266099194799791 1.4915596501626431 0.3551692368797966 0 0 0
742 70 26 -0.39 11.048929867790699 1.8260726527403075 0.454833040801389 0 0 1
713 63 19 -0.35 13.67923941706766 -0.03930917235410486 1.9736078829749006 0 0 0
716 63 2 0.22 13.737455008075061 0.036574956047598584 0.5054564193297137 0 0 0
718 63 11 0.06 12.647646643573042 -0.0742953452787396 0.6734372959065451 0 0 0
717 63 11 0.06 13.968062564728875 20.065632364805175 -0.27811532544404804 0 -1 0
720 63 11 0.06 13.658311413787148 2.0966064512398757 -0.33421073045935634 0 0 0
14 2 20 -0.5 12.847674671967608 4.43118719162164 3.1332844062665783 0 0 1
19 2 11 0.06 11.408546563999586 4.372983065401286 1.0793475023628172 0 0 1
177 15 11 0.06 17.202361175101423 2.8419882396046705 2.4834295823900323 0 0 0
757 73 27 1.34 18.09932085697769 -0.12909180113193575 0.26266271777574046 -1 0 0
173 15 1 0.22 17.134330600868203 2.432718521095141 3.478032448275996 0 0 0
758 73 26 -0.39 18.99338739605752 0.1592701315664019 1.4611146819995349 -1 0 0
176 15 11 0.06 16.276550444306935 1.821355316181982 3.634380105224933 0 0 0
762 73 26 -0.39 17.900329393997268 1.3669604346623512 0.09975188435299909 -1 0 0
175 15 11 0.06 17.962905588653193 1.7173918929085032 3.4932544566133603 0 0 0
643 56 19 -0.35 19.74405224917455 4.131124670711198 1.1811026072564026 -1 0 0
761 73 26 -0.39 16.837976816470366 -0.1867373377224331 1.203249533563315 -1 0 0
539 45 11 0.06 16.31841239325314 3.5348380665246 0.30126787654094256 0 0 1
171 15 19 -0.35 17.298470786228698 3.4456530928472677 4.336500774994371 0 0 0
272 23 11 0.06 3.948326809648436 5.269870076211982 2.306826899049924 0 0 0
316 27 19 -0.35 1.9384462351804692 8.657987311437461 1.3539772543839894 0 0 0
318 27 1 0.22 0.7957638987980344 8.98240042816481 2.0937161739187893 0 0 0
322 27 11 0.06 1.1726067170214607 9.512666857223934 2.9504961682485136 0 0 0
313 27 9 0.52 1.6283560499328757 8.380311983117817 0.008178301449614678 0 0 0
324 27 11 0.06 0.28676100400162974 8.082204186746553 2.5357427461803304 0 0 0
323 27 11 0.06 0.18624003930446575 9.733297737589352 1.5226634724263726 0 0 0
315 27 19 -0.35 1.5067916070924996 7.007997791927773 -0.3438673244462383 0 0 0
314 27 20 -0.5 1.8685157300246305 9.172318862337363 19.88362570027509 0 0 -1
512 43 11 0.06 6.205721889562756 9.566576210587106 0.16970496934356993 0 0 1
644 56 19 -0.35 20.3174401338254 4.906959659355948 3.3988793484231374 -1 0 0
111 10 19 -0.35 3.5413886864298583 9.008104229654338 3.9758733114149596 0 0 0
267 23 19 -0.35 4.822226515830755 4.9841359746838005 0.4856339014342187 0 0 0
271 23 11 0.06 5.390737291601718 6.191751759763556 2.0325563329419616 0 0 0
269 23 1 0.22 4.925887664348442 5.247128558179212 1.8475686563449263 0 0 0
273 23 11 0.06 5.649340839293483 4.588429022436191 2.435444998000482 0 0 0
110 10 20 -0.5 5.260739598910768 8.351390619845654 2.5597546403551372 0 0 0
109 10 9 0.52 4.638684214491404 9.24304781144578 3.151526897746271 0 0 0
683 60 19 -0.35 9.00856968807418 8.549000823710973 1.2198046638621949 0 0 0
686 60 2 0.22 8.912334569136267 8.071066279029774 2.598598341578016 0 0 0
687 60 11 0.06 7.909088309838706 8.07066291387079 2.7376644360513698 0 0 0
681 60 9 0.52 9.105324632387925 9.91023634362372 1.4156137077550752 0 0 0
684 60 19 -0.35 9.59161254075566 10.330188636063442 2.6539124311261837 0 0 0
689 60 11 0.06 9.00088593567059 9.395516546036378 4.469909159136537 0 0 0
688 60 11 0.06 9.418800117229619 7.092136979124325 2.8122522924494997 0 0 0
685 60 2 0.22 9.489086123356579 9.231174754705346 3.490879448942103 0 0 0
492 41 11 0.06 7.78218622055336 4.78402809590184 4.935208863177068 0 0 0
21 2 11 0.06 12.41564253385854 5.370610970950547 -0.013428133212062432 0 0 1
20 2 11 0.06 10.891838087538753 5.937175539234247 0.4694398507301162 0 0 1
13 2 9 0.52 13.157909355993882 5.56859554514091 2.7805857137667607 0 0 1
690 60 11 0.06 10.476906435023396 8.892988134383387 3.7529111704325757 0 0 0
17 2 1 0.22 11.773930813874614 5.431693178150201 0.8441552257970231 0 0 1
15 2 19 -0.35 12.310351889744496 6.219114951072616 1.923063047592299 0 0 1
16 2 19 -0.35 14.432527217868953 6.118263497748464 2.9057570828007147 0 0 1
403 34 11 0.06 12.553411339031495 8.018397217285761 0.15382612568100051 0 0 0
18 2 1 0.22 14.854932214023309 6.325499064518995 4.23065733920475 0 0 1
23 2 11 0.06 14.090235848913087 6.65130510004098 4.952659338323498 0 0 1
538 45 11 0.06 14.739842321018132 4.418687591606162 0.2635345232796118 0 0 1
22 2 11 0.06 15.531278953665598 7.096386028132534 4.103943229639691 0 0 1
641 56 9 0.52 19.421843875056084 4.959553496502748 2.278463825946161 -1 0 0
642 56 20 -0.5 18.97438658754905 6.05821465955296 2.164585157223128 -1 0 0
667 58 11 0.06 19.679659879201097 7.6905792000046524 -0.02826286356695118 0 0 1
668 58 11 0.06 18.146210390024628 8.312198398760177 0.5752697349651555 0 0 1
24 2 11 0.06 15.4012941360137 5.560094581282896 4.67754303787901 0 0 1
663 58 19 -0.35 19.63999279913139 9.25694783682577 20.08522841461879 0 0 0
666 58 2 0.22 18.7898350431133 8.23514049320591 -0.325835599070816 0 0 1
103 9 11 0.06 2.7085342560299943 14.329128693012379 1.2226754417280983 0 0 0
101 9 1 0.22 3.240726121064634 13.354787726896069 1.2755110471978082 0 0 0
107 9 11 0.06 0.05792614489752218 14.326932298063847 0.6017638538644681 0 0 0
105 9 11 0.06 4.20485190350113 13.617195503936227 1.6361695789524324 0 0 0
632 55 20 -0.5 0.5398092405335888 11.919100991925847 2.909646587380257 1 0 0
359 30 11 0.06 0.8241551726775107 11.428206730415775 6.269593062394461 0 0 0
358 30 11 0.06 1.6814091138758434 10.74918215005692 4.856805597128082 0 0 0
99 9 19 -0.35 3.2234871444278315 12.66187996875493 0.013101671813263549 0 0 0
102 9 1 0.22 0.02250394905213493 13.764337901285773 -0.33114208750883795 0 0 0
108 9 11 0.06 20.00143623543127 14.333266156819725 19.95781940968172 -1 0 -1
112 10 19 -0.35 4.970083405779716 10.590645150408557 2.9194192260008522 0 0 0
118 10 11 0.06 6.629805897963923 11.712381070486924 3.1339640901694836 0 0 0
104 9 11 0.06 2.8218538316641553 12.683039733397726 1.967928688209014 0 0 0
247 21 11 0.06 7.271723776890681 13.33202415675267 1.4984599868915796 0 0 0
245 21 1 0.22 7.8451792471549275 14.23180473576269 1.125114348791115 0 0 0
114 10 1 0.22 5.851855339603257 11.2576759701316 3.789992500356493 0 0 0
243 21 19 -0.35 9.117188376003428 14.326677993267372 1.6544038785669346 0 0 0
682 60 20 -0.5 8.56227272997591 10.758317523262841 0.6242733056593641 0 0 0
119 10 11 0.06 5.3966520073476465 12.046308933592762 4.387548642662211 0 0 0
544 46 19 -0.35 9.207870787070537 15.713474121299436 4.847572842987857 0 0 0
511 43 11 0.06 4.624222231540187 9.13141082890952 20.273981176408626 0 0 0
244 21 19 -0.35 11.310382646585238 14.388584102791622 0.5607878458379659 0 0 0
246 21 1 0.22 12.324822478190628 14.361677611324351 1.456997251682251 0 0 0
252 21 11 0.06 12.215038842567083 13.635764294874603 2.241464580725179 0 0 0
241 21 9 0.52 10.14087800922381 15.064336221417696 0.9335104142963793 0 0 0
135 12 19 -0.35 13.586767716346685 12.213523091773888 3.584399671227613 0 0 0
550 46 11 0.06 11.114635944332413 14.921662103935697 4.088853275135407 0 0 0
137 12 1 0.22 13.049721861443263 10.863729565218152 3.4207451512629765 0 0 0
139 12 11 0.06 13.400488855735379 10.149135151182238 4.142425391439386 0 0 0
141 12 11 0.06 13.355328620671784 10.427942745264058 2.432309874403164 0 0 0
140 12 11 0.06 12.000402531547335 10.844120343737075 3.4733232270452428 0 0 0
142 12 11 0.06 13.795954880706654 15.290346987165117 4.538581329010372 0 0 0
133 12 9 0.52 14.036554285285927 12.519481859453819 4.9064765534211325 0 0 0
138 12 1 0.22 14.01976215136918 14.765685367740423 5.522430462757802 0 0 0
143 12 11 0.06 13.679661360013394 15.4292770157595 6.339907164064135 0 0 0
633 55 19 -0.35 19.862572119076937 13.720925003430509 3.1065922098382854 0 0 0
638 55 11 0.06 17.860305353272118 14.441168310862807 3.3307570406038716 0 0 0
636 55 2 0.22 18.60226918032263 13.788083672500266 3.781736423090278 0 0 0
637 55 11 0.06 18.94674297275059 14.481225983927967 4.542289429168915 0 0 0
67 6 11 0.06 18.276425191880733 11.374401245039897 0.5069336166817252 0 0 0
68 6 11 0.06 18.673346776029383 12.348396845033026 19.85150030905224 0 0 -1
65 6 1 0.22 17.906769163492193 11.842544528007735 -0.31010390545520805 0 0 0
631 55 9 0.52 20.195152744781552 12.347463863137264 3.082238923824724 0 0 0
634 55 19 -0.35 19.21786655225779 11.479956174209072 3.5960507491368894 0 0 0
635 55 2 0.22 18.23367042221055 12.299488010613466 4.149135302317481 0 0 0
640 55 11 0.06 17.759834686435582 11.754423109956983 3.382195379721778 0 0 0
69 6 11 0.06 17.210703657768867 12.56387127933822 0.0720064955344435 0 0 0
417 35 11 0.06 4.339167627855093 1.4367790405206393 3.9305257340604935 0 0 0
608 52 11 0.06 3.8123009629116575 0.548512332431603 0.005512584504369977 0 0 1
764 74 27 1.34 1.0324062075814466 17.327820929152182 2.3252111140526073 0 0 0
768 74 26 -0.39 1.7109503397116002 15.989907042056556 2.7449125822867506 0 0 0
770 74 26 -0.39 2.397342458860563 17.95971088459318 1.8989138641580188 0 0 0
765 74 26 -0.39 1.265433453490053 17.827158100607157 3.7975280598434358 0 0 0
766 74 26 -0.39 0.8323548277103772 16.80516704460961 0.8764473095830863 0 0 0
767 74 26 -0.39 0.30706998293008303 18.6666381255582 2.088318397783599 0 0 0
769 74 26 -0.39 -0.33234323095511203 16.74034113309775 2.871946295773396 0 0 0
36 3 11 0.06 4.963577932453856 18.013939233241587 3.427500395949256 0 0 0
431 36 11 0.06 0.6396779486892163 15.607628347666559 5.000263125028482 0 0 0
248 21 11 0.06 7.247683692175681 15.077363460380313 1.3395994510426636 0 0 0
34 3 11 0.06 5.0599667947687665 16.23564346966225 2.9740684613748445 0 0 0
35 3 11 0.06 6.43119380906046 17.024186715946577 3.841042407998186 0 0 0
30 3 1 0.22 5.577254355780235 17.186513570617862 3.0855355383749057 0 0 0
26 3 20 -0.5 5.672314578025238 19.62652744190737 1.5811771405278736 0 0 0
27 3 19 -0.35 7.938533269946653 19.128121867721617 1.6337844693943095 0 0 0
28 3 19 -0.35 6.196196082516257 17.435146609292516 1.825332835791408 0 0 0
25 3 9 0.52 6.559091285496522 18.807244622983518 1.7236188109274813 0 0 0
29 3 1 0.22 8.399292437746166 19.139252602856274 0.31470721696505577 0 0 0
32 3 11 0.06 9.483890780082048 19.461837967977033 0.2141405374917561 0 0 0
542 46 20 -0.5 7.104277922861 14.872691320336063 4.521269498056607 0 0 0
251 21 11 0.06 12.68486952119649 15.166572525879499 2.007169901145194 0 0 0
284 24 11 0.06 10.28613549576258 17.963687658470903 2.832251161869815 0 0 0
283 24 11 0.06 11.942005807118624 18.30026631295678 2.491474249728941 0 0 0
242 21 20 -0.5 9.883076840919278 16.192721121467585 0.5349286271818068 0 0 0
285 24 11 0.06 10.598118327392305 19.571790056188867 2.4515268694018606 0 0 0
281 24 1 0.22 11.044525732487676 18.720794857926116 2.9584453919363667 0 0 0
279 24 19 -0.35 11.280728246477812 19.097434619397383 4.3730939486584 0 0 0
345 29 11 0.06 15.787967923484592 18.009841435750815 1.106160477846795 0 0 0
338 29 20 -0.5 15.981774175086935 14.190008074465377 1.5832585205090766 0 0 0
344 29 11 0.06 15.353851529071504 18.383569517902536 2.608684623610952 0 0 0
582 50 20 -0.5 18.628054214143965 19.745650157608402 3.8347769957058793 -1 0 0
343 29 11 0.06 13.978828260952964 17.630292225959906 1.5074464388964204 0 0 0
341 29 1 0.22 15.069840543805894 17.60359073010006 1.8619726887801091 0 0 0
339 29 19 -0.35 15.24252427394788 16.272309118324152 2.2703212454760027 0 0 0
340 29 19 -0.35 16.76717749669112 15.89356585242279 0.31812207189168806 0 0 0
337 29 9 0.52 15.971284512420384 15.387025981722262 1.4145738248838111 0 0 0
734 68 31 1 19.865514762860435 20.01291173820188 2.8122740067622845 0 0 0
581 50 9 0.52 18.035100835040026 19.614849067098504 4.8762687307909856 -1 0 0
763 73 26 -0.39 18.33020873778419 19.133934672230225 0.4661308271492852 -1 -1 0
342 29 1 0.22 18.10656302801243 16.10750886448234 0.7288817058693953 0 0 0
348 29 11 0.06 18.13362004919719 16.835907679497623 1.5881483466750634 0 0 0
461 39 1 0.22 5.053122038210266 3.4842720524161543 6.501346462257822 0 0 0
412 35 19 -0.35 1.7632326270998924 0.7713235309987883 5.080923688888267 0 0 0
53 5 1 0.22 2.4650518602813967 1.705669773326652 9.089685069475534 0 1 0
51 5 19 -0.35 2.2049391387521373 0.299060656184708 9.341099385632845 0 1 0
55 5 11 0.06 1.7290135555029664 2.0341451605505823 8.362858017010657 0 1 0
57 5 11 0.06 3.4513734065237998 1.7749175525182408 8.691650953468628 0 1 0
459 39 19 -0.35 3.7925724714013045 3.868467743457013 6.91773517810673 0 0 0
56 5 11 0.06 2.452370773789341 2.289359210518492 10.006369590811206 0 1 0
457 39 9 0.52 2.956423862063482 4.441642988075097 5.898622992944777 0 0 0
49 5 9 0.52 0.89319780855374 -0.10508653815893387 9.820095393678681 0 1 0
463 39 11 0.06 5.143505885721429 2.940418645916083 5.519822526919889 0 0 0
491 41 11 0.06 9.096844501421781 5.757683121677075 5.117104757015082 0 0 0
464 39 11 0.06 5.604066726790221 4.3739447699146226 6.604150574315011 0 0 0
465 39 11 0.06 5.48587937269556 2.749006993591538 7.255555219817655 0 0 0
622 54 20 -0.5 5.548113149064954 0.5560672084179202 5.903097278989502 0 0 0
128 11 11 0.06 8.979061300663139 3.412124117620537 9.142857584594582 0 0 0
125 11 1 0.22 9.20443290136224 2.3640035191080737 9.112897467935875 0 0 0
129 11 11 0.06 10.101310067698737 2.2294749584349467 9.621874467453857 0 0 0
123 11 19 -0.35 8.212483144617694 1.561121357716404 9.689712374810648 0 0 0
122 11 20 -0.5 6.094076912365817 2.4879464565659863 9.933679487018537 0 0 0
121 11 9 0.52 7.231749332871283 2.288941995837879 10.36987637240361 0 0 0
127 11 11 0.06 9.309357689325775 2.0709560089188415 8.127311374969896 0 0 0
621 54 9 0.52 6.57417689135802 0.012003471342378724 5.732448481157784 0 0 0
623 54 19 -0.35 7.525576679448891 -0.010653417029337753 6.8294684643555055 0 0 0
627 54 11 0.06 9.427126596504495 19.860030266502008 6.660448917530672 0 -1 0
379 32 11 0.06 13.484497401959093 3.2475859484175116 9.191737496600187 0 0 0
381 32 11 0.06 14.091808092266408 2.281254234374226 7.864136636892857 0 0 0
377 32 1 0.22 13.179945071525845 2.4756392103505283 8.45649384242212 0 0 0
374 32 20 -0.5 12.746056993779515 3.482270997741483 5.642793244613039 0 0 0
375 32 19 -0.35 12.07891099372508 2.6983288018913227 7.624753509806194 0 0 0
373 32 9 0.52 12.361026623235883 3.787126558781244 6.772459520538111 0 0 0
380 32 11 0.06 13.034161248939967 1.554804819365619 8.986422971341335 0 0 0
376 32 19 -0.35 11.466619123722685 4.862004977657032 6.864209296946376 0 0 0
288 24 11 0.06 11.944315683712919 0.2687568413841529 6.168210020095005 0 1 0
446 38 20 -0.5 15.202639714720341 17.800401565083455 9.053464173472046 0 0 0
178 15 11 0.06 19.447708538490204 3.307257409027668 6.870901672551412 0 0 0
180 15 11 0.06 19.90890379489644 2.857773346813926 5.174953098130163 0 0 0
179 15 11 0.06 20.125372754892084 1.8189734476160266 6.578732750462252 0 0 0
174 15 1 0.22 19.518273389861818 2.580483659706109 6.173550640249637 0 0 0
170 15 20 -0.5 16.57576256885246 3.416141455722053 6.616112622006612 0 0 0
172 15 19 -0.35 18.21357428611575 1.9751648829980906 5.961656041169305 0 0 0
169 15 9 0.52 17.318263547795176 2.926470324119476 5.7154240185535174 0 0 0
293 25 1 0.22 18.00350109885089 4.157360982761865 9.401241068135798 -1 0 0
295 25 11 0.06 17.04340284717236 3.8263525165167067 8.893069733184346 -1 0 0
451 38 11 0.06 16.776869804019796 -0.2441907608570066 11.212015115914356 0 1 0
460 39 19 -0.35 1.4922862083070711 4.459469140101809 6.123573176980702 0 0 0
458 39 20 -0.5 3.47077843592431 5.023894660463183 4.906607655278562 0 0 0
466 39 11 0.06 1.1495340411427708 6.535550371757756 6.346237768714854 0 0 0
462 39 1 0.22 1.1696689932919995 5.594563182705169 6.948367068649443 0 0 0
467 39 11 0.06 0.25538596378273326 5.412790773111192 7.4938715270245835 0 0 0
468 39 11 0.06 2.014063332643875 5.86485952318349 7.640059519269441 0 0 0
115 10 11 0.06 4.374789044855703 7.382227126320574 4.976215519870715 0 0 0
113 10 1 0.22 3.850964982861746 8.320061361827287 5.217949080144133 0 0 0
116 10 11 0.06 4.665235367910983 8.912240325028847 5.703963211399165 0 0 0
558 47 11 0.06 8.56288742965989 7.547038576916497 9.03605835756742 0 0 0
557 47 11 0.06 7.253897718831044 6.463363585715061 9.765271384575197 0 0 0
117 10 11 0.06 3.163955416014123 8.113499628583186 5.974655987207341 0 0 0
556 47 2 0.22 7.517225632646038 7.162595994864469 8.92384705074895 0 0 0
551 47 9 0.52 7.216766802176407 7.565031976392878 6.801552221158011 0 0 0
552 47 20 -0.5 7.309346269006724 7.481925340421401 5.573246047658176 0 0 0
553 47 19 -0.35 8.148061297792854 6.924433921166007 7.62969574672592 0 0 0
554 47 19 -0.35 6.252105823390311 8.380689603827143 7.385005171302988 0 0 0
555 47 2 0.22 6.413767138175778 8.166206157553146 8.77793187618748 0 0 0
569 48 11 0.06 9.226875624685805 10.304923556091339 10.030883298099145 0 0 0
559 47 11 0.06 5.463531124814791 7.642178015784987 8.802642513287905 0 0 0
565 48 2 0.22 9.927311506005186 10.515534172921706 9.228194430163747 0 0 0
383 32 11 0.06 12.044703169990246 5.223126172983048 8.767966074025285 0 0 0
378 32 1 0.22 11.90869199053689 5.803292106245812 7.881464078933163 0 0 0
384 32 11 0.06 12.890011301387192 6.267540570409574 7.618177650898119 0 0 0
382 32 11 0.06 11.251106316333571 6.64309217745481 8.083330032890492 0 0 0
563 48 19 -0.35 11.674766976326937 9.233627158405303 8.336087617120807 0 0 0
566 48 2 0.22 11.291338953230772 9.873768493107779 9.612573525882087 0 0 0
561 48 9 0.52 10.871243919473184 9.82711389837551 7.377922411134532 0 0 0
562 48 20 -0.5 11.021190691495821 9.614025447040229 6.183054800348591 0 0 0
334 28 11 0.06 15.243934826624868 9.254923369876003 6.913294097647665 0 0 0
335 28 11 0.06 13.948705537040691 8.716830963942764 7.7515070955848255 0 0 0
568 48 11 0.06 11.875371525789395 10.557869593184723 10.254101969188742 0 0 0
336 28 11 0.06 15.498333774903962 8.891126556251645 8.672825044213914 0 0 0
330 28 1 0.22 15.059377006231383 8.533461056121974 7.716730143286023 0 0 0
567 48 11 0.06 11.153191261532003 8.816349313977296 10.019682058603902 0 0 0
333 28 11 0.06 18.877678418398403 6.669159730481135 4.850713733109726 0 0 0
206 18 20 -0.5 0.4279066695137652 8.3184934468987 8.838980461062837 1 0 0
205 18 9 0.52 -0.018136776987659697 9.18680168924035 9.613847108335131 1 0 0
297 25 11 0.06 18.687816630095995 4.6272916246926545 8.72778168072393 -1 0 0
326 28 20 -0.5 17.43650280089812 7.07587474349901 8.454817000464617 0 0 0
331 28 11 0.06 19.60804319582642 7.293956901160708 6.184830997219972 0 0 0
332 28 11 0.06 18.788732522672035 5.677325971345044 6.260117879025453 0 0 0
329 28 1 0.22 18.731460830396884 6.752359323941239 5.946505113859858 0 0 0
328 28 19 -0.35 15.427026134796414 7.245677466860453 7.388298107042254 0 0 0
327 28 19 -0.35 17.546988494468813 7.486632283349566 6.252571222716653 0 0 0
325 28 9 0.52 16.852266291471103 7.094874876338328 7.386460993400947 0 0 0
215 18 11 0.06 20.036034692788526 9.799702097001362 6.989126688504385 0 0 0
216 18 11 0.06 18.768283461194173 9.486803977635565 8.042671914292107 0 0 0
425 36 1 0.22 4.071852528968882 14.519655719063964 5.460498739504604 0 0 0
427 36 11 0.06 4.662983294608796 14.397456824555725 4.5615326937305865 0 0 0
360 30 11 0.06 1.639244843798652 12.483477507669434 5.3161984311212995 0 0 0
350 30 20 -0.5 3.231170377071127 10.520006907542744 8.480323846955628 0 0 0
354 30 1 0.22 1.7032598898035216 11.526196616608159 5.6634433963422515 0 0 0
352 30 19 -0.35 2.9394041769526056 11.353550722683325 6.341341403418599 0 0 0
349 30 9 0.52 2.8365657627471887 11.408920135413245 7.732366095635292 0 0 0
353 30 1 0.22 1.52068049590567 13.159613283039263 8.764603364281312 0 0 0
351 30 19 -0.35 2.7368339105715256 12.725149837965358 8.184295448581606 0 0 0
355 30 11 0.06 1.1889958320974594 12.513752739283316 9.543807106010505 0 0 0
357 30 11 0.06 0.7316895701844004 13.043760924011517 8.006863925185412 0 0 0
356 30 11 0.06 1.6133885642626664 14.207284994935254 9.13063626321127 0 0 0
432 36 11 0.06 20.214338639999816 15.338202435110334 6.373633426107 -1 0 0
429 36 11 0.06 3.581657593393142 13.542238213457873 5.484999033291817 0 0 0
541 46 9 0.52 8.294152268955381 14.709026923090295 4.910628795476279 0 0 0
548 46 11 0.06 10.964446930849268 12.967224122576626 5.216928949098508 0 0 0
120 10 11 0.06 6.4460890252199015 10.652060614958272 4.360586237859678 0 0 0
438 37 1 0.22 6.497528671056329 12.245868262209683 7.9758061004207725 0 0 0
444 37 11 0.06 7.151097421560151 11.433579172891141 8.172444145879854 0 0 0
442 37 11 0.06 5.502633588055798 11.855192171963163 7.6652047118335815 0 0 0
543 46 19 -0.35 8.750350447931888 13.469287420320997 5.251665248135153 0 0 0
443 37 11 0.06 7.038400355352402 12.811341223396777 7.177213694750578 0 0 0
436 37 19 -0.35 6.393521714276732 13.087854988145578 9.07203004163535 0 0 0
564 48 19 -0.35 9.878503888298559 10.675897857005005 7.839048450226514 0 0 0
546 46 2 0.22 10.116485207195156 13.643283048993302 5.401468317198175 0 0 0
136 12 19 -0.35 13.414238641947023 13.520816859930006 5.588924816559445 0 0 0
547 46 11 0.06 9.94547152251723 13.598896033300498 6.500127978866563 0 0 0
545 46 2 0.22 10.447792821146894 15.066682214690518 4.918566376810827 0 0 0
676 59 2 0.22 13.322854612725493 13.534610998992308 8.70490724182988 0 0 0
678 59 11 0.06 12.596803685619394 13.192055336377766 7.990304753669411 0 0 0
675 59 2 0.22 13.107057470392839 14.966665164214284 9.110752268397263 0 0 0
680 59 11 0.06 12.431244241743128 15.497486935669976 8.38933192869285 0 0 0
677 59 11 0.06 14.283348400151105 13.472921791177 8.233788886363085 0 0 0
673 59 19 -0.35 12.474378798850788 12.760920846973102 9.517021796745349 0 0 0
679 59 11 0.06 14.067847716378196 15.337180121744536 9.246077258969741 0 0 0
549 46 11 0.06 10.895657131985553 15.758928343024772 5.643670324514785 0 0 0
134 12 20 -0.5 14.870844897436822 11.836523079893931 5.4309470284718016 0 0 0
144 12 11 0.06 15.102112991019244 14.796041044563955 5.72202755174662 0 0 0
674 59 19 -0.35 12.358751506904971 14.935886140894048 10.284322673180482 0 0 0
639 55 11 0.06 17.54780604025712 12.224365598758391 5.049459682024504 0 0 0
208 18 19 -0.35 20.37200275360663 10.442101915997208 9.029166169633896 0 0 0
214 18 11 0.06 19.031850933434455 11.184959593404947 7.472853810100198 0 0 0
210 18 1 0.22 19.465815812700924 10.283114870498546 7.84079633092276 0 0 0
750 72 27 1.34 17.686561580467476 14.20429931611945 8.232071066545744 0 0 0
756 72 26 -0.39 16.981741189171757 12.82265688332471 8.45439187102777 0 0 0
751 72 26 -0.39 18.987878687753465 13.53580654750655 8.696815757443996 0 0 0
754 72 26 -0.39 17.379019389558657 14.610424549758534 9.716811807080987 0 0 0
753 72 26 -0.39 17.930283026305517 13.752166826742348 6.762655288257433 0 0 0
8 1 11 0.06 16.048329159174962 12.696004511916831 11.065189957183822 0 0 0
423 36 19 -0.35 3.3335378670552744 15.693228771362596 5.332701874845855 0 0 0
420 35 11 0.06 2.6085805813783067 19.807135271484093 5.45146908983056 0 -1 0
414 35 1 0.22 1.7866573245818125 20.365464299732864 5.857274368049892 0 -1 0
418 35 11 0.06 1.8675285607621261 -0.09316437090341284 6.919911516689295 0 0 0
430 36 11 0.06 0.39914384224586075 16.796319430072067 6.0113988663115 0 0 0
424 36 19 -0.35 1.502293771999721 15.253278135614758 6.7678175297176075 0 0 0
419 35 11 0.06 0.9028923663380697 19.729865445562723 5.701448254990859 0 -1 0
426 36 1 0.22 0.43589214577281 15.700948088567776 6.023952039930566 0 0 0
421 36 9 0.52 2.6204672478921824 16.026085288977534 6.448802114874141 0 0 0
422 36 20 -0.5 2.86656481915402 17.07088190681675 6.977454438678105 0 0 0
730 64 11 0.06 4.50125250937067 19.14532520754058 7.946762833271258 0 0 0
52 5 19 -0.35 0.054285248463637026 20.064213456224934 8.904104249260667 0 0 0
54 5 1 0.22 -0.1600603830071557 18.69351476267144 9.21949766176204 0 0 0
728 64 11 0.06 3.442895519901444 17.976873729602815 9.498668905181852 0 0 0
59 5 11 0.06 19.67092644070658 18.406257116560077 8.771456307098003 -1 0 0
58 5 11 0.06 -0.13188190523061355 18.335741649217383 10.235575366087142 0 0 0
428 36 11 0.06 4.837125242854801 14.522452874740559 6.232981637497592 0 0 0
629 54 11 0.06 8.365418893973201 18.67390471083516 4.7229773985963295 0 -1 0
725 64 2 0.22 5.151437688281907 18.784779727884654 8.701242490994074 0 0 0
729 64 11 0.06 5.982888358825715 18.28130886421821 8.256525543816261 0 0 0
724 64 19 -0.35 6.105584592634924 19.438543713674967 9.512654969427889 0 0 0
624 54 19 -0.35 6.826828402790425 19.688315329877035 4.841556178630824 0 -1 0
630 54 11 0.06 7.439010852237739 17.892751671474848 5.916662721283136 0 -1 0
726 64 2 0.22 4.497574197003267 17.800605823415843 9.559002492642927 0 0 0
727 64 11 0.06 4.5246027661147865 16.7821638178453 9.12866727670458 0 0 0
626 54 2 0.22 8.342398520891928 19.637975346645383 6.6795082103052925 0 -1 0
628 54 11 0.06 8.136977233668725 19.010524932500246 7.4636163510043545 0 -1 0
625 54 2 0.22 7.7005021136971035 18.882022542952996 5.53635662446452 0 -1 0
38 4 20 -0.5 9.479797070920826 16.479231460374507 7.655489936314471 0 0 0
286 24 11 0.06 12.946713436815672 20.10974547324424 7.229792413375479 0 0 0
287 24 11 0.06 13.71081118007823 0.7372871609666827 6.285340495971488 0 1 0
37 4 9 0.52 9.770654794997276 17.072596450175432 8.684731303975699 0 0 0
280 24 19 -0.35 13.426565582923295 19.73861040993164 5.230437980117135 0 0 0
282 24 1 0.22 12.954274501709428 -0.11367404832271205 6.251534063265865 0 1 0
277 24 9 0.52 12.546491031140958 18.705408911172746 4.853670690366067 0 0 0
40 4 19 -0.35 10.988846540864865 17.81091878953017 8.735995489007363 0 0 0
278 24 20 -0.5 12.88378284829993 17.555221484115485 4.777103779358716 0 0 0
455 38 11 0.06 16.585176784187546 16.30322406064853 10.981056245424016 0 0 0
46 4 11 0.06 11.847301499519597 19.297746362876133 9.97504168995713 0 0 0
588 50 11 0.06 15.715832576421969 17.72816909010843 6.2780756092862235 -1 0 0
587 50 11 0.06 15.889017049335303 19.55802556635907 6.32686071985768 -1 0 0
60 5 11 0.06 0.683905539479887 18.147274866140883 8.661128335138807 0 0 0
752 72 26 -0.39 16.3728073199688 14.851088236704399 7.80013122678068 0 0 0
583 50 19 -0.35 16.62754637276452 19.51499900310494 4.988815549757661 -1 0 0
586 50 2 0.22 16.315920971750792 18.604509069024182 5.984602999309549 -1 0 0
755 72 26 -0.39 18.417866772447447 15.575353721296446 8.120958476582876 0 0 0
584 50 19 -0.35 18.636582609829098 19.052459544163604 5.996316523007786 -1 0 0
589 50 11 0.06 17.223855829331008 18.100181381503617 7.668443389865951 -1 0 0
585 50 2 0.22 17.669270186665358 18.337847798594268 6.6674283515826085 -1 0 0
590 50 11 0.06 18.114635423070794 17.422867603729564 6.257684508131536 -1 0 0
447 38 19 -0.35 16.06015270866321 19.904136771283014 9.27967240711402 0 0 0
445 38 9 0.52 15.937317401372338 18.559491520234815 9.713055264737136 0 0 0
456 38 11 0.06 18.00243551372141 17.362110281012257 10.82600283009892 0 0 0
50 5 20 -0.5 0.4813151825320119 0.3242716778523129 10.877258269390184 0 1 0
500 42 11 0.06 2.1004819794147545 5.191755347097575 10.76727043307181 0 0 0
704 62 19 -0.35 2.695849107935507 1.2047434058781372 13.112923003285694 0 0 0
705 62 2 0.22 3.4927115148865022 0.3493883246366444 12.310604724660365 0 0 0
701 62 9 0.52 2.0795665251183033 0.37669243377384976 14.025211654787354 0 0 0
710 62 11 0.06 3.66478024791365 0.6050931127367403 11.227319493179747 0 0 0
702 62 20 -0.5 1.6294776725844913 0.8691848774967501 15.055496770415045 0 0 0
501 42 11 0.06 3.079319477946199 4.73690465295115 9.328058130745854 0 0 0
290 25 20 -0.5 0.18546619502877715 3.693758209499234 10.175956476086489 0 0 0
499 42 11 0.06 3.670976336015805 4.674001571908452 10.965010550336029 0 0 0
497 42 1 0.22 3.0887767044370738 5.272110485943951 10.28246129766953 0 0 0
294 25 1 0.22 -0.3840895736724338 3.830697639684427 13.14821451112167 0 0 0
299 25 11 0.06 19.739499693837757 3.886359124989263 14.048313657306453 -1 0 0
703 62 19 -0.35 2.336890050268186 19.804712305332842 13.841135936342086 0 -1 0
709 62 11 0.06 4.510789094532118 0.40879132629867543 12.698348680577338 0 0 0
124 11 19 -0.35 7.552108658205882 2.4031465854597736 11.69820478886171 0 0 0
126 11 1 0.22 6.602334932916759 3.0576360144653854 12.538896625554576 0 0 0
132 11 11 0.06 5.6276698632236295 2.5169626382600776 12.601032401725858 0 0 0
131 11 11 0.06 6.438071285405501 4.118758229131001 12.175012430477333 0 0 0
130 11 11 0.06 6.991371014663631 3.1186438371922103 13.565410786863337 0 0 0
195 17 19 -0.35 10.170817980849897 0.3298422130883496 12.51733985343083 0 0 0
263 22 11 0.06 7.790448380105145 4.342813231948341 16.244563292332167 0 0 0
617 53 11 0.06 11.66769665122934 2.721359896103848 12.173727437921093 0 0 0
619 53 11 0.06 9.63962819362875 2.9274022192549536 13.25290644040623 0 0 0
616 53 2 0.22 11.263398381149008 3.780356997641796 12.217303017170334 0 0 0
615 53 2 0.22 10.25312095523776 3.793979792298484 13.368025182476027 0 0 0
618 53 11 0.06 12.120189167848707 4.391974448084589 12.28004378174323 0 0 0
196 17 19 -0.35 11.8608902491835 0.638549444320784 13.996869697753237 0 0 0
518 44 20 -0.5 15.068736700246983 1.056703987672836 14.881698863431971 0 1 0
613 53 19 -0.35 10.761913792051079 4.452763144221043 11.146819969779726 0 0 0
193 17 9 0.52 11.136052885225117 -0.2571220292126905 13.333053767297917 0 0 0
194 17 20 -0.5 11.549890150779195 19.39528928030134 13.028722897189512 0 -1 0
527 44 11 0.06 13.949900741518318 19.602555360303562 14.571837988121388 0 0 0
523 44 11 0.06 16.847020374956962 2.6004748792621317 14.201254185019646 0 1 0
291 25 19 -0.35 18.71215755016135 3.0993267808157468 10.06345903105634 -1 0 0
517 44 9 0.52 15.515878367786314 0.6365419803527541 13.896837735897103 0 1 0
289 25 9 0.52 19.92360533271433 3.431883977418242 10.78862719019705 -1 0 0
521 44 1 0.22 16.794438530759322 2.3058209700508536 13.118624461171072 0 1 0
525 44 11 0.06 16.856515969467857 3.224943941338321 12.487395379948678 0 1 0
524 44 11 0.06 17.744709746986523 1.7563933037399098 12.981120899472439 0 1 0
519 44 19 -0.35 15.696592883545074 1.48118672171565 12.808023308173341 0 1 0
298 25 11 0.06 -0.3362863836359112 4.741198503373131 12.567368446960709 0 0 0
292 25 19 -0.35 20.05640122844372 2.8499789860783076 12.108934639957994 -1 0 0
449 38 1 0.22 16.847448150127278 -0.08806375557686752 10.150293356209202 0 1 0
452 38 11 0.06 17.9048712703419 -0.19727680586462876 9.923717179241704 0 1 0
520 44 19 -0.35 15.809741497194894 20.086971638333686 13.674730432942207 0 0 0
300 25 11 0.06 0.6559495123599965 3.7381734372845887 13.457124684302151 0 0 0
502 42 11 0.06 3.0588565111924164 9.882673085451199 11.785708096650204 0 0 0
504 42 11 0.06 2.5572623505375813 8.666449798805655 10.704168630527821 0 0 0
498 42 1 0.22 3.4000469446526593 9.07354272328356 11.22242462899781 0 0 0
496 42 19 -0.35 4.059403820826315 8.134843306499365 12.031479115585123 0 0 0
493 42 9 0.52 4.389334277621857 7.002646532991755 11.285002886177782 0 0 0
495 42 19 -0.35 3.5210096317932833 6.619731188062166 10.195097610847062 0 0 0
212 18 11 0.06 20.202478635905955 6.779073036964235 10.921978348028397 0 0 0
207 18 19 -0.35 -0.23853861837932214 8.971488527664635 11.029407084113116 1 0 0
209 18 1 0.22 -0.024780155371790957 7.622488880745417 11.448968618357327 1 0 0
503 42 11 0.06 4.026081037679915 9.701139155732019 10.686018493385516 0 0 0
213 18 11 0.06 1.0161602273544055 7.354634558104464 11.3489187244375 1 0 0
560 47 11 0.06 6.278705712155274 8.772980044651275 9.593721720608496 0 0 0
494 42 20 -0.5 5.521324983767745 6.518817592011094 11.443731491057882 0 0 0
151 13 11 0.06 7.9665735133568685 8.799924767700363 12.402890513176464 0 0 0
612 53 20 -0.5 9.760863816091762 6.5455940973415485 11.330425735202006 0 0 0
153 13 11 0.06 7.448937322949581 7.2690392967662465 13.086606323000431 0 0 0
149 13 1 0.22 8.006519250443004 8.22989821410635 13.32629070815388 0 0 0
147 13 19 -0.35 7.506144784157189 8.862260035493456 14.476495734720785 0 0 0
152 13 11 0.06 9.057649713157385 7.965142074688844 13.609080036796248 0 0 0
570 48 11 0.06 9.904937304821527 11.583906425837315 9.258649121311052 0 0 0
620 53 11 0.06 10.965398847789224 3.54192765252818 14.207536263838637 0 0 0
614 53 19 -0.35 9.34117393715953 4.8655089477161555 12.950245569071331 0 0 0
611 53 9 0.52 9.887515064728541 5.394188383195046 11.730950783369417 0 0 0
652 57 20 -0.5 13.72330974918504 6.78011458746612 10.231933511550567 0 0 0
164 14 11 0.06 11.052380988752978 8.73482508467529 12.427107287206873 0 0 0
651 57 9 0.52 14.850263758422546 6.550387550410957 10.633216272499743 0 0 0
163 14 11 0.06 12.610812056377423 8.094706420397099 12.25291347997957 0 0 0
165 14 11 0.06 12.38159707210028 9.6693603690416 12.571978716738734 0 0 0
161 14 1 0.22 12.063386782026395 8.782371801307297 12.881369560502195 0 0 0
159 14 19 -0.35 12.186354680539626 8.5829563207632 14.283124668049549 0 0 0
653 57 19 -0.35 15.675487654437989 7.698712524813491 10.85012949538754 0 0 0
658 57 11 0.06 15.972572927268322 8.067385476446729 13.002323946450636 0 0 0
157 14 9 0.52 12.766136668940893 7.340029946716087 14.479285570155785 0 0 0
654 57 19 -0.35 15.060977719684482 5.495193926516129 11.490437680046213 0 0 0
160 14 19 -0.35 14.116732366616336 7.232305412584116 14.795726239921605 0 0 0
296 25 11 0.06 17.794300667827898 4.956177964341779 10.09654376456575 -1 0 0
211 18 11 0.06 -0.26598251646982407 7.430123051474721 12.550024634501412 1 0 0
660 57 11 0.06 14.98477045535156 5.710037118995559 13.02033861477329 0 0 0
659 57 11 0.06 16.581720165895725 5.644384010243308 13.401314917264514 0 0 0
655 57 2 0.22 15.939457044193846 5.924011793482866 12.55219228486841 0 0 0
592 51 20 -0.5 18.379089971688018 7.108278117423483 14.54979791141322 0 0 0
657 57 11 0.06 17.20582746213214 7.709811820083839 11.800165119612453 0 0 0
656 57 2 0.22 16.19564905207782 7.442985440034357 12.103149929923514 0 0 0
591 51 9 0.52 18.29966953954269 8.287795943190273 14.887442420492896 0 0 0
7 1 11 0.06 14.96618918444608 11.482571602622864 10.792408868818129 0 0 0
593 51 19 -0.35 19.35015056506348 9.116312946520685 14.443736014731558 0 0 0
594 51 19 -0.35 17.230710332621783 8.905115788487821 15.434093102338979 0 0 0
693 61 19 -0.35 1.5029091164590647 14.140278094098491 11.686704193456515 1 0 0
439 37 11 0.06 4.033822513699303 13.877157486741424 10.3007581330091 0 0 0
437 37 1 0.22 4.55809817983618 13.528600446578018 11.222113998968341 0 0 0
441 37 11 0.06 5.237218571435947 14.34554740871072 11.478554963686424 0 0 0
440 37 11 0.06 3.8391121278555227 13.529815084252093 11.957431472759955 0 0 0
393 33 11 0.06 1.1330517635870982 11.92204487707366 15.0041028478164 0 0 0
392 33 11 0.06 1.9533416498052412 11.316979192388338 13.601826586456632 0 0 0
96 8 11 0.06 2.246954430570649 16.923808134104284 15.279218030205444 0 0 0
433 37 9 0.52 6.414846503176227 12.349112790290052 10.27441162457322 0 0 0
145 13 9 0.52 8.230015131501615 10.06527664659191 14.712071456887303 0 0 0
86 8 20 -0.5 5.343484356174601 14.357828003578927 14.87266425309929 0 0 0
435 37 19 -0.35 5.346151945635088 12.324831040303144 11.161538095934658 0 0 0
434 37 20 -0.5 7.2439011732065275 11.544537221466749 10.487196385401543 0 0 0
148 13 19 -0.35 8.176643192329102 11.089331820994499 13.799656426998663 0 0 0
150 13 1 0.22 7.579865687722563 12.322051157441763 14.244742104373355 0 0 0
155 13 11 0.06 8.121114323488209 12.86833499045616 14.988908636117998 0 0 0
156 13 11 0.06 7.452530996127477 13.056826317573398 13.452724050816613 0 0 0
154 13 11 0.06 6.678306243701353 12.104636247302777 14.827292609973606 0 0 0
43 4 11 0.06 8.469072865608451 15.15218947531148 11.025445083676198 0 0 0
45 4 11 0.06 9.740675132517051 14.842927615577624 9.908021709519325 0 0 0
671 59 9 0.52 12.279777670277417 13.60185944789133 10.610123549053242 0 0 0
310 26 11 0.06 12.574720437036108 11.499728826945468 15.996976399265124 0 0 0
672 59 20 -0.5 11.4204552213079 13.26385052663959 11.443888971334484 0 0 0
2 1 20 -0.5 14.392314999800723 11.095979001552191 13.567957504098219 0 0 0
12 1 11 0.06 16.745042681764254 13.438249781281616 14.216869155571995 0 0 0
311 26 11 0.06 11.252956820132445 11.04767636035745 15.22344894015513 0 0 0
312 26 11 0.06 11.804580669760599 12.717916954116218 14.866781098231463 0 0 0
306 26 1 0.22 11.689040186244709 11.924994289957716 15.626701516031156 0 0 0
697 61 11 0.06 20.373750107100747 13.419659607416216 10.96197058395669 0 0 0
696 61 2 0.22 0.0976672124221129 13.857397663510762 11.842056874781548 1 0 0
11 1 11 0.06 15.322346807164084 13.752583361035551 15.206932671910304 0 0 0
1 1 9 0.52 15.315498205736919 11.828886659890143 13.247312255374899 0 0 0
4 1 19 -0.35 15.047656125693862 13.190513486338183 13.244581031210656 0 0 0
10 1 11 0.06 15.951297836388134 15.013996034568686 14.068307494151329 0 0 0
698 61 11 0.06 0.058233563436058844 13.1255173134872 12.717015465847847 1 0 0
6 1 1 0.22 15.732650761093803 13.95529946802285 14.23150594554656 0 0 0
9 1 11 0.06 16.777406839910043 11.216672126367756 10.406750578639972 0 0 0
5 1 1 0.22 16.039344152798492 11.623121133803485 11.10557735556575 0 0 0
3 1 19 -0.35 16.270695378623884 11.283262026592038 12.423447413191028 0 0 0
748 71 26 -0.39 19.157741473037525 13.416549068682968 14.883429146819747 0 0 0
600 51 11 0.06 16.87569334181716 10.66487872129786 15.380506524130382 0 0 0
598 51 11 0.06 18.929450123018327 11.218099826886764 14.211082490738187 0 0 0
596 51 2 0.22 19.083191481973834 10.376016948755332 14.89961175572698 0 0 0
595 51 2 0.22 17.80361563891185 10.209342010823564 15.800022034105568 0 0 0
597 51 11 0.06 19.938867285360793 10.533512910575833 15.519745004751789 0 0 0
706 62 2 0.22 2.963773248304432 19.687909155379153 12.574683853701385 0 -1 0
691 61 9 0.52 1.5538167660090614 15.524132711315527 11.900258784506589 1 0 0
708 62 11 0.06 2.6669014757775518 19.18923603874392 11.73336857300102 0 -1 0
707 62 11 0.06 3.692927414017416 19.102779501178688 13.170112496367727 0 -1 0
692 61 20 -0.5 2.344101102746101 16.19229768152678 11.26478687384095 1 0 0
694 61 19 -0.35 0.38703695138419847 16.088424958834942 12.368230535663304 1 0 0
224 19 11 0.06 19.40065081028547 19.16597847878343 14.28912978963452 0 -1 0
95 8 11 0.06 2.248415792814609 16.010183614271654 16.77824098700662 0 0 0
90 8 1 0.22 2.713074823977371 16.08864529548127 15.779896385698214 0 0 0
44 4 11 0.06 8.177845401804625 14.941049648136298 9.295035115411634 0 0 0
199 17 11 0.06 8.184329059115365 0.14625859795670193 13.130369417558338 0 0 0
41 4 1 0.22 8.850029931505317 15.423219192082257 10.046795787259446 0 0 0
85 8 9 0.52 4.928599687934596 15.576049265268482 14.809292925108272 0 0 0
91 8 11 0.06 6.826328139530122 17.783191638560787 13.736915416685566 0 0 0
201 17 11 0.06 9.063066919182976 19.416123251295176 12.959242403142644 0 -1 0
200 17 11 0.06 8.471004811290246 20.227517847905773 11.597669814622387 0 -1 0
723 64 19 -0.35 5.054473121337121 17.811450032017085 10.838087472361503 0 0 0
722 64 20 -0.5 6.307618449584279 19.479901973835155 11.702604790154286 0 0 0
721 64 9 0.52 5.9256591484853605 18.93288108793049 10.73845144645068 0 0 0
92 8 11 0.06 7.282802607185539 16.423094039279285 14.667272339249509 0 0 0
89 8 1 0.22 6.749362081939221 16.696371809797505 13.756249049538798 0 0 0
197 17 1 0.22 8.952879291296236 -0.3510726082090977 12.56426910259946 0 0 0
93 8 11 0.06 7.37575154851203 16.33387027771643 12.908234913984822 0 0 0
87 8 19 -0.35 5.356366506875834 16.34819091385114 13.713220336316814 0 0 0
39 4 19 -0.35 9.04702417908359 16.843530383744778 9.812098991040841 0 0 0
48 4 11 0.06 12.494382355548735 17.757258706417744 10.252722120483078 0 0 0
580 49 11 0.06 11.508010190258597 14.775678932435417 13.255756827437166 0 0 0
42 4 1 0.22 11.53130564601396 18.21854210961068 10.007836921560289 0 0 0
528 44 11 0.06 14.108940725752056 18.91166630828365 13.04906790526093 0 0 0
47 4 11 0.06 10.953488227735788 18.020240750804433 11.000002097900632 0 0 0
574 49 19 -0.35 9.982879885182369 16.510771507062785 13.621632770265501 0 0 0
579 49 11 0.06 11.495604133061013 16.46218359798381 12.599266939413118 0 0 0
575 49 2 0.22 11.23245089487625 15.771901950877217 13.421286854329633 0 0 0
576 49 2 0.22 12.036253417592745 16.10771121032422 14.681869880220109 0 0 0
577 49 11 0.06 13.018881423848693 16.444367565790074 14.596246564535573 0 0 0
522 44 1 0.22 14.715481551416124 19.156903639456672 13.92838819167643 0 0 0
526 44 11 0.06 15.029280132347852 18.25780542831412 14.399376655995017 0 0 0
453 38 11 0.06 16.601168581812985 0.9594376393444513 10.086714235771328 0 1 0
454 38 11 0.06 17.219670161418705 17.077119820628234 12.408636265917567 0 0 0
450 38 1 0.22 17.012851459575693 17.262011604125036 11.339133245800186 0 0 0
448 38 19 -0.35 16.034752278706883 18.24556160239382 11.117933334816396 0 0 0
695 61 2 0.22 20.165414151570523 15.201297918650289 12.078673295018698 0 0 0
223 19 11 0.06 19.46859008669916 17.468337152483073 14.846767536561286 0 -1 0
221 19 1 0.22 19.774321227456213 18.493521547378585 15.085782832782385 0 -1 0
699 61 11 0.06 19.894609203304256 15.616091366382454 11.08997048413241 0 0 0
700 61 11 0.06 19.289329257499936 15.002491131637104 12.711759373402973 0 0 0
225 19 11 0.06 0.04192548414998398 18.33770664892497 14.772761986224571 1 -1 0
367 31 11 0.06 3.3950989641715545 4.581073590782073 16.845274852566014 0 0 0
369 31 11 0.06 3.4091920262887823 3.0815151110206376 15.75892254044726 0 0 0
603 52 19 -0.35 3.3143629707947895 0.5147981555518121 18.888941095693944 0 0 0
601 52 9 0.52 2.1523479656504327 1.3471086988732366 18.747738638752892 0 0 0
604 52 19 -0.35 1.2684266376920597 1.3482586638815977 19.791873509520926 0 0 0
602 52 20 -0.5 1.8900620923122649 1.9090873333166454 17.700698225195524 0 0 0
365 31 1 0.22 3.105596847582968 4.132814694974833 15.862454880710162 0 0 0
735 69 31 1 0.8588510993376048 1.19985475443802 16.494181912462828 0 1 -1
218 19 20 -0.5 0.20754460161595045 20.3885242227743 16.836197395089364 1 -1 0
368 31 11 0.06 2.0154402433192997 4.094417561588648 16.021467639026213 0 0 0
182 16 20 -0.5 -0.3557142951651697 2.457284727483407 16.265266909466938 1 0 0
188 16 11 0.06 18.811509552766154 4.78718025537379 19.3424019446266 0 0 0
363 31 19 -0.35 3.527354801114409 4.9420593389697345 14.78494677844159 0 0 0
738 70 26 -0.39 9.211749649921101 1.1050776737779993 20.19475773671558 0 0 0
264 22 11 0.06 6.499465848403124 4.803065557331674 15.122360885862568 0 0 0
262 22 11 0.06 7.9269068738161685 5.640150426019779 15.125614654974044 0 0 0
258 22 1 0.22 7.216774006711633 5.15337447204203 15.73278283528292 0 0 0
276 23 11 0.06 4.795437262316676 2.744217484850637 18.65720802432279 0 0 -1
274 23 11 0.06 6.412711608765565 3.3464369448185294 18.73901320890213 0 0 -1
74 7 20 -0.5 5.5378927783486995 1.745717245823347 16.713289465989682 0 0 0
73 7 9 0.52 5.970385744445275 0.8065319092243304 16.00715928493777 0 0 0
77 7 1 0.22 7.918204047703712 0.0008989698165659532 16.952435378335977 0 0 0
741 70 26 -0.39 9.62775001101653 2.4624845479067945 18.462819926162865 0 0 0
79 7 11 0.06 7.668457953014363 19.739376682458527 17.098289725086424 0 -1 0
259 22 11 0.06 7.185467351540729 7.73731568173271 20.018579607405044 0 0 0
81 7 11 0.06 7.69750399887667 0.5747147226163886 17.84184706469746 0 0 0
719 63 11 0.06 15.204102548049955 1.3408273997782423 -0.177583502179834 0 0 0
204 17 11 0.06 10.942176021481718 -0.028200565752800666 15.895187679567952 0 0 0
198 17 1 0.22 11.477283471115527 0.6979445309572021 15.395932085047122 0 0 0
737 70 26 -0.39 11.479057786006972 3.1573657885777515 19.467485291960564 0 0 0
736 70 27 1.34 10.34594262434319 2.1356212171635023 19.847979394039562 0 0 0
739 70 26 -0.39 11.228952151688233 1.0121218001989905 19.229849940713024 0 0 0
531 45 19 -0.35 15.337184619684061 3.8353919905219316 17.876371310593342 0 0 0
533 45 1 0.22 14.102975740831255 3.134158187263859 17.50336973913582 0 0 0
536 45 11 0.06 14.112583774953793 3.12009936437479 16.47757877695353 0 0 0
537 45 11 0.06 14.171670299345184 2.073982667860586 17.67361703043492 0 0 0
202 17 11 0.06 12.388683917571912 0.7906002786738657 16.031729814394332 0 0 0
529 45 9 0.52 15.166775303616507 4.868895041857274 18.766706722341283 0 0 0
203 17 11 0.06 11.019050979899632 1.653573570336396 15.531545010153936 0 0 0
230 20 20 -0.5 13.153404971130923 19.04370914038237 17.421586263924915 0 -1 0
534 45 1 0.22 15.849436338105077 4.501960345426176 0.18450522523256152 0 0 1
540 45 11 0.06 16.22511046095721 5.1782183814798355 0.960741796646992 0 0 1
760 73 26 -0.39 19.335742445007547 -0.07834163149372991 20.08272723657484 -1 0 -1
187 16 11 0.06 19.99166599833113 3.477744865859171 19.3671161534053 0 0 0
759 73 26 -0.39 17.102607281066163 -0.3865151180845255 19.86547847993979 -1 0 -1
191 16 11 0.06 16.787572282727545 1.3116822603719895 17.325351704815688 0 0 0
190 16 11 0.06 18.419798315275372 0.7037269860688624 17.62624859856927 0 0 0
192 16 11 0.06 17.59552026087202 0.3140250666728379 16.140671168427808 0 0 0
186 16 1 0.22 17.74997576280085 1.1342254501924183 16.84266280392154 0 0 0
184 16 19 -0.35 18.058739195107485 2.4503102971615793 16.326341622946842 0 0 0
181 16 9 0.52 19.393329220943087 2.939690796865071 16.72971824804089 0 0 0
185 16 1 0.22 19.125528871989964 3.824454765495343 18.92187052375275 0 0 0
183 16 19 -0.35 19.41828799099092 4.052330969595156 17.5873603900289 0 0 0
532 45 19 -0.35 16.164943015823155 5.107652783305107 19.729494077034772 0 0 0
189 16 11 0.06 18.287922860382537 3.108932408276161 19.055587810743226 0 0 0
319 27 11 0.06 2.690710182317275 6.7048915483073115 18.66645608690031 0 0 -1
362 31 20 -0.5 2.0054589477599696 6.339240513046199 13.673465622957442 0 0 0
394 33 11 0.06 3.6766040127766315 8.804908428287952 14.473615967040862 0 0 0
371 31 11 0.06 0.1297757672004064 5.822545866266009 15.80102155516638 0 0 0
364 31 19 -0.35 1.984196232155215 6.607741844558904 15.91662964936622 0 0 0
361 31 9 0.52 2.485259852155424 5.970265986167096 14.728871069936032 0 0 0
320 27 11 0.06 3.6237710269091403 6.883121295505373 20.108642041959044 0 0 -1
321 27 11 0.06 2.712335011035132 5.386726068772652 19.899464068895725 0 0 -1
317 27 1 0.22 2.689267066409752 6.496663622735253 19.79407203422423 0 0 -1
388 33 19 -0.35 3.967395393629883 9.579129595780325 16.42292083698544 0 0 0
366 31 1 0.22 0.6354367934454332 6.748311698945179 15.996269697212929 0 0 0
370 31 11 0.06 0.2679180824435289 7.574592198812405 15.348901686324806 0 0 0
390 33 1 0.22 4.42402549531232 8.975099485905014 15.243281009151309 0 0 0
385 33 9 0.52 2.9257461706555135 10.343298394099834 16.064028027442703 0 0 0
386 33 20 -0.5 1.9612918857271513 10.183641703078859 16.869007312266355 0 0 0
513 43 11 0.06 4.951235533919144 10.680411123681855 0.03955856933524465 0 0 1
509 43 1 0.22 5.455413117706471 9.875559108309536 20.264355366176126 0 0 0
396 33 11 0.06 4.9591131225185325 8.109939176131318 15.495565517633288 0 0 0
256 22 19 -0.35 6.633389959985621 6.02136797621889 16.67006263741184 0 0 0
257 22 1 0.22 6.911132589003759 6.700359634209871 19.74084341528897 0 0 0
261 22 11 0.06 7.062872652083316 6.057782562766399 -0.11834127848564269 0 0 1
260 22 11 0.06 5.921622429892576 6.560029575323453 19.4670418539545 0 0 0
255 22 19 -0.35 7.8785963281732965 6.106863308686973 18.777084724270246 0 0 0
253 22 9 0.52 7.59211795922622 6.654154096341487 17.48694955836335 0 0 0
254 22 20 -0.5 8.043824686178464 7.680236971208867 17.09152388511513 0 0 0
733 67 31 1 8.791726179526478 9.259052344229689 17.255987097938196 0 0 -1
506 43 20 -0.5 7.908440105542997 10.27913961591593 18.11849147024617 0 0 0
395 33 11 0.06 5.167856414952541 9.642525407659594 14.816288295031358 0 0 0
146 13 20 -0.5 8.962154787406845 10.103560316708196 15.66584715163028 0 0 0
158 14 20 -0.5 12.17444938805868 6.294823153448433 14.124165248981736 0 0 0
535 45 11 0.06 13.179737557171116 3.5776022423648492 17.806195821636358 0 0 0
398 34 20 -0.5 10.418412371982212 8.72928978314051 18.05014363115197 0 0 -1
401 34 1 0.22 12.984321654916652 8.567396471963395 20.170481345620267 0 0 -1
406 34 11 0.06 11.913018853833567 5.463470523939046 17.579700858375233 0 0 -1
407 34 11 0.06 10.275704227562985 5.064775084558708 17.7194011929989 0 0 -1
402 34 1 0.22 10.941595924253443 5.88659677957715 17.64690557965313 0 0 -1
408 34 11 0.06 10.976955858741062 6.433181200377298 16.69126139840501 0 0 -1
400 34 19 -0.35 10.93669079933805 6.599888328841812 18.87709534022401 0 0 -1
397 34 9 0.52 11.201863116473065 8.019614818990053 18.635183492105696 0 0 -1
399 34 19 -0.35 12.525938354583525 8.39557420575201 18.85007989658434 0 0 -1
530 45 20 -0.5 14.188449174317341 5.595690840287945 18.869407014391868 0 0 0
404 34 11 0.06 14.08533949868185 8.274852328566643 20.151827728648755 0 0 -1
168 14 11 0.06 15.244157411151512 7.405007781359875 16.468085446224435 0 0 0
405 34 11 0.06 12.996267867340048 9.653162896453694 -0.2691803681997096 0 0 0
372 31 11 0.06 0.3854378256231896 7.1657309930891895 16.982189357658115 0 0 0
669 58 11 0.06 17.662267768468055 6.885777290044737 19.222076466842275 0 0 0
670 58 11 0.06 17.102364916308474 8.415187677161052 19.264543077047783 0 0 0
665 58 2 0.22 18.077755959958523 7.938785601462724 19.175725671688326 0 0 0
661 58 9 0.52 19.788287689551275 9.183745147638865 18.779554303392032 0 0 0
664 58 19 -0.35 19.048224544777014 8.118100949956368 18.17140317050692 0 0 0
391 33 11 0.06 2.316958099673001 12.872200549317974 14.005408395379364 0 0 0
389 33 1 0.22 2.0884009172913336 11.938915870713528 14.425682230863146 0 0 0
731 65 31 1 1.3837824612106577 10.225586823814961 18.406951794901275 0 0 -1
387 33 19 -0.35 3.1166113157635116 11.522098310782809 15.327252675069401 0 0 0
98 9 20 -0.5 1.8746061029950432 11.672192593445244 19.309712935648164 0 0 -1
97 9 9 0.52 2.0845350505846105 12.692133466607714 19.98678675099569 0 0 -1
100 9 19 -0.35 1.294187188701877 13.87203357774208 19.813889260957794 0 0 -1
106 9 11 0.06 -0.2972722575981311 12.725365735059587 -0.03823724078029361 0 0 0
249 21 11 0.06 7.840893505253561 14.095334599343465 0.02797703625652259 0 0 0
515 43 11 0.06 6.686172197469079 13.447045163700462 17.119134067472558 0 0 0
507 43 19 -0.35 5.756017962331454 10.108022994095927 18.884956641068904 0 0 0
516 43 11 0.06 5.53513875471893 12.27908468690915 17.286028187471146 0 0 0
514 43 11 0.06 5.581075216522961 13.620318195068062 18.449809924682555 0 0 0
510 43 1 0.22 6.164864310921783 12.921153896428885 17.91047729473678 0 0 0
508 43 19 -0.35 7.014845427475635 12.290437286604528 18.727512421372715 0 0 0
505 43 9 0.52 6.9565171125024445 10.848886465117682 18.685418828714013 0 0 0
307 26 11 0.06 11.086055092861228 11.802360772047217 -0.2464983660222769 0 0 1
309 26 11 0.06 10.596680696109788 11.119498297320012 19.062905963977194 0 0 0
250 21 11 0.06 13.299813914479406 13.976442611898484 1.0176786572386036 0 0 0
167 14 11 0.06 13.772085735177109 7.458379216150436 16.930201806207947 0 0 0
162 14 1 0.22 14.366850376939075 7.724893182866953 16.137592115609912 0 0 0
308 26 11 0.06 9.865562957387137 12.658974784944586 19.492041287672784 0 0 0
305 26 1 0.22 10.760244135473348 12.067795882897538 19.51179710465965 0 0 0
303 26 19 -0.35 11.812325116357465 12.698837955365422 18.88000106080748 0 0 0
166 14 11 0.06 14.295694487978933 8.83762650241865 16.05306383833586 0 0 0
304 26 19 -0.35 10.85930239595922 12.546159591671483 16.669435407856476 0 0 0
302 26 20 -0.5 11.80228226308394 14.533107445468303 17.516603025727477 0 0 0
301 26 9 0.52 11.486697616711597 13.339906237508968 17.696898441029838 0 0 0
64 6 19 -0.35 15.024736208191083 11.652555266522475 20.084763742518575 0 0 -1
66 6 1 0.22 14.70632703204436 12.8206369959553 19.26321496783619 0 0 -1
71 6 11 0.06 14.087107516180659 13.603049733248671 19.762006409086403 0 0 -1
70 6 11 0.06 14.230674318786937 12.623011811937124 18.319311444635517 0 0 -1
62 6 20 -0.5 15.588753712148126 10.07604596824673 18.66405732018726 0 0 -1
346 29 11 0.06 18.74596412790781 15.295824695003038 1.0197358487407397 0 0 0
662 58 20 -0.5 -0.20204728328922875 9.825148323496027 18.146258813159662 1 0 0
72 6 11 0.06 15.609043632748774 13.34692378776486 18.99842104946748 0 0 -1
63 6 19 -0.35 17.31093433611027 10.966976400056751 19.535900615683097 0 0 -1
61 6 9 0.52 15.966283599297048 10.988559455677226 19.30614893891711 0 0 -1
747 71 26 -0.39 18.095130365680852 13.726891773747738 16.757190261376884 0 0 0
599 51 11 0.06 17.98987633376678 10.605032509020322 16.77063805528531 0 0 0
745 71 26 -0.39 20.257638922461965 13.665940718339984 16.85151806867149 0 0 0
743 71 27 1.34 19.226617385439212 14.524883303458923 16.03925531579886 0 0 0
749 71 26 -0.39 19.388683927633032 15.541680262446231 17.190714032241928 0 0 0
480 40 11 0.06 4.461789727985109 16.742838061875226 0.26108370635353717 0 0 1
606 52 2 0.22 3.102967272399927 -0.020581771394099724 20.127406006181808 0 0 0
78 7 1 0.22 4.612874653960022 19.755467219245766 16.318444559464616 0 -1 0
82 7 11 0.06 5.289937109525537 18.930663599080184 16.321249499732097 0 -1 0
479 40 11 0.06 4.141133916760208 15.274770919659986 20.324104599485267 0 0 0
94 8 11 0.06 2.366323601528885 15.18087991240344 15.270474169330276 0 0 0
607 52 11 0.06 3.3083179278132975 19.725584421811043 20.13732012875824 0 -1 0
478 40 11 0.06 2.9241439051045437 16.51565419582404 20.070186475272656 0 0 0
88 8 19 -0.35 4.163193079015801 16.099419493963836 15.926083506144606 0 0 0
474 40 1 0.22 4.007150350303476 16.32663991116395 20.162571671996808 0 0 0
220 19 19 -0.35 0.8473985724784001 18.416930536896466 17.433989884212927 1 -1 0
222 19 1 0.22 0.3907204553345962 17.571033344241712 18.54606303490477 1 -1 0
228 19 11 0.06 1.0285346728185618 16.71466460642069 18.632249148933624 1 -1 0
217 19 9 0.52 -0.17652393292713484 19.298022237966883 17.10220270888555 1 -1 0
84 7 11 0.06 3.553186554508849 19.553949635791206 16.231955426109792 0 -1 0
226 19 11 0.06 0.5397115291258036 18.161797587652515 19.42534149976835 1 -1 0
33 3 11 0.06 8.271597789334821 18.120803755659217 -0.1345310917633007 0 0 0
31 3 11 0.06 7.7934892355245164 19.78131341412459 -0.38049829786985184 0 0 0
75 7 19 -0.35 7.334611891332346 0.6106080756197572 15.72100240724542 0 0 0
80 7 11 0.06 8.957821539799804 0.08332236744229127 16.880462127054912 0 0 0
76 7 19 -0.35 4.997219885380728 0.01861307721997474 15.437330939234847 0 0 0
83 7 11 0.06 4.7055829685512585 20.07147243333778 17.372834698229447 0 -1 0
477 40 11 0.06 6.918444443087645 17.292241453654015 16.81804548592808 0 0 0
475 40 11 0.06 8.529105601659948 17.017553642380406 17.838865328152075 0 0 0
472 40 19 -0.35 4.651192289876955 16.653070542149166 18.983545246609914 0 0 0
473 40 1 0.22 7.563378051663133 16.597594349255218 17.436050123373754 0 0 0
476 40 11 0.06 7.776843245521219 15.850560478777867 16.734717842299887 0 0 0
471 40 19 -0.35 6.800670106660217 15.947739828537278 18.464900665864775 0 0 0
470 40 20 -0.5 6.377377338071359 18.050066589037534 19.185777807335263 0 0 0
469 40 9 0.52 6.0039215084746544 16.8726785517637 19.056507390353822 0 0 0
571 49 9 0.52 10.12056361339381 17.20923219836814 14.748217748080018 0 0 0
572 49 20 -0.5 9.229764398322995 17.829310967049587 15.290545694038283 0 0 0
573 49 19 -0.35 11.272507915898585 16.929523112405022 15.523618174877798 0 0 0
578 49 11 0.06 12.119659257366033 15.285049183227992 15.395246638001883 0 0 0
240 20 11 0.06 11.651976146285156 17.220518457114757 18.327517576272754 0 -1 0
238 20 11 0.06 12.327840444502247 16.067343981809138 19.443544859032556 0 -1 0
239 20 11 0.06 11.480588938300603 17.41327023990511 20.026257310218156 0 -1 0
234 20 1 0.22 12.154416060723715 17.099853740882452 19.26814705402883 0 -1 0
232 20 19 -0.35 13.411959886801395 17.828790427950487 19.216101915618395 0 -1 0
229 20 9 0.52 13.784816094949985 18.184743347639113 17.981198164867315 0 -1 0
231 20 19 -0.35 14.811101912885997 17.54769317485509 17.33964355971525 0 -1 0
347 29 11 0.06 18.60434937172962 16.542286302967426 -0.1102604751715936 0 0 0
744 71 26 -0.39 18.18452093717498 15.473514633252677 15.283770191477778 0 0 0
227 19 11 0.06 20.13640828659348 17.333246766896664 18.552745895458223 0 -1 0
746 71 26 -0.39 20.300472275436803 15.27605455872571 15.296011900056094 0 0 0
219 19 19 -0.35 19.440081981170877 18.783502157725444 16.456269260267504 0 -1 0
235 20 11 0.06 16.335134639637317 19.11808949775137 17.41748538234095 0 -1 0
236 20 11 0.06 16.257850597024635 17.825637027794002 18.8101497639569 0 -1 0
237 20 11 0.06 16.74999021162357 17.42545590662266 17.28491143069055 0 -1 0
233 20 1 0.22 16.080125791988458 18.085236529381177 17.727674150091445 0 -1 0

Velocities

411 0.002190152496046838 0.0064264825680357685 0.0021837828223761034
413 0.002153978426268981 -0.012011992964555544 0.0030173513009358168
409 -0.0022521953054286483 0.006537386680004653 -0.004868847714297841
410 0.0087388418734616 -0.0022859111806531195 -0.0037936262098200624
610 0.03711631648549025 -7.408441796841233e-05 0.004174645364092538
648 -0.020086162164463447 0.0020460177551035654 0.028973069313550016
266 0.002153284113044572 0.006283248256181544 0.0028008320878502645
646 0.0048724281708733205 0.014594063334787237 -0.007841281559067204
650 -0.002333948351373888 0.000504934191527882 0.012653966408277696
645 -0.0002002329624266586 -0.004656759328897125 0.007437419996411977
415 0.00998661274876969 0.010265322991870227 0.00759820080510069
416 0.0014383723561008303 -0.014710520744265305 0.0035595489759772995
605 -6.477092330939119e-05 0.006047007976832044 -0.004254949940406939
609 -0.017223490124967454 -0.01573083058080837 -0.02567030326382863
649 -0.023896850588904388 -0.007612780136086718 0.02869463741167005
265 -0.002004574222494607 -0.01007567306582061 0.005798283893910503
647 0.005274235440792092 0.009747623577550631 -0.011091759361426411
485 -0.005015010514005685 0.00918760498580678 0.009648996356806204
483 0.007507709224310038 -0.003597124742006833 0.0011883300999385126
487 -0.0021489688695591285 0.04228463160093757 -0.005923130879385717
481 -0.0024935532660834716 -0.0036839822057462743 0.0022289320657075985
488 -0.004726821217265676 0.01521080487614696 -0.0027758052741571463
489 -0.005023372666000861 0.01781207315681596 0.001223740223040682
740 0.00943969622331553 -0.001636285350990136 0.00145371420469489
484 0.0021134623463923705 -0.0025404314155644896 -0.003747422011697973
486 0.0003661790733989944 -0.0029672582233419773 -0.0005895313986870482
490 -0.03931018539718023 -0.04382793771363455 -0.0012567843155141256
268 0.004507387722172477 0.0064116234557221275 0.006619848665013689
275 -0.016859922174820356 0.013102128422046083 -0.017552980636503027
270 -0.0012987814413232262 0.0032239064005838785 0.000686144239312729
482 0.0016978694090847867 -0.0011270335711349624 0.0012700281465413332
712 -0.0051279873622448215 0.0013883617388353111 -0.002321739823599515
711 -0.0035077272008656353 -0.0028322198901898844 -0.000606088696566193
714 -0.003840271221268352 0.002763754049060277 -0.0012490803058863168
732 -0.0012135416002765442 0.007959855452091498 -0.0035465959412794264
715 -0.0014265056733882544 -0.0025735847640771473 -0.002264342569166739
742 -0.0030158799367327295 -0.0008034089287549352 -0.003724308136973141
713 -0.0038720440005785366 -0.0001255267672190458 -0.005776340562525393
716 -0.00646415609062525 0.0054019419251344 0.007209099755420121
718 -0.0014894491838937866 -0.016174401002345865 0.004771071707568256
717 0.01722757351178092 -0.004475117942483097 -0.020791323778971117
720 -0.011883059950111364 -0.03905822061145591 -0.007804123246871524
14 -0.0008000597901026214 -0.0029913409299176428 0.0004833999241101625
19 0.0023632866955517716 -0.014882560953843002 -0.0033748540365154006
177 -0.015813053040431336 -0.0019285749868384586 0.009153544449517787
757 -0.002480715806191815 -0.00031859993513178747 0.0003634134301022845
173 -0.001964886699024194 4.6175634394403726e-05 -0.0038191007515080908
758 0.001709340032966433 -0.0001979274630697122 -0.007261505967245676
176 -0.001121012247139508 -0.023819692265138095 -0.0007526743352449689
762 -0.001596360665548304 -0.000509460104505248 0.002850046172903457
175 -0.029053141334844792 0.002364652646850283 -0.0021285756391322456
643 -0.003986733404525257 0.0007121932630490292 0.0044235690079925515
761 0.0025367545482764824 0.0004610662827459085 -6.180894132624066e-05
539 -0.029492040950821752 0.0013205457209433855 -0.0043198538276719425
171 -1.557899200624543e-05 0.003733563716010002 -0.0002117159271215922
272 0.009227303830102503 -0.00530495216914679 -0.0012024048915525581
316 0.002717189799939876 -0.0030185280095161374 -0.005918887152198307
318 -0.001810332715144806 -0.0003463160013331413 -0.0017814364637144225
322 0.0038306954416184934 0.02134520373535383 0.005337353146293306
313 -5.9127212059267896e-05 0.00013888746168111738 0.013437761759956398
324 0.03246524068883276 -0.0021497872434337252 0.02846679627628296
323 0.02345759747054023 -0.025777921073224113 0.004597119589570223
315 -0.0010180281049802418 -0.00030951824613586554 -0.010645370511186098
314 0.0019241242479437098 0.007179351842224195 0.005897611310771786
512 -0.004846498332534909 0.013616920614055582 0.02741894970704486
644 -0.005850595721151354 -0.0014598705101273118 -0.0073742066843240466
111 0.0019380862164559843 -0.006125389190224476 0.006932109499565828
267 0.00607625011004933 -0.0010916769622260347 -0.0049240895492733494
271 -0.00486416110664657 -0.009985950215368942 -0.025604012594503737
269 0.0020354090877521217 0.011741806101314773 -0.0014331912224354326
273 -0.0048711461664292105 0.00905592769729749 -0.004205434267910577
110 0.00012666683350721745 0.0031213842578112915 0.007845020154471352
109 -0.003318694317220937 0.007851431407232146 -0.011160964975221618
683 0.002042127888239536 0.0017112498878518163 0.0009298315010396304
686 -5.014097142366664e-05 -0.004319513833721048 0.010216883224797278
687 -0.04121857494136584 0.004992087869705802 0.0016808946340422474
681 0.0014443781547050652 -0.0005387917562950966 -0.00373223229367289
684 -0.0043538228645886795 -0.007070678870851766 0.001890048041959549
689 -0.026396878519798953 -0.046323733227741186 -0.016176931333581498
688 -0.0004746808849892591 -0.004645719020308282 -0.015236615940844179
685 0.004542025656043171 -0.002830792798249873 -0.0035826693104518675
492 -0.0002883098602314033 0.003944845505615922 -0.019858093918878134
21 -0.02457873215744732 -0.006775199173467201 -0.01401000371230735
20 -0.025604090551421824 0.0017529710474287257 0.027735152837785455
13 -0.007078276303446091 -0.01103443081224494 0.004169529427973733
690 -0.015166311295399429 -0.009856219277227959 -0.015639240385542305
17 -0.003176245893364092 -0.0029539082661753156 -0.0015157551307427885
15 0.005361263718586713 0.0012443510849664537 0.0004700905158953565
16 -0.005883306181279169 0.00038819241557137195 0.001695626242641851
403 -0.0033205286596660827 -0.014680030380115658 -0.024970397563126166
18 0.00010129074058468604 0.0116194205279956 0.000300294089156638
23 0.014427239297690847 -0.023370151208282595 0.0004200314525628012
538 0.0007202373510996644 -0.0016879778693839405 0.014375215745100506
22 0.01201995639957685 0.01742229982018407 0.009060225170230012
641 0.0034732651670211926 -0.00021180089090233053 -5.402811082505435e-05
642 0.007328828767792786 -0.0010233406400566747 -0.0034068270924184113
667 -0.0011291091445030787 -0.003327903941056264 0.022171031056924473
668 0.025056485096460353 -0.026505913321207726 -0.011832188030445227
24 -0.010033615145922596 -0.01303210634258257 0.024167844906376496
663 -0.002167590576198586 0.0033680922397826686 -0.0016387523962645702
666 -0.0015016237937942876 -0.011123301138470794 -0.0017591885518336626
103 0.017201052943166987 0.017615950158549876 0.036369581535963244
101 0.005755367224006385 0.005391870089359327 -0.00011181137374847469
107 0.009765725084833952 -0.0026919761536787425 -0.010160726904592934
105 -0.016857969048402078 0.004666174851350567 -0.004652830020333649
632 -0.0030925182975449998 0.0015922604881939055 0.005686738129174296
359 -0.003991060472817094 -0.004127554209701713 0.0004188734563212236
358 -0.01279135155468539 0.02829940758695751 -0.011634739357818478
99 -0.007858464470802894 0.0016654717765679714 -0.0037083296422580473
102 -0.006332029301914986 -0.004445879943436497 0.0018971124437184713
108 -0.011064139849372542 0.015982947984415644 0.017135153160781725
112 -0.001270451952301225 -0.0059743203427572895 0.006665898746601559
118 -0.00685952866465664 -0.009943820522843691 0.03589767833404942
104 0.002060452564614877 -0.005579808424482632 -0.006465138885260121
247 -0.007325230687430765 -0.002768832806087015 0.01192841836973834
245 0.005696060412315924 -0.002651153623691248 -0.004160752386456979
114 -0.00727344103057845 0.0048213207903137125 -0.0016443193745660357
243 0.002974957016155667 -0.0020041032432484784 -0.012495792786751947
682 -0.0008898249654521685 0.00042411226322156014 -0.0032488183642338108
119 -0.01804139605247181 -0.03589536087012269 0.009236172373747565
544 0.003943741948973926 0.0009508616649690694 0.012044229689507496
511 -0.018544020249736743 -0.0032958955368792525 -0.003913292972629559
244 -0.0009276015716673557 -0.0066124014599343965 0.00034679987183791584
246 -0.0007234726606181621 0.004171850720099791 -0.0011384526215936419
252 0.008228076416237106 0.01715591791707221 -0.0019777156914739034
241 -0.0028774615034621457 0.001771503644773089 0.0005726558771233156
135 0.006505045547793647 0.003809304086938595 0.009263672004509407
550 -0.021571922969962784 0.004024516327335566 0.007020110003474181
137 0.0005753416229937382 -0.007863641381676369 0.002064422133264993
139 -0.007531056837234485 0.0006377119982212275 0.007812227329017024
141 0.023609846466438694 0.004605941155904754 0.0003206601256206575
140 -0.0006872437916714917 0.006149237595079302 0.013656871853616621
142 0.016421563352895706 -0.007408081117459835 0.032315976334191525
133 -0.004313454695951105 0.0031440704547179986 -0.0008359898257961643
138 -0.004353163889928605 0.004449627719983539 -0.0032094227321592963
143 0.009514415030123973 -0.0056985564410072555 0.01058019422884289
633 0.0035244989863473073 0.005585449243293975 -0.005819958542148164
638 -0.015979040387428544 0.009797344960033443 0.0011964279172706157
636 0.0026619861286722997 0.0028208458747225884 -0.004655656023192787
637 -0.030842896121776382 0.01135330477028925 -0.0006356901499454047
67 -0.011654177400302257 -0.03050986905457358 -0.021348531603795927
68 -0.018565632356121048 0.0016359532162606636 -0.01735229531277621
65 0.005772288947802636 0.0031174715409219003 -0.001424738397967367
631 0.002869922120776553 -0.008125115160603205 -0.004349663429820249
634 0.0011387271322883823 0.0002644844550407534 -0.0065447530398414265
635 -0.0022407953132339065 -0.0024351112207736084 0.007324518144942398
640 0.013490989902241332 0.0159803252333705 0.018426449209054205
69 0.010496269878589216 0.019002118171136204 -0.006535767141728357
417 -0.005911390281611599 0.008879623689984786 0.020017660863484145
608 -0.020316710275817416 0.025273135360857686 -0.004201709077717216
764 -0.0009697546428270523 -0.003926876127855917 -0.0006433623836804705
768 -0.005589339217232332 0.0010159301284324294 -0.0012306428764325104
770 -0.0033225408438746166 0.005583088250564774 0.004260423442991611
765 0.0034659645884551472 0.004938294664298777 0.001920255528353862
766 0.0026981030692217614 0.0017796915128987457 -0.0023032524129813943
767 0.0022054604878068347 0.006381875826361735 -0.0002276491178692514
769 0.0010660208953038454 -0.0004360428935415356 0.002888670186867641
36 0.022297026490868066 -0.025449702416266342 0.02812588589628158
431 -0.0013435136604876485 -0.009816277748261272 0.006727832563574242
248 0.046979921236005466 -0.00906092631027138 -0.012952463259117496
34 -0.004426941523793387 -0.006800111992188527 0.03244239652889072
35 -0.01807900597959968 0.003308400689931337 0.0005516941477153546
30 -0.009899488371150516 -0.005533533007625155 -0.00391753228422481
26 0.001976522829613922 0.010042495124958062 0.006286920198626991
27 0.004296968954612651 0.005813558040197416 -0.0020030666168103523
28 0.004500002754718874 0.00011532699672721522 -0.0003780699813380077
25 2.592338357419916e-05 -0.003996880039355614 0.0032790367893926844
29 0.0008917418150290478 -0.006527875897925516 -0.005786989446690783
32 -0.0017716822015782425 0.044157269646691526 -0.0018533182097491224
542 0.004470131590696229 0.0028944484865703686 -0.008632307392801845
251 -0.01748781751126396 0.009642811260325509 -0.024995117916722976
284 -0.015319833074736548 -0.016539237628636676 0.01868345111809503
283 0.003734835985530276 0.005527269167241801 0.017482212617465225
242 -0.0035170459402203073 0.0004329763677280914 -0.002592953474086924
285 0.02623596767651644 0.001117919390334777 -0.006494313765903502
281 -6.86278592103731e-05 -0.004044481082735695 -0.011025936792109984
279 -0.01125442278920188 -0.004932027885701203 -0.00433934542953185
345 -0.009686568740132863 -0.004391561535119139 0.0029257786587310814
338 0.0021796549481206662 0.006932533167823599 0.005921912743245164
344 -0.005048287334354163 0.009697452797873308 -0.00829792276282559
582 -0.004490622192979105 0.004314487039330116 -0.0012384297983997535
343 0.012843449596026358 -0.03292782462747777 -0.041994360543816105
341 -0.0037461669127591365 0.0005126453096789966 -0.0006845685232776093
339 -0.003401237566226465 -0.0041851740546434224 -0.0016985760503912101
340 -0.002445721903766403 -0.003318249138231583 0.001211610212897946
337 0.002538923623668404 0.001299085759601002 0.0033957688411509466
734 -0.00925308820218552 -0.007392440091176958 -0.009912525516425519
581 -0.0020605572228815355 0.0032648536658047432 0.00078079658949198
763 -0.002312757753042312 -0.0029534895383751163 0.00023222921950768086
342 0.00020041186333836505 -0.0005432670690549337 0.0008604649349751851
348 -0.0314827510443584 0.016404938416256204 0.010968133652432334
461 -0.007840605705383506 2.9145252765853197e-05 -0.0021931210049697665
412 0.002329593228156341 -0.004504180159048343 -0.003741912938669803
53 0.0032647353631395136 -0.004572215834978458 -0.0037290078027200028
51 -0.0016614757522326893 0.0016657026331025845 0.004821280119670477
55 -0.0039331410245703365 -0.02130520855391896 -0.011175772928880874
57 0.007510663776679292 -0.013306619235710086 -0.02727462652526569
459 -0.0030898231588628836 -1.2640531068025225e-07 0.0015646107725748005
56 -0.02530871951114009 0.008608154460693955 -0.013395865339461221
457 -0.005230688473532228 -0.0074540917005566565 0.00618741158739855
49 -0.005380645291126817 0.004627101677357258 -0.004403217487324446
463 0.008011890428038078 0.0011162155647180365 0.03658945293933234
491 -0.03245150920234199 0.02394899512754292 -0.026469147814519374
464 -0.03570725500320985 0.005970887850634443 0.006587158970804947
465 0.007814583795691998 -0.006144859695161543 0.007506516231005104
622 -0.0016687688363384763 0.006887569624394069 -0.010782699480125007
128 -0.011804397550959243 0.009424159193636863 -0.005164038553891046
125 -0.00025446864188099545 0.0023993212776005886 -0.001448835005370062
129 -0.0007062964824381138 -0.0305877989842835 0.0007888381832018815
123 -0.0012159357221744398 -0.004013740505742038 0.012247217591328538
122 0.004011334897931317 0.0017371549886715724 0.005350629804416553
121 -0.0017270930530821 -0.0027883548212179793 0.0036824091564328114
127 0.022814086381173843 -0.010411132920323363 -0.012131790839985068
621 0.005269424170592952 -0.0029747150727806137 0.009194635167446745
623 0.0017391240461432048 0.004434241543671551 -0.005244870396242336
627 -0.010437323346087027 0.02040363737262072 -0.009883136108847262
379 0.019891030082650477 0.01198674538958871 -0.010633755068463315
381 0.02215609989579141 0.006076165776665654 0.060495778798691106
377 0.0020398222046858986 -8.244637286118442e-05 0.010050573401408691
374 0.005599365824741123 -0.008070263467439664 -0.0038462887622414716
375 -0.0006902409597711673 0.002372722729893156 0.006358569077706444
373 -0.002269616905764698 0.0005599999122890812 0.002532321933735394
380 0.006953604755891067 0.03631323128622206 -0.0038974803478465997
376 -0.0018761960024173403 0.00030701485320155003 0.0013351206934665875
288 -0.013013848397849989 0.028529331317187157 0.006940861201262266
446 0.0036673820913829293 0.00017907253890610625 -0.0005583725386314071
178 -0.004824649046296808 0.011152320239205957 -0.007523962805207916
180 -0.009213279671921528 0.022005597050202816 -0.030705751702903603
179 -0.02287379696662336 0.03716528520644435 0.017581140126802154
174 -0.0021993403832192104 -0.0005282099985357644 -0.0039653854119779345
170 0.0005455777883971578 -0.004737327413197766 0.00826339612767982
172 0.0014446717660085281 -0.0023998180677265004 -0.0014581461510164361
169 0.0008702699258289386 0.005541773212440327 -0.002118814154023599
293 0.009314339724238396 -0.005705230607568348 -0.0006800313033009997
295 0.011436507852019087 -0.031058783965750632 -0.009299341619856398
451 0.0018286051472009655 0.002599942128630416 0.025052703633415063
460 0.0051036814965179774 0.0023194315286007134 0.0001777917603076521
458 -0.007669273747277303 0.0005293631305501204 0.00142303583783898
466 -0.016588169713037577 -0.008114733141821734 -0.014638799070105879
462 0.01441983053352789 -0.00840649163915053 -0.005737202349330023
467 0.04581897269575864 -0.012317501320797673 -0.007974302324438732
468 0.009573767659726232 -0.016721650041530096 -0.0032559230921118936
115 0.016079388046164395 -0.018801342929188027 -0.011204786448976965
113 0.0037950853869028315 -0.003412637422480287 -0.0002118886755310757
116 0.00316391923723302 -0.013373563743675933 -0.01987250879559926
558 0.03319887009735308 0.005944193054802858 0.0022416164088152274
557 0.0008103083062731752 0.017333464415587734 0.007655096134908198
117 0.028174677266694204 0.014591406297238206 0.009335041770674395
556 -0.0021395565067877887 -0.007813106605405016 -0.002709677585607282
551 0.006082469682982556 1.85537127626629e-05 0.002341826797420779
552 0.0017082205750734985 -0.0027437152339616724 -0.005201454448200886
553 0.0007301203408234708 -0.000574506666190606 -0.007966016617352486
554 -0.0020394519310291204 -0.006252752244191123 -0.000489455685685078
555 -0.006454690355398518 0.004114607916009281 -0.003950492206796107
569 -0.011756817714321606 -0.005959342500196538 -0.01740941417348876
559 0.015386741560420173 -0.04620866450976021 0.018022826270525684
565 -0.004269727900831913 -0.004818778412942794 -0.0030755764441114195
383 0.031390008790495534 -0.014169391638871504 -0.00031403273229375255
378 -0.0004143599533496782 0.011679049080730633 -0.007469954118886323
384 -0.0016833798336164038 -0.007434145668388559 0.01573535543715866
382 -0.0031429509094895625 -0.0051493593581226895 -0.002071615649629994
563 -0.003322500463096754 -0.002471279944298677 -0.006434901154609146
566 -0.007106714038010405 -0.0019521741605238914 -0.003160339234794317
561 -0.006601869742233297 -0.0002401538876590523 -0.0072019638026738384
562 0.0005705330185899061 0.004619108385338324 -0.006883816641180875
334 -0.05747633549664743 0.00741494097092946 0.0009032619249369244
335 0.03223337828038021 -0.012855184893880043 -0.0025063267588833504
568 0.002973758189773979 -0.0269174566891532 -0.020521646575436897
336 0.0002849032416409836 0.026936262579743065 -0.03868975702041458
330 0.004053622543150255 0.002370697646601746 -0.0014223814343165084
567 -0.005204975096560107 0.026112068329376098 -0.02912270160461301
333 0.0032228193873529115 -0.023640993759937612 0.0037568523620245364
206 0.0018233828696290002 0.0021521732770327863 0.002588480025305454
205 0.003231437617874533 0.0003641624441575201 -0.002276966606047528
297 -0.016647708302952025 -0.012560101317091364 -0.012010142091237266
326 -0.0015443918136039117 -0.0006034672118034516 0.007191094664107216
331 -0.00521931165171213 0.0027620438806380053 0.0017296639935282057
332 0.0027625713390123274 0.028885654364020293 0.02685895404941685
329 0.0038595492479187176 0.0023142545619842924 0.0056475177878856486
328 -0.0013992855207304315 0.000750782027692381 -0.003430164486582197
327 0.0010915025601130168 0.0058500041578276605 0.004697056846814155
325 -0.005136238501537293 -0.006069583736778665 -0.005748418525642948
215 -0.016506537017726773 0.0017112741658306201 0.013542795006962597
216 -0.007479977023371194 0.018640236259155927 -0.0032507817170920605
425 -0.0015469663876964796 0.002948250478540614 0.003632585416542428
427 -0.0070555340139262755 0.01885957616730817 0.01656280658011288
360 -0.007532105364696743 -0.012182703229417753 0.02572396522854783
350 -0.0042017213165602 -0.006739274273917612 0.00990403940234191
354 -0.007664471004162743 -0.001972349282956699 0.006467034180740308
352 7.863471518192771e-05 -0.002817461655184101 -0.002922092380416144
349 -0.0011340045837799158 0.004728663317302102 0.009615282584800081
353 -0.00391784312936706 0.0008804946417294933 0.0026350766821641716
351 0.006240950837318197 -0.007635520712783571 0.0004986595061584893
355 -0.008204442010565095 0.03430936070209227 -0.022734809990587617
357 0.0005978950547480681 0.024828511512266206 0.025131139631322658
356 -0.0011346375956333597 -0.030189657567229747 0.02111295924339955
432 0.001339108223008578 0.01479297569124818 -0.003139274665833035
429 -0.017680279786200463 0.021686053499824647 -0.0036664746216803737
541 -0.007016494766201853 0.0011383557436634199 -0.002786425180820645
548 -0.0009716245658891998 -0.011793224684016298 -0.00170546473860543
120 0.0034862831016822973 0.01333476278459032 -0.01291329044098558
438 0.001457136153530753 -0.003927655297503678 0.002687981284330434
444 0.00500023857224494 -0.00916928936841935 -0.002748980062810164
442 0.02703143127079018 -0.004470269665236999 0.040296058964052583
543 0.002354878486471057 0.0005645084949269955 0.0033685987178467595
443 0.018853782374523304 -0.0013839006307400188 0.003142759663849927
436 -0.003980730967247513 0.002569054023423212 0.006595672364133666
564 0.003233459183683351 -0.0003337468468485439 -0.008685950619828584
546 0.005063197466923018 -0.008311950564998892 0.007281001925624879
136 -0.006090622709053122 -0.001697903181898021 -0.0021173032925392876
547 -0.021461496860635195 -0.0039853252908969485 0.02657968415457295
545 0.0019342073941376067 -0.00010789577589809395 -0.0027596848629092272
676 -0.0025590635052374737 0.0011810448721164563 -0.0063308740664567865
678 -0.001713466500948324 -0.026064937399765918 0.006955877983034942
675 0.0023757216807514994 0.004737053869584786 -0.0013831113465920966
680 -0.007961846837289673 0.013200280144917552 -0.012599708022270633
677 -0.016617608683387936 0.012954913899114257 -0.011894757080211678
673 0.004565784993163144 -0.00043927266321873676 -0.0029091653030158997
679 0.0034196947278391982 -0.012263276661067544 0.01583587259978375
549 -0.03054103121149787 4.615699153625214e-05 0.005954256478710655
134 -0.00026340273618065483 -0.002763465119139383 -0.0028770339885573946
144 0.0032234135982228407 0.018539420412686518 -0.043485150332032256
674 0.0012392048969420086 0.00641648657660654 0.0001625420037240682
639 -0.0037767873886589815 0.012475592956387983 0.03715773551341843
208 0.0016516433398864629 4.713262013657793e-05 0.0005862819635217
214 0.03489399008115438 -0.01359068434698479 0.04153843371902198
210 -0.002393737781245251 0.005402761010605901 0.0016943082144819628
750 -0.004339871053575094 0.004530944619821948 -0.005764238113065076
756 -0.005177980331128554 -0.0028915401403136923 -0.0007572961803207677
751 -0.0011874032861331823 -0.0006677273004977089 -0.0011144053852896363
754 0.005737673968480975 0.0008999895133224999 0.00034597150673284263
753 -0.001316288218611333 -0.004145702520245636 -0.005285206615505386
8 -0.015050597636549262 -0.06189168968202549 0.0012114036036140838
423 0.004878058151642274 -0.0021348047145804253 0.006332418723112926
420 -0.01847419300093135 -0.025792630974456603 -0.02287307604234695
414 -0.0027336474568663565 -0.005786480891144552 0.006405856666896376
418 -0.008126369229558348 0.03190221281971059 -0.01332317817025938
430 0.009533449755965736 -0.039777367041141536 -0.03439068065556761
424 -0.0026769579711189446 0.004667509792148785 -0.007667016069203497
419 0.020313229425709955 -0.015003901971942828 -0.01783839306859742
426 0.0021036708798426442 -0.0011873013809066176 0.0029179447588734983
421 0.0014158132448031636 -0.004060355300032505 -0.001374463042835037
422 0.003922429662291045 0.007225925930907426 -4.013404783270103e-05
730 -0.013578038590828076 -0.01175758057206779 0.007686124730284382
52 0.0007261511771863828 -0.004907603323769965 0.0026444103704438577
54 0.016731630016616095 -0.0022103468025096358 -0.005944656556826314
728 0.004033393402137621 0.013872420267203343 0.01804374762256612
59 -0.0007211383042075902 -0.017984349143404167 -0.010679829023490727
58 -0.010504578552655696 4.4481202187947825e-05 -0.0059532980206251996
428 -0.001496543646474628 -0.019754269787790858 -0.008782567034669475
629 0.0045328220909306586 -0.0012071120511691822 0.026782728392576432
725 0.0015944946263390844 -0.003030788143345041 0.004389901650479754
729 0.008366137767132025 0.0005994587183521685 -0.009565080259359203
724 0.00033827274841943957 -0.009129299156232238 -0.0012683549382935875
624 0.00020043698679052577 -0.005892606759720118 -0.005954841764581609
630 -0.002533105554704824 -0.017554457904675212 0.005766750772610706
726 0.001016241648241446 0.0018378356089915203 0.002945068874868402
727 -0.011582729935407961 0.009343847393126891 0.020186783513124636
626 0.010386739080886609 0.008419801129212126 0.004928577312745244
628 0.0017520624666090812 0.03659424862632258 0.023443125615233748
625 -0.0024139489604949427 0.002122804457301826 0.015710339691298054
38 0.003302532529217459 -0.0031438809983790716 -0.0029892054722962433
286 0.005602752616875706 0.02637054654952743 0.02690933373652331
287 -0.025892395422745844 0.01137268449897568 -0.0259861256243287
37 0.0017436790330055774 0.0008197793820373067 -0.003094830567469032
280 -0.00904670824934896 0.00482430787484005 -0.0052788963332208606
282 0.0019419360639304597 -0.013773682559424372 0.004232256384156271
277 -0.005045332611261715 0.005218757927901582 0.002373922386356703
40 0.003002456998281687 0.0010666112061483834 -0.006094008063811451
278 -0.0019214831407380194 0.0022155671043207403 0.0046317433958281435
455 -0.019179650787521256 -0.007498901657335152 -0.007792972478863091
46 0.007279732888119223 -0.006715439557030261 0.015222534333154842
588 0.013732547464472273 -0.004444942890024793 0.006512417478198778
587 0.015314494300059255 0.02497965227710047 0.0013028463509737436
60 0.009122731489322182 -0.006196849279803778 0.0047549775864518425
752 -0.0057861159329622115 0.002959763561910832 0.0033082311366261514
583 -0.0014284362070783197 0.0005615951752935188 0.0014839814602409089
586 0.008028805465840835 -0.006946226585267194 -0.008629326995872055
755 0.006368804348492209 -0.004483765358395393 0.002443973484182604
584 0.0035378898824234245 -0.0007033406125608723 -0.0012419820371920183
589 -0.030860919616729304 0.01687826302847913 0.013435412243415204
585 0.0017628749502015073 0.004038960494084487 0.0016134067539268974
590 0.019411992513125004 -0.02402910022109404 0.02979187396832471
447 -0.007308817323695698 -0.003046696940812237 0.012064117075459863
445 -0.00026019912110418475 0.010343347678993135 0.006219142207103235
456 0.010158480926396011 0.014804296886162239 -0.00011412975122831206
50 0.0034178780206465943 -0.004275810067690735 -0.0016258555344180706
500 0.027860526248075237 -0.0020371868254651414 -0.0024927634315424843
704 0.008623075871576675 0.006445365566043865 -0.0044726182676882355
705 -0.0034564343965808623 -0.0020016056939962078 0.008680456214409295
701 0.0010529567516544846 0.0033657434702784963 0.003019539851867591
710 0.027233241912944267 0.0006296992560140101 -0.010607169810602037
702 -0.006459524962300979 0.00041770091302913143 -0.0005044188879453046
501 0.0008774190036380126 0.010022514111397245 -0.00961223158530907
290 0.0016385205875517172 0.006426585247894784 0.007474920960697981
499 -0.012412854654438744 0.012741157327675386 -0.03205272494611046
497 0.0042285618619357 -0.002568524767242837 -0.008954153248491555
294 0.0066671674958031744 0.0026902963515003093 0.0008626862509177673
299 -0.00433073766360869 0.008448038395482468 0.015155752139036537
703 -0.004833869037706673 -0.0010268745501014614 0.0004144320633347166
709 0.00848468306862508 -0.01777370699044919 -0.014467959454780105
124 0.008259418383758623 0.0018136903273912827 4.694130797606924e-05
126 -0.005838501214961589 0.0034874945957862682 0.001612971051030129
132 -0.00042652100349009565 -0.007358582429585774 -0.024601685318123956
131 -0.022215064804334095 0.022616072194134428 0.0156663846661475
130 -0.005882833187973167 0.011925935984566828 -0.009247171602000129
195 -0.005478467957985706 0.0014685007387595427 -0.003936828452232664
263 0.010711253445617882 -0.0037268699279708376 3.544270694173095e-06
617 0.009989743492331792 0.023963805681432516 -0.0003252126857450276
619 -0.003615834800541416 0.010782762229643436 0.010428299971959662
616 -0.007160612332666152 -0.007810819173971631 -0.00500517408303854
615 -0.005816072540710427 -0.002647504875203364 0.0041626842973114
618 0.027779658778155313 0.02472931914426275 0.031652516033396395
196 -0.009129311775598968 0.005957100882632974 0.001314617953284778
518 -0.003582876415910187 0.0011433140608405005 -0.0011981044316074485
613 0.0020678986391648754 -0.004255635914822633 -0.004938576736496536
193 0.004133136253581161 -0.0030952832200595096 -0.000594486784006638
194 -4.250625002581141e-05 -0.0034850754190303003 -0.004122654753303257
527 0.023963279556008195 0.00780438669873215 0.031159403552861824
523 0.026527840030113124 0.030461420721314858 0.002647620366638382
291 -0.004570943837924935 0.0019787224266822933 -0.0018890425522594104
517 0.003244745696896506 -0.0020741303912507514 0.005977784363009558
289 0.00384814130329074 -9.679292128955458e-05 0.000841134055942297
521 0.004375779006255079 0.0016738038316898842 -0.006164089813801784
525 -0.03385183751930396 0.0033555644014868174 -0.022279458851981862
524 0.003912663992278627 -0.006026482130150538 -0.0025733478699839123
519 -0.002152001555275905 0.0030881982885883692 0.0026634953883636282
298 -0.024154777767281237 -0.014512320440632338 -0.009712379527757296
292 0.0027902489132877782 0.004903827992167411 -0.0014378097345584095
449 0.001638575568376688 0.0011777272691571427 -0.0036676349018434245
452 -0.0026980631126247404 0.023959333372262595 -0.007470007000591354
520 0.0001954235943292281 -0.0015615310957304174 -0.0025207186956873054
300 -0.00828233896635752 -0.008887512170657025 -0.011312394585434468
502 0.021844775588949338 0.02572970770601548 -0.01557767902339929
504 -0.009126139237211775 0.011470018737300499 -0.02248450180418123
498 0.0002126362083399174 0.006642880599797867 -0.0002800527921593417
496 8.410038739937141e-05 0.0004798915281148908 -0.005041813371740264
493 0.0018086403496164272 0.002759087638140646 0.0033882309314414213
495 -0.004923162616486557 0.0034635684947180298 0.011673679129217112
212 -0.0038614218251203044 0.011848929578483932 -0.02857752075378691
207 -0.006225200194334033 0.0016034394361965087 0.01133644185380802
209 -0.007039221683773876 -0.0023725418259430676 -0.0017835222866474296
503 0.015977674218539677 0.005538100839791006 0.0009998369957561083
213 0.00206865822720012 -0.014534526895830124 0.0066458060950764465
560 -0.00757872494771951 0.018235535725729217 -0.020712121999453752
494 -0.0018194153519621792 0.004050767011650409 0.003522130414223751
151 -0.003405844787631362 0.010073399588998347 0.025104152896193856
612 -0.0037416331685704443 0.009580145208207066 -0.0020876907354861686
153 -0.0368236118647853 0.03710924849467013 -0.025652897326271042
149 0.003957416135335753 0.002011519247502898 -0.000644392958957129
147 0.004678253771983741 -0.0017700305811681526 -0.005629327007207007
152 0.008951439851919797 -0.008648305630633712 -0.002383971371398681
570 -0.009097895824688436 -0.03150592729293542 -0.018082842232196278
620 -0.001282913753314929 0.020076328338091642 -0.0022088419093877027
614 0.002249404291943484 -0.005795645183698532 0.0035604787144284103
611 -0.00511293697092701 0.011977524564186923 -0.0023057584536678184
652 0.003951339185767984 -0.004029833789107525 0.007056403476576465
164 -0.04829562960166945 -0.017645503789954647 0.0015664422985006785
651 -0.004897841637935633 -0.0034842487585497093 0.0016129583616223695
163 -0.005793634419150239 -0.042477948018995244 0.014204337424022283
165 0.025363994428940412 -0.007392541816779451 -0.030298207565851713
161 -0.006173330544042379 0.008110621875820236 0.007265271005393214
159 -0.0003354192621806275 -0.003958305406688995 -0.001617249138885366
653 -0.0013142390503393193 0.003787604856229987 0.0023910425032310214
658 -0.018145584007288464 0.002224935549242597 0.00966518482312606
157 -0.017176940062635912 0.0037355769695723694 0.002800858707748232
654 -0.0014156904749137306 0.005522734882582526 -0.0017462764633572035
160 -0.0005395296231481331 0.0037283872727625145 -0.002815788338447144
296 -0.024514908249065066 -0.0009557555973438883 0.023393155832988653
211 -0.007555689587067926 -0.009844391347666794 0.021729751676575433
660 -0.004431250981623732 0.0028084535448178924 0.006497792441973998
659 0.0055775347844006316 -0.014582715205084288 0.011161563879350586
655 -0.0004113497821811884 0.003058669867717293 -0.009280118142866155
592 -0.000426572401062288 0.007306572185285689 -0.003939256959922071
657 0.0010918217462885017 -0.001385359312032043 0.004774119065260953
656 -0.004374769471484015 -0.010879849734858215 -0.005384553643621628
591 -0.001154963092931371 -0.007131857997806851 0.00010853059323239472
7 -0.0027196304596362694 0.015236919255938099 0.006948009598251639
593 -0.002197060008708491 0.004764427812875819 0.006988723408935019
594 0.005772945751713488 0.003759506215500801 -0.00048331889224088615
693 -0.005206209093569084 0.0006503470697699107 -0.004569882252705472
439 -0.025756205711036834 -0.005330653518139419 -0.008557709698890154
437 -0.004832699770887806 0.00796978089466867 0.0018758370188989033
441 -0.006917202542253451 -0.003470304734102206 0.03125673941061272
440 0.028206489086112386 -0.00672756757759408 0.007608607792976515
393 0.00450547599702465 0.013725618825159915 -0.004646236433453654
392 0.0021145089189632646 0.015040446350052476 0.0008115130502602414
96 -0.005786814877348723 -0.009138872301717805 -0.002496760821794545
433 0.011274346637702371 -0.009800489179896354 -0.005664672874295039
145 -0.000823787064269691 0.01005285758410389 -0.0036852893684401777
86 0.007684000511893591 0.002734321951840022 -0.002084584615738452
435 0.014588592723806148 -0.004444693310781105 -0.0036037475566004645
434 0.005754979662116984 0.00230397142687764 0.006070401400685239
148 -0.00013896415646437853 -0.009334694835172247 0.001122701126731059
150 0.0056840151770558775 -0.007434172447959336 -0.002097797525401105
155 0.003288931748149038 -0.019412136300335683 0.007713166064092858
156 -0.009401246532847421 0.02217497657208167 0.019190291161022107
154 0.0047895974558227845 0.015869413017586678 -0.012229792708040813
43 -0.003189783593327382 -0.006022976384351379 -0.004995327992716339
45 0.029681057136739238 0.04346527780433727 0.015102565760694462
671 -0.0032103067640727747 -0.0008181811697777361 -0.00025704589457109257
310 -0.029246903203587988 0.004075481680836098 0.0077671854476524995
672 -0.001959753348971078 0.0014573826192754873 0.0017412097104842989
2 0.0004053716515015107 0.00983991631046158 0.0029383930322244415
12 -0.0073524211374744585 0.0009325971238324512 0.014294891639556996
311 0.022330410272440166 0.005800417067928281 0.016518764673614676
312 -0.03868814243581505 -0.011671794073719549 -0.005751771978222965
306 -0.004876172185380067 -0.002312759020829382 -0.006675810519862869
697 -0.0024883250530961516 0.007332647200926199 -0.008201464942811211
696 -0.00040925068197922055 0.005692601771793788 -0.0016587425679860292
11 0.007649023950101694 -0.0011879094540474518 -0.01486790595718398
1 -0.0012006712530026825 0.007054059472356063 -0.011068534260070081
4 -0.0018320989388914996 -0.001540734088776863 0.002536310369894829
10 -0.034499482349639135 0.02019716462315103 0.008336970666029389
698 -0.0012467584510507653 0.013924044292420886 0.01352775969238435
6 0.004047495818078865 0.0033857350959590376 -0.0026907395014563584
9 0.0059597529470645115 0.01240618994856493 -0.01866854032489574
5 0.00673585840211613 -0.005470936984643569 0.004275127100751526
3 -0.0007418263278322742 0.00911397150334239 -0.007686382228594859
748 -0.003256793102868282 -0.0015208918710345246 0.005653257723125397
600 0.024345253857753792 0.015229981326403925 -0.02755046647273465
598 -0.018558163913872706 -0.00762751804542252 -0.009574636023085788
596 0.00014162733587468743 -0.003965343849807008 -0.003959334786244681
595 -0.00021307491459720708 0.012063534643887595 -0.006089221634839165
597 -0.016482682512342455 0.004546189926389772 -0.005904232626269917
706 0.0020881529892708595 0.00023206834459126046 0.00684740193676987
691 -0.0028882180513793328 -0.008814910548409712 0.003698531027182148
708 5.2242156288648905e-05 -0.0024749876694450737 -0.011078015041711693
707 0.025462199416270943 -0.029891323644906403 -0.01055241894138506
692 0.0012825339570021518 -0.004021135471372598 -0.000612077843920695
694 -0.0029753185425604764 0.0036049305077217614 0.002683161881037475
224 0.013862267933938046 -0.0017094841104410491 0.023518911501719593
95 0.000335052999904131 0.012028646445714391 0.02669642446308959
90 0.004732776245308092 -0.0026566880024438085 0.003100492236858987
44 -0.0019993870379902967 0.016867846804236145 0.02078236341831517
199 0.003756398218389502 0.01235640180828246 -0.007287191041713495
41 0.005030302728051329 -0.00143320333320815 -0.007416184400961329
85 0.004160313501115093 -2.8389611590336563e-05 0.0025275807825330815
91 -0.01016556420318775 -0.006078292856755364 0.013880275622997323
201 -0.028350503796502315 -0.02896419520224525 -0.003280118268386036
200 0.017320415079622297 -0.025085342591077676 -0.009764324346463698
723 9.040325210769073e-05 -0.008532326619147197 0.0014831481536920679
722 -0.0009371584947862315 -0.006632625242616236 0.0037085013876487953
721 -0.0017157280952533698 -0.005761703077410235 0.002264653354714064
92 -0.005039129853919131 0.017041061523967577 -0.006761755988107163
89 -0.0009826708596431528 0.002708657834748518 -0.007029319231662673
197 -0.0003700954604056611 0.007884449238864786 0.007816306353933634
93 0.017358469741956796 -0.0035364740001274575 -0.014409000159176044
87 -0.0009537160621808762 0.002525993706193472 0.002672455281834817
39 0.004105764819559532 0.003400779102468054 0.00247132284126851
48 -0.002284544848163156 -0.009574937695625688 -0.00042109985720097776
580 -0.020910352221746534 0.007400346208353163 -0.006005486415631223
42 -0.003927375850784076 0.0018056084080781973 0.0019466111062515568
528 -0.0394760022778442 0.0014229561344562436 -0.0013639781263984224
47 -0.024867554883300818 -0.0014453783650746844 -0.005013312653295627
574 -0.004922169081740542 -0.004501802563876937 -0.0010626601709014265
579 0.03341335740888843 0.01898114542590082 -0.012186867900456486
575 0.010625159116031794 0.004871682892704655 0.0011574011754429596
576 0.007590773800395137 0.0023668212998288122 -0.0024529922517004506
577 0.005741819598564152 0.028271165958513263 -0.016518217170099218
522 -0.0006843314086696711 -0.0024476096724202817 9.763127450479108e-05
526 0.016339052533305243 -0.04811912440301439 -0.02910190288033729
453 0.03507620919880455 -0.03382944443942031 -0.006249491214267277
454 -0.012625180722141579 0.006217712223179321 0.024338035384181576
450 0.003071255072605181 -0.0022997125172993216 -0.0014335269041295157
448 -0.0010227403421834286 0.00547655635918614 -0.005762865056621471
695 -0.001139858389372271 -0.010281738067292108 -0.0025325832539691666
223 0.028125801116331034 -0.05134732823827771 0.007743367504230101
221 0.006050349947961887 0.0014940819107424365 0.0010535473369779448
699 0.014087261413016165 -0.008557023930989198 -0.005370642172379411
700 -0.0032267442070433527 0.048376176956230185 0.002367045750477976
225 0.012324066911969484 0.006295573625642453 -0.015393649527105079
367 -0.0033518715212416624 -0.0014791483252925058 0.0005402940975072397
369 0.031029494035751986 -0.0031348630972973146 0.016442760174612568
603 0.005025549735782957 -0.0013867288555694914 -0.005248260574619928
601 0.0023936902987338614 -0.0031213489253308995 -0.00791145099288705
604 -0.006990540982941543 -0.003821075812246225 0.003571862030713731
602 0.006076169502922034 0.005348018906248867 -0.003059675782583675
365 -0.0032345560680846564 0.004558190003427769 0.0004360903446722617
735 0.005533968405482101 -0.0051500585274465655 0.0016068329278686212
218 0.002485379258603684 0.006214396013550561 -0.006354931979639147
368 0.011561845568198094 0.007340221311885491 -0.026827677816695095
182 -0.003012528705141732 -0.0017567916871991836 0.004333871867815962
188 -0.005577368995312973 0.0071135201142152075 -0.015951426844659198
363 0.007642351747941276 -0.00019628960731996216 -0.006016145279121843
738 -0.0008007910622539384 -0.004412184036217995 0.004737263832644043
264 -5.487141934691421e-05 0.0009530661206581578 0.02012500540955468
262 -0.016132373733073524 0.0031126194753131244 0.02158633400585719
258 0.0024436771676566394 -0.0008949948371375221 -0.00016392696611215987
276 -0.008337760358272463 0.003288940976499123 -0.00990729114542358
274 0.0010300645005407185 -0.0006188598623602988 0.023576639468764694
74 -0.0008937058510925765 0.0024631060203215006 0.0010027277147638273
73 -0.008036839146782288 0.003720488944766772 0.005630746284590568
77 0.0008559823367591259 0.003256687533233646 -0.005128381356352482
741 -0.0009492836967389202 0.002862583371783297 -0.0012147602705899156
79 -0.004181757430533071 0.0140206849466224 0.0020174172541645597
259 0.019531722887085545 -0.027888733362054854 -0.01848123995853061
81 0.039934309010226904 0.012278654685035827 0.023550949976162906
719 -0.006888485672510366 0.0016285527375896859 0.012365843886692795
204 -0.004092436730976766 -0.03756005544962702 0.032209492893907184
198 -0.007041969788192466 -0.0002010866702788386 0.004958144163342951
737 0.0027196250831690427 0.0021128792995054333 -0.00986216399671057
736 0.0016275344536851224 0.0011667741593145418 0.0026105793115731215
739 0.004469661454309655 -0.0007919271316526636 -0.0027467740483098344
531 -0.0014228147192870378 0.00021403114076347997 -0.005515353368620705
533 0.0064482194293357525 -0.005257264219739774 0.006370199741805612
536 0.019608434093108782 -0.0014654543528955356 -0.010829631528742311
537 0.02002125713151388 -0.004793394603492399 0.015042568143748375
202 -0.021670528677884163 -0.008156427534133969 -0.0034749862181686713
529 -0.0010250022002771014 -0.0005127357983787179 -0.007643248986177261
203 0.014439987646164896 0.0039061686907346793 -0.024596235483123383
230 0.0025533692161390886 -0.004670566860086678 -0.0028412334096277435
534 -0.0028829083255009643 -0.0011805343020287276 0.00364144050492109
540 -0.009118242400478826 -0.019176387626227434 0.01810997330722347
760 -0.004987407255402152 0.0007092485209202057 0.0028385230707519637
187 0.010659632074159854 0.018032201352523473 0.000882542216883062
759 0.0015897663153849185 -0.0005711692416879434 -0.005814111561915252
191 0.020241453672793664 -0.034026844165573986 -0.0046193294766274
190 -0.010869814766993764 -0.011837130653709288 0.0005666869678652744
192 -0.0007292889434857558 -0.008882914199723625 -0.013850693265710534
186 0.0033710713292059496 0.008107382013459574 0.005743430050487897
184 0.00623803752436912 -0.006155079338484556 0.006529829053568269
181 0.0077147957103891555 0.001262196813052619 -0.003315033829024203
185 0.006243318076556555 -0.001707324213083476 -0.006505401019347082
183 -0.00046049113560556654 -0.013458700172654936 -0.003632832680200666
532 0.003289944997713562 -0.0035820463711613675 0.0129761843404088
189 0.010992001876485183 0.00946690367545829 -0.012102312923256538
319 0.016626861934709646 0.0036417482849397014 0.0061287624190891985
362 0.01093052301113717 -0.008497488403122188 -0.0012720743282609694
394 -0.006566007727983217 0.0208868226235076 -0.023089893498906937
371 0.005285525748119447 0.007641319155003017 -0.017084867865430793
364 -0.0022589316777400607 0.0025291752857218644 0.0017421825922396043
361 -0.000755756897321239 -0.003989057615761657 0.0006322484749544286
320 0.012222935474850429 -0.016358943295739597 0.0022179490171296526
321 -0.007671607086848303 0.004186819676183957 0.010133051868084405
317 -0.004972244171654453 -0.009377222293421604 -0.0009417073006865918
388 0.0080356068980113 -0.0064942880894324675 0.004207054805194861
366 -0.0033342123190085045 0.002906713295444611 -0.00878836942820964
370 -0.01074761272790071 -0.009088932530864725 -0.002278886045647352
390 0.0019991302065241615 -0.003512709522529952 0.009621600497506901
385 -0.002285828572664434 0.00411846842376939 -0.0038264242833167973
386 -0.00468724927102733 0.0011497074851317306 0.0005084809641290461
513 0.01827519640148856 0.010073278698070334 0.001997737309750433
509 -0.0008682338983433404 -0.0055554303358268265 0.004173372642650193
396 -0.016587119921965106 0.016910481727638555 -0.013783241056432416
256 0.006646664268359752 -0.0008888698803051228 -0.00019809968575419188
257 -0.0034543679717633858 0.0005250518341269487 -0.0020505088882395396
261 0.023925235702203427 0.019160220050224625 -0.005372651603690086
260 0.0026936257230070885 0.012269644450485595 -0.0028990960495893477
255 -0.00026470156588479903 0.0018431254600056709 0.00037515447596430784
253 -0.008598519169450944 -0.0025457165626491408 -0.007142562853673234
254 0.004045163032757738 -0.010330364707575564 -0.00351787077443488
733 -0.0031816697746685652 -0.00520025827643494 -0.007098823775251328
506 -0.0018475656247979005 0.0002695068045737455 0.0010224937481392374
395 -0.02456967297953815 0.012678037255179192 -0.0012180072555056738
146 -0.0009352950756257996 0.0021882334856128355 0.0013271246960828477
158 -0.0011840838129431605 -0.008780556433251086 -0.004240348303731165
535 0.008063626241610689 -0.010969008441890747 -0.0009260813192469704
398 -0.006101124932563468 0.0026019216458210877 0.00021467598308524545
401 -0.0009098879850063125 -0.004389976263397118 0.0016546914108439097
406 -0.0023405431339608277 0.018030830452307373 0.0024724869165264865
407 0.011075751943226146 0.011699225306659355 -0.014337344136158078
402 0.0024326813677756545 -0.004511861992903514 0.00665382337002221
408 -0.0012224708619530326 0.004316851694226434 0.019677681904500536
400 -0.006265772582224787 0.0009888041169460768 0.006507714088746205
397 0.0013631486892906946 -0.0018655506771948739 0.0006081561977839014
399 0.0038120880642159884 0.0035259426181342385 -0.006858042233958532
530 0.004738023345355957 0.003975524723297622 8.633614348892046e-05
404 0.006737225268839421 -0.006615165294895046 0.0013136365400607452
168 0.011359120469101426 5.63831852325429e-05 0.018145392031989074
405 -0.029795889860504996 -0.021930952864939866 0.011639683751996914
372 0.023495915237958916 0.0036609843323145083 -0.004940022086742177
669 -0.004669244423684745 -0.010126202233743954 -0.02008473001861228
670 -0.019944253573179332 -0.02248031554307975 -0.0015198634973504885
665 0.010628252809883873 -0.004734481906045291 0.001238506059447688
661 -0.00643826906072703 -0.002427797378903621 -0.00358263747905876
664 -0.005281645836680361 -0.00036700555564688034 -0.0033931635824716224
391 0.023886691547087693 -0.009206539441651488 0.027068330522857467
389 0.006804326659590075 0.0012181703407947281 -0.0064550353495897795
731 -0.008202141540073553 -0.01616773886823228 -0.005542565518943116
387 0.003489445170370521 -0.003264067863828506 0.0042824004674740955
98 0.00010303850816434621 0.005185100453292834 -0.0038950390355575217
97 -0.005534806769008104 0.00245920870481175 -0.001098261512480419
100 0.0012472529293379236 -0.0054385788284259965 -0.0012263448760787446
106 -0.00035426700682631774 -0.0018073615343612251 -0.0049236843735750765
249 -0.004249447011481963 -0.0018543597655608466 0.032040950528660676
515 0.008520385271235196 0.005847626519268368 -0.025461890056788415
507 -0.001820243954512471 0.008506654464993157 0.0008729326959579562
516 -0.0034624950343913417 0.01540244046799613 -0.01602971232038853
514 0.024764505767877896 -0.0056572279120885 -0.0028685727602266843
510 0.0005741453939669699 -0.006305266431454057 0.013618345610443063
508 0.0014116315708947987 0.0010192883459853085 0.0010710190249825307
505 -0.004001550432275344 -0.00592977219541259 0.005782186275961473
307 0.004691402684413158 0.002273626566061493 0.007998685480061354
309 -0.026086459401567678 -0.0016380937608836996 -0.003367310803713828
250 0.002728300496511769 -0.005191916401957756 0.006129274149268058
167 0.002579157382110856 0.037345578023756605 -0.02683969487216968
162 0.007210350112587312 0.012367672070581646 -0.002318379724704349
308 -0.02396748324705643 -0.03318901944982714 -0.019595365196923398
305 -0.003230943164461522 0.0037696002312981717 -0.01068298034925522
303 -0.0014252352097872843 -0.0031957966960106956 0.002412986195626625
166 -0.028533364688169728 -0.021035572004805696 0.02059323603064776
304 -0.0041111747937312626 0.0032752733805634427 -0.0016950250973159066
302 -4.0297265373601556e-05 0.004571336825323574 0.006293404185108863
301 0.003347400779315771 -0.003881473850861495 0.0036213352835405953
64 -0.0005569148882824675 0.0013048553334617284 -0.006079141005725699
66 0.0011762259571509292 -0.007412401431139376 0.0021154237189903884
71 0.0031033194093026285 0.019660196234798814 -0.019558604130224703
70 -0.009198570877811374 0.01762402277053498 0.0006264438094065228
62 0.005211790582164542 0.003234840524392414 0.003475899445422674
346 -0.04487797702020913 0.0012919153603718116 -0.0037109243955187696
662 0.0015880424717384068 0.002290386104449887 0.002683503373941952
72 -0.008208309339827675 0.013139623542173065 0.006357070232519866
63 0.003922986575430827 -0.011451430382360003 0.003909124354226635
61 -0.007425250270880782 0.0006552837207737576 0.004231614685419982
747 0.0012569492795727786 0.0012269776786800477 -0.00024909030543600737
599 -0.009665875741760735 -0.03204120025714361 0.007169080489975579
745 0.0004202970707544463 0.00013675590400327386 -0.005144285913287674
743 -0.0035750683168586264 0.008628328023035162 -0.006186843400273723
749 -0.0009908745726951028 -0.005285580391272034 -0.0005619236774545109
480 -0.039754342708893844 0.009565981083685369 0.0015240615220563746
606 -0.002440189926711303 -0.0021655320260392827 0.007298549433148337
78 0.009303040610770284 -0.0007645836253149517 0.0030537736614533145
82 -0.0374367946361971 0.025703833260361547 -0.007423922353409344
479 0.005813637034399416 -0.015475633660723033 0.013041348711422039
94 0.008900796064785393 0.0032006375459142666 0.024484736752231336
607 0.0028594350652759635 0.04262157603359977 0.008050815546743301
478 -0.015255135167003846 -0.0018148933701608782 -0.002346759370256942
88 -0.004758144769602529 0.0021044591440479744 -0.0026242138918589415
474 0.0025900899453209824 -0.0038849139244203877 -0.00033128498306345355
220 -0.004889821080156658 0.0005620615688710531 0.0026907834869277975
222 0.005114693286271122 -0.0013372264667284508 0.0044382992385359876
228 -0.007500862258638838 0.00774544303438295 -0.0020245323763529288
217 0.00042164121881351955 0.0013285157724581224 -0.004237426747616392
84 0.03916698757564988 0.0021987803975521743 0.02871080204665178
226 0.012485847525577347 -0.008938602277413159 -0.046441959161655555
33 0.0013429366787340482 0.016125381066109397 -0.007363387922084915
31 -0.02687560442164459 -0.023588140274288617 -0.001589277045857589
75 0.0001804549535221386 -0.003268413209573781 -0.005524289235266097
80 -0.00010680150194311521 0.0054775383271213375 0.008739384741372718
76 0.0004973137949654595 -0.005699037153386406 0.00149337558699122
83 -0.018827318016813418 0.021498888533798204 0.006634177063567404
477 -0.005978374323421523 0.01974330266750574 0.004433447009143169
475 0.0021821641867985873 -0.008535325056562754 -0.010799833563180065
472 0.002989574616087071 -0.00014077409683676962 -1.9755304068343278e-05
473 0.00039011920707205934 0.003281190731066365 -0.0016879168115163756
476 -0.009812942607596043 -0.0015679658731298982 0.013731040091879034
471 -0.002880217184436586 0.0011143638334275032 -0.0028339595264065295
470 -0.0006321791229527167 -0.0011723688299682098 -0.001975773511738085
469 -0.0038667954983969857 0.0029187722348341725 0.007825777772385255
571 0.0020233881896677994 0.0017831755051070674 -0.0036111837796019776
572 -0.0027737542000672243 -0.002003374577299373 -0.005277686351928443
573 0.0024753078900962406 0.0006993028475671908 0.0008540609315680654
578 -0.0304332018847828 -0.03501221509794211 0.009423325899468328
240 -0.0031704919201972974 -0.03849778896104889 -0.016897972113086204
238 0.050328996385653225 0.002354073484702582 -0.01338615764847071
239 -0.002912792872629394 0.002969962163295829 -0.0015978257151400962
234 -0.0011652709910031326 0.0034658469023766307 0.0074461344163852345
232 -0.005327054322307431 -0.004388210460574146 0.0025751152407868364
229 -0.005693527588244579 0.0021010948169285218 -0.003987959627285308
231 0.0005777996975660218 -0.0028386010022049117 0.004533517852008612
347 -0.009545104876316837 -0.031074437429392233 0.029068700730527145
744 0.005153261689497732 0.00429967480117824 0.006781285325709583
227 -0.005424799154967291 0.019872455865437826 0.01793390711111253
746 0.0009438234555398182 -0.0032896881466097337 0.008511438664277941
219 -2.9179950228493624e-05 0.002152020253064397 0.00746295945761931
235 0.002633273501778263 -0.020887427972511967 0.02155896414312217
236 -0.005093857809155942 -0.012225595030514786 0.03553408693995498
237 0.008688215305123528 -0.010712372508342765 -0.0029384622269233284
233 0.006194808422062463 0.0042675935852747844 -0.0002863607793406001

Bonds

1 7 411 413
2 4 413 415
3 4 413 416
4 4 413 417
5 8 409 410
6 7 409 411
7 7 409 412
8 4 646 647
9 4 646 648
10 1 645 646
11 4 645 649
12 4 645 650
13 1 605 606
14 4 605 609
15 4 605 610
16 8 265 266
17 7 265 267
18 7 265 268
19 4 485 487
20 4 485 488
21 4 485 489
22 7 483 485
23 8 481 482
24 7 481 483
25 7 481 484
26 7 484 486
27 4 486 490
28 4 486 491
29 4 486 492
30 7 268 270
31 4 270 274
32 4 270 275
33 4 270 276
34 8 711 712
35 7 711 713
36 7 711 714
37 7 714 715
38 1 715 716
39 4 715 719
40 4 715 720
41 7 713 716
42 4 716 717
43 4 716 718
44 15 757 758
45 15 757 759
46 15 757 760
47 15 757 761
48 15 757 762
49 15 757 763
50 4 173 175
51 4 173 176
52 4 173 177
53 7 643 646
54 7 171 173
55 7 316 318
56 4 318 322
57 4 318 323
58 4 318 324
59 8 313 314
60 7 313 315
61 7 313 316
62 7 315 317
63 7 644 645
64 7 111 113
65 7 267 269
66 4 269 271
67 4 269 272
68 4 269 273
69 8 109 110
70 7 109 111
71 7 109 112
72 7 683 686
73 4 686 687
74 4 686 688
75 8 681 682
76 7 681 683
77 7 681 684
78 7 684 685
79 1 685 686
80 4 685 689
81 4 685 690
82 8 13 14
83 7 13 15
84 7 13 16
85 4 17 19
86 4 17 20
87 4 17 21
88 7 15 17
89 7 16 18
90 4 18 22
91 4 18 23
92 4 18 24
93 8 641 642
94 7 641 643
95 7 641 644
96 7 663 666
97 4 666 667
98 4 666 668
99 4 101 103
100 4 101 104
101 4 101 105
102 7 99 101
103 4 102 106
104 4 102 107
105 4 102 108
106 7 112 114
107 4 245 247
108 4 245 248
109 4 245 249
110 4 114 118
111 4 114 119
112 4 114 120
113 7 243 245
114 7 544 545
115 7 244 246
116 4 246 250
117 4 246 251
118 4 246 252
119 8 241 242
120 7 241 243
121 7 241 244
122 7 135 137
123 4 137 139
124 4 137 140
125 4 137 141
126 8 133 134
127 7 133 135
128 7 133 136
129 4 138 142
130 4 138 143
131 4 138 144
132 7 633 636
133 4 636 637
134 4 636 638
135 4 65 67
136 4 65 68
137 4 65 69
138 8 631 632
139 7 631 633
140 7 631 634
141 7 634 635
142 1 635 636
143 4 635 639
144 4 635 640
145 15 764 765
146 15 764 766
147 15 764 767
148 15 764 768
149 15 764 769
150 15 764 770
151 4 30 34
152 4 30 35
153 4 30 36
154 7 27 29
155 7 28 30
156 8 25 26
157 7 25 27
158 7 25 28
159 4 29 31
160 4 29 32
161 4 29 33
162 4 281 283
163 4 281 284
164 4 281 285
165 7 279 281
166 4 341 343
167 4 341 344
168 4 341 345
169 7 339 341
170 7 340 342
171 8 337 338
172 7 337 339
173 7 337 340
174 8 581 582
175 7 581 583
176 7 581 584
177 4 342 346
178 4 342 347
179 4 342 348
180 4 461 463
181 4 461 464
182 4 461 465
183 7 412 414
184 4 53 55
185 4 53 56
186 4 53 57
187 7 51 53
188 7 459 461
189 8 457 458
190 7 457 459
191 7 457 460
192 8 49 50
193 7 49 51
194 7 49 52
195 4 125 127
196 4 125 128
197 4 125 129
198 7 123 125
199 8 121 122
200 7 121 123
201 7 121 124
202 8 621 622
203 7 621 623
204 7 621 624
205 7 623 626
206 4 377 379
207 4 377 380
208 4 377 381
209 7 375 377
210 8 373 374
211 7 373 375
212 7 373 376
213 7 376 378
214 4 174 178
215 4 174 179
216 4 174 180
217 7 172 174
218 8 169 170
219 7 169 171
220 7 169 172
221 4 293 295
222 4 293 296
223 4 293 297
224 7 460 462
225 4 462 466
226 4 462 467
227 4 462 468
228 4 113 115
229 4 113 116
230 4 113 117
231 4 556 557
232 4 556 558
233 8 551 552
234 7 551 553
235 7 551 554
236 7 553 556
237 7 554 555
238 1 555 556
239 4 555 559
240 4 555 560
241 1 565 566
242 4 565 569
243 4 565 570
244 4 378 382
245 4 378 383
246 4 378 384
247 7 563 566
248 4 566 567
249 4 566 568
250 8 561 562
251 7 561 563
252 7 561 564
253 4 330 334
254 4 330 335
255 4 330 336
256 8 205 206
257 7 205 207
258 7 205 208
259 4 329 331
260 4 329 332
261 4 329 333
262 7 328 330
263 7 327 329
264 8 325 326
265 7 325 327
266 7 325 328
267 4 425 427
268 4 425 428
269 4 425 429
270 4 354 358
271 4 354 359
272 4 354 360
273 7 352 354
274 8 349 350
275 7 349 351
276 7 349 352
277 4 353 355
278 4 353 356
279 4 353 357
280 7 351 353
281 8 541 542
282 7 541 543
283 7 541 544
284 4 438 442
285 4 438 443
286 4 438 444
287 7 543 546
288 7 436 438
289 7 564 565
290 4 546 547
291 4 546 548
292 7 136 138
293 1 545 546
294 4 545 549
295 4 545 550
296 4 676 677
297 4 676 678
298 1 675 676
299 4 675 679
300 4 675 680
301 7 673 676
302 7 674 675
303 7 208 210
304 4 210 214
305 4 210 215
306 4 210 216
307 15 750 751
308 15 750 752
309 15 750 753
310 15 750 754
311 15 750 755
312 15 750 756
313 7 423 425
314 4 414 418
315 4 414 419
316 4 414 420
317 7 424 426
318 4 426 430
319 4 426 431
320 4 426 432
321 8 421 422
322 7 421 423
323 7 421 424
324 7 52 54
325 4 54 58
326 4 54 59
327 4 54 60
328 1 725 726
329 4 725 729
330 4 725 730
331 7 724 725
332 7 624 625
333 4 726 727
334 4 726 728
335 4 626 627
336 4 626 628
337 1 625 626
338 4 625 629
339 4 625 630
340 8 37 38
341 7 37 39
342 7 37 40
343 7 280 282
344 4 282 286
345 4 282 287
346 4 282 288
347 8 277 278
348 7 277 279
349 7 277 280
350 7 40 42
351 7 583 586
352 4 586 587
353 4 586 588
354 7 584 585
355 1 585 586
356 4 585 589
357 4 585 590
358 7 447 449
359 8 445 446
360 7 445 447
361 7 445 448
362 7 704 705
363 1 705 706
364 4 705 709
365 4 705 710
366 8 701 702
367 7 701 703
368 7 701 704
369 4 497 499
370 4 497 500
371 4 497 501
372 4 294 298
373 4 294 299
374 4 294 300
375 7 703 706
376 7 124 126
377 4 126 130
378 4 126 131
379 4 126 132
380 7 195 197
381 4 616 617
382 4 616 618
383 1 615 616
384 4 615 619
385 4 615 620
386 7 196 198
387 7 613 616
388 8 193 194
389 7 193 195
390 7 193 196
391 7 291 293
392 8 517 518
393 7 517 519
394 7 517 520
395 8 289 290
396 7 289 291
397 7 289 292
398 4 521 523
399 4 521 524
400 4 521 525
401 7 519 521
402 7 292 294
403 4 449 451
404 4 449 452
405 4 449 453
406 7 520 522
407 4 498 502
408 4 498 503
409 4 498 504
410 7 496 498
411 8 493 494
412 7 493 495
413 7 493 496
414 7 495 497
415 7 207 209
416 4 209 211
417 4 209 212
418 4 209 213
419 4 149 151
420 4 149 152
421 4 149 153
422 7 147 149
423 7 614 615
424 8 611 612
425 7 611 613
426 7 611 614
427 8 651 652
428 7 651 653
429 7 651 654
430 4 161 163
431 4 161 164
432 4 161 165
433 7 159 161
434 7 653 656
435 8 157 158
436 7 157 159
437 7 157 160
438 7 654 655
439 7 160 162
440 1 655 656
441 4 655 659
442 4 655 660
443 4 656 657
444 4 656 658
445 8 591 592
446 7 591 593
447 7 591 594
448 7 593 596
449 7 594 595
450 7 693 696
451 4 437 439
452 4 437 440
453 4 437 441
454 8 433 434
455 7 433 435
456 7 433 436
457 8 145 146
458 7 145 147
459 7 145 148
460 7 435 437
461 7 148 150
462 4 150 154
463 4 150 155
464 4 150 156
465 8 671 672
466 7 671 673
467 7 671 674
468 4 306 310
469 4 306 311
470 4 306 312
471 4 696 697
472 4 696 698
473 8 1 2
474 7 1 3
475 7 1 4
476 7 4 6
477 4 6 10
478 4 6 11
479 4 6 12
480 4 5 7
481 4 5 8
482 4 5 9
483 7 3 5
484 4 596 597
485 4 596 598
486 1 595 596
487 4 595 599
488 4 595 600
489 4 706 707
490 4 706 708
491 8 691 692
492 7 691 693
493 7 691 694
494 7 694 695
495 4 90 94
496 4 90 95
497 4 90 96
498 4 41 43
499 4 41 44
500 4 41 45
501 8 85 86
502 7 85 87
503 7 85 88
504 7 723 726
505 8 721 722
506 7 721 723
507 7 721 724
508 4 89 91
509 4 89 92
510 4 89 93
511 4 197 199
512 4 197 200
513 4 197 201
514 7 87 89
515 7 39 41
516 4 42 46
517 4 42 47
518 4 42 48
519 7 574 575
520 1 575 576
521 4 575 579
522 4 575 580
523 4 576 577
524 4 576 578
525 4 522 526
526 4 522 527
527 4 522 528
528 4 450 454
529 4 450 455
530 4 450 456
531 7 448 450
532 1 695 696
533 4 695 699
534 4 695 700
535 4 221 223
536 4 221 224
537 4 221 225
538 7 603 606
539 8 601 602
540 7 601 603
541 7 601 604
542 7 604 605
543 4 365 367
544 4 365 368
545 4 365 369
546 7 363 365
547 4 258 262
548 4 258 263
549 4 258 264
550 8 73 74
551 7 73 75
552 7 73 76
553 4 77 79
554 4 77 80
555 4 77 81
556 4 198 202
557 4 198 203
558 4 198 204
559 15 736 737
560 15 736 738
561 15 736 739
562 15 736 740
563 15 736 741
564 15 736 742
565 7 531 533
566 4 533 535
567 4 533 536
568 4 533 537
569 8 529 530
570 7 529 531
571 7 529 532
572 4 534 538
573 4 534 539
574 4 534 540
575 4 186 190
576 4 186 191
577 4 186 192
578 7 184 186
579 8 181 182
580 7 181 183
581 7 181 184
582 4 185 187
583 4 185 188
584 4 185 189
585 7 183 185
586 7 532 534
587 7 364 366
588 8 361 362
589 7 361 363
590 7 361 364
591 4 317 319
592 4 317 320
593 4 317 321
594 7 388 390
595 4 366 370
596 4 366 371
597 4 366 372
598 4 390 394
599 4 390 395
600 4 390 396
601 8 385 386
602 7 385 387
603 7 385 388
604 4 509 511
605 4 509 512
606 4 509 513
607 7 256 258
608 4 257 259
609 4 257 260
610 4 257 261
611 7 255 257
612 8 253 254
613 7 253 255
614 7 253 256
615 4 401 403
616 4 401 404
617 4 401 405
618 4 402 406
619 4 402 407
620 4 402 408
621 7 400 402
622 8 397 398
623 7 397 399
624 7 397 400
625 7 399 401
626 1 665 666
627 4 665 669
628 4 665 670
629 8 661 662
630 7 661 663
631 7 661 664
632 7 664 665
633 4 389 391
634 4 389 392
635 4 389 393
636 7 387 389
637 8 97 98
638 7 97 99
639 7 97 100
640 7 100 102
641 7 507 509
642 4 510 514
643 4 510 515
644 4 510 516
645 7 508 510
646 8 505 506
647 7 505 507
648 7 505 508
649 4 162 166
650 4 162 167
651 4 162 168
652 4 305 307
653 4 305 308
654 4 305 309
655 7 303 305
656 7 304 306
657 8 301 302
658 7 301 303
659 7 301 304
660 7 64 66
661 4 66 70
662 4 66 71
663 4 66 72
664 7 63 65
665 8 61 62
666 7 61 63
667 7 61 64
668 15 743 744
669 15 743 745
670 15 743 746
671 15 743 747
672 15 743 748
673 15 743 749
674 4 606 607
675 4 606 608
676 4 78 82
677 4 78 83
678 4 78 84
679 7 88 90
680 4 474 478
681 4 474 479
682 4 474 480
683 7 220 222
684 4 222 226
685 4 222 227
686 4 222 228
687 8 217 218
688 7 217 219
689 7 217 220
690 7 75 77
691 7 76 78
692 7 472 474
693 4 473 475
694 4 473 476
695 4 473 477
696 7 471 473
697 8 469 470
698 7 469 471
699 7 469 472
700 8 571 572
701 7 571 573
702 7 571 574
703 7 573 576
704 4 234 238
705 4 234 239
706 4 234 240
707 7 232 234
708 8 229 230
709 7 229 231
710 7 229 232
711 7 231 233
712 7 219 221
713 4 233 235
714 4 233 236
715 4 233 237

Angles

1 9 409 411 413
2 4 411 413 415
3 4 411 413 416
4 4 411 413 417
5 7 415 413 416
6 7 415 413 417
7 7 416 413 417
8 11 410 409 411
9 11 410 409 412
10 12 411 409 412
11 13 643 646 645
12 4 645 646 647
13 4 645 646 648
14 6 647 646 648
15 13 644 645 646
16 4 646 645 649
17 4 646 645 650
18 6 649 645 650
19 13 604 605 606
20 4 606 605 609
21 4 606 605 610
22 6 609 605 610
23 11 266 265 267
24 11 266 265 268
25 12 267 265 268
26 4 483 485 487
27 4 483 485 488
28 4 483 485 489
29 7 487 485 488
30 7 487 485 489
31 7 488 485 489
32 9 481 483 485
33 11 482 481 483
34 11 482 481 484
35 12 483 481 484
36 9 481 484 486
37 4 484 486 490
38 4 484 486 491
39 4 484 486 492
40 7 490 486 491
41 7 490 486 492
42 7 491 486 492
43 9 265 268 270
44 4 268 270 274
45 4 268 270 275
46 4 268 270 276
47 7 274 270 275
48 7 274 270 276
49 7 275 270 276
50 11 712 711 713
51 11 712 711 714
52 12 713 711 714
53 9 711 714 715
54 13 714 715 716
55 4 716 715 719
56 4 716 715 720
57 6 719 715 720
58 9 711 713 716
59 13 713 716 715
60 4 715 716 717
61 4 715 716 718
62 6 717 716 718
63 18 758 757 759
64 18 760 757 761
65 18 762 757 763
66 17 758 757 760
67 17 758 757 761
68 17 758 757 762
69 17 758 757 763
70 17 759 757 760
71 17 759 757 761
72 17 759 757 762
73 17 759 757 763
74 17 760 757 762
75 17 760 757 763
76 17 761 757 762
77 17 761 757 763
78 4 171 173 175
79 4 171 173 176
80 4 171 173 177
81 7 175 173 176
82 7 175 173 177
83 7 176 173 177
84 9 641 643 646
85 9 169 171 173
86 9 313 316 318
87 4 316 318 322
88 4 316 318 323
89 4 316 318 324
90 7 322 318 323
91 7 322 318 324
92 7 323 318 324
93 11 314 313 315
94 11 314 313 316
95 12 315 313 316
96 9 313 315 317
97 9 641 644 645
98 9 109 111 113
99 9 265 267 269
100 4 267 269 271
101 4 267 269 272
102 4 267 269 273
103 7 271 269 272
104 7 271 269 273
105 7 272 269 273
106 11 110 109 111
107 11 110 109 112
108 12 111 109 112
109 9 681 683 686
110 13 683 686 685
111 4 685 686 687
112 4 685 686 688
113 6 687 686 688
114 11 682 681 683
115 11 682 681 684
116 12 683 681 684
117 9 681 684 685
118 13 684 685 686
119 4 686 685 689
120 4 686 685 690
121 6 689 685 690
122 11 14 13 15
123 11 14 13 16
124 12 15 13 16
125 4 15 17 19
126 4 15 17 20
127 4 15 17 21
128 7 19 17 20
129 7 19 17 21
130 7 20 17 21
131 9 13 15 17
132 9 13 16 18
133 4 16 18 22
134 4 16 18 23
135 4 16 18 24
136 7 22 18 23
137 7 22 18 24
138 7 23 18 24
139 11 642 641 643
140 11 642 641 644
141 12 643 641 644
142 9 661 663 666
143 13 663 666 665
144 4 665 666 667
145 4 665 666 668
146 6 667 666 668
147 4 99 101 103
148 4 99 101 104
149 4 99 101 105
150 7 103 101 104
151 7 103 101 105
152 7 104 101 105
153 9 97 99 101
154 4 100 102 106
155 4 100 102 107
156 4 100 102 108
157 7 106 102 107
158 7 106 102 108
159 7 107 102 108
160 9 109 112 114
161 4 243 245 247
162 4 243 245 248
163 4 243 245 249
164 7 247 245 248
165 7 247 245 249
166 7 248 245 249
167 4 112 114 118
168 4 112 114 119
169 4 112 114 120
170 7 118 114 119
171 7 118 114 120
172 7 119 114 120
173 9 241 243 245
174 9 541 544 545
175 9 241 244 246
176 4 244 246 250
177 4 244 246 251
178 4 244 246 252
179 7 250 246 251
180 7 250 246 252
181 7 251 246 252
182 11 242 241 243
183 11 242 241 244
184 12 243 241 244
185 9 133 135 137
186 4 135 137 139
187 4 135 137 140
188 4 135 137 141
189 7 139 137 140
190 7 139 137 141
191 7 140 137 141
192 11 134 133 135
193 11 134 133 136
194 12 135 133 136
195 4 136 138 142
196 4 136 138 143
197 4 136 138 144
198 7 142 138 143
199 7 142 138 144
200 7 143 138 144
201 9 631 633 636
202 13 633 636 635
203 4 635 636 637
204 4 635 636 638
205 6 637 636 638
206 4 63 65 67
207 4 63 65 68
208 4 63 65 69
209 7 67 65 68
210 7 67 65 69
211 7 68 65 69
212 11 632 631 633
213 11 632 631 634
214 12 633 631 634
215 9 631 634 635
216 13 634 635 636
217 4 636 635 639
218 4 636 635 640
219 6 639 635 640
220 18 765 764 766
221 18 767 764 768
222 18 769 764 770
223 17 765 764 767
224 17 765 764 768
225 17 765 764 769
226 17 765 764 770
227 17 766 764 767
228 17 766 764 768
229 17 766 764 769
230 17 766 764 770
231 17 767 764 769
232 17 767 764 770
233 17 768 764 769
234 17 768 764 770
235 4 28 30 34
236 4 28 30 35
237 4 28 30 36
238 7 34 30 35
239 7 34 30 36
240 7 35 30 36
241 9 25 27 29
242 9 25 28 30
243 11 26 25 27
244 11 26 25 28
245 12 27 25 28
246 4 27 29 31
247 4 27 29 32
248 4 27 29 33
249 7 31 29 32
250 7 31 29 33
251 7 32 29 33
252 4 279 281 283
253 4 279 281 284
254 4 279 281 285
255 7 283 281 284
256 7 283 281 285
257 7 284 281 285
258 9 277 279 281
259 4 339 341 343
260 4 339 341 344
261 4 339 341 345
262 7 343 341 344
263 7 343 341 345
264 7 344 341 345
265 9 337 339 341
266 9 337 340 342
267 11 338 337 339
268 11 338 337 340
269 12 339 337 340
270 11 582 581 583
271 11 582 581 584
272 12 583 581 584
273 4 340 342 346
274 4 340 342 347
275 4 340 342 348
276 7 346 342 347
277 7 346 342 348
278 7 347 342 348
279 4 459 461 463
280 4 459 461 464
281 4 459 461 465
282 7 463 461 464
283 7 463 461 465
284 7 464 461 465
285 9 409 412 414
286 4 51 53 55
287 4 51 53 56
288 4 51 53 57
289 7 55 53 56
290 7 55 53 57
291 7 56 53 57
292 9 49 51 53
293 9 457 459 461
294 11 458 457 459
295 11 458 457 460
296 12 459 457 460
297 11 50 49 51
298 11 50 49 52
299 12 51 49 52
300 4 123 125 127
301 4 123 125 128
302 4 123 125 129
303 7 127 125 128
304 7 127 125 129
305 7 128 125 129
306 9 121 123 125
307 11 122 121 123
308 11 122 121 124
309 12 123 121 124
310 11 622 621 623
311 11 622 621 624
312 12 623 621 624
313 9 621 623 626
314 4 375 377 379
315 4 375 377 380
316 4 375 377 381
317 7 379 377 380
318 7 379 377 381
319 7 380 377 381
320 9 373 375 377
321 11 374 373 375
322 11 374 373 376
323 12 375 373 376
324 9 373 376 378
325 4 172 174 178
326 4 172 174 179
327 4 172 174 180
328 7 178 174 179
329 7 178 174 180
330 7 179 174 180
331 9 169 172 174
332 11 170 169 171
333 11 170 169 172
334 12 171 169 172
335 4 291 293 295
336 4 291 293 296
337 4 291 293 297
338 7 295 293 296
339 7 295 293 297
340 7 296 293 297
341 9 457 460 462
342 4 460 462 466
343 4 460 462 467
344 4 460 462 468
345 7 466 462 467
346 7 466 462 468
347 7 467 462 468
348 4 111 113 115
349 4 111 113 116
350 4 111 113 117
351 7 115 113 116
352 7 115 113 117
353 7 116 113 117
354 13 553 556 555
355 4 555 556 557
356 4 555 556 558
357 6 557 556 558
358 11 552 551 553
359 11 552 551 554
360 12 553 551 554
361 9 551 553 556
362 9 551 554 555
363 13 554 555 556
364 4 556 555 559
365 4 556 555 560
366 6 559 555 560
367 13 564 565 566
368 4 566 565 569
369 4 566 565 570
370 6 569 565 570
371 4 376 378 382
372 4 376 378 383
373 4 376 378 384
374 7 382 378 383
375 7 382 378 384
376 7 383 378 384
377 9 561 563 566
378 13 563 566 565
379 4 565 566 567
380 4 565 566 568
381 6 567 566 568
382 11 562 561 563
383 11 562 561 564
384 12 563 561 564
385 4 328 330 334
386 4 328 330 335
387 4 328 330 336
388 7 334 330 335
389 7 334 330 336
390 7 335 330 336
391 11 206 205 207
392 11 206 205 208
393 12 207 205 208
394 4 327 329 331
395 4 327 329 332
396 4 327 329 333
397 7 331 329 332
398 7 331 329 333
399 7 332 329 333
400 9 325 328 330
401 9 325 327 329
402 11 326 325 327
403 11 326 325 328
404 12 327 325 328
405 4 423 425 427
406 4 423 425 428
407 4 423 425 429
408 7 427 425 428
409 7 427 425 429
410 7 428 425 429
411 4 352 354 358
412 4 352 354 359
413 4 352 354 360
414 7 358 354 359
415 7 358 354 360
416 7 359 354 360
417 9 349 352 354
418 11 350 349 351
419 11 350 349 352
420 12 351 349 352
421 4 351 353 355
422 4 351 353 356
423 4 351 353 357
424 7 355 353 356
425 7 355 353 357
426 7 356 353 357
427 9 349 351 353
428 11 542 541 543
429 11 542 541 544
430 12 543 541 544
431 4 436 438 442
432 4 436 438 443
433 4 436 438 444
434 7 442 438 443
435 7 442 438 444
436 7 443 438 444
437 9 541 543 546
438 9 433 436 438
439 9 561 564 565
440 13 543 546 545
441 4 545 546 547
442 4 545 546 548
443 6 547 546 548
444 9 133 136 138
445 13 544 545 546
446 4 546 545 549
447 4 546 545 550
448 6 549 545 550
449 13 673 676 675
450 4 675 676 677
451 4 675 676 678
452 6 677 676 678
453 13 674 675 676
454 4 676 675 679
455 4 676 675 680
456 6 679 675 680
457 9 671 673 676
458 9 671 674 675
459 9 205 208 210
460 4 208 210 214
461 4 208 210 215
462 4 208 210 216
463 7 214 210 215
464 7 214 210 216
465 7 215 210 216
466 18 751 750 752
467 18 753 750 754
468 18 755 750 756
469 17 751 750 753
470 17 751 750 754
471 17 751 750 755
472 17 751 750 756
473 17 752 750 753
474 17 752 750 754
475 17 752 750 755
476 17 752 750 756
477 17 753 750 755
478 17 753 750 756
479 17 754 750 755
480 17 754 750 756
481 9 421 423 425
482 4 412 414 418
483 4 412 414 419
484 4 412 414 420
485 7 418 414 419
486 7 418 414 420
487 7 419 414 420
488 9 421 424 426
489 4 424 426 430
490 4 424 426 431
491 4 424 426 432
492 7 430 426 431
493 7 430 426 432
494 7 431 426 432
495 11 422 421 423
496 11 422 421 424
497 12 423 421 424
498 9 49 52 54
499 4 52 54 58
500 4 52 54 59
501 4 52 54 60
502 7 58 54 59
503 7 58 54 60
504 7 59 54 60
505 13 724 725 726
506 4 726 725 729
507 4 726 725 730
508 6 729 725 730
509 9 721 724 725
510 9 621 624 625
511 13 723 726 725
512 4 725 726 727
513 4 725 726 728
514 6 727 726 728
515 13 623 626 625
516 4 625 626 627
517 4 625 626 628
518 6 627 626 628
519 13 624 625 626
520 4 626 625 629
521 4 626 625 630
522 6 629 625 630
523 11 38 37 39
524 11 38 37 40
525 12 39 37 40
526 9 277 280 282
527 4 280 282 286
528 4 280 282 287
529 4 280 282 288
530 7 286 282 287
531 7 286 282 288
532 7 287 282 288
533 11 278 277 279
534 11 278 277 280
535 12 279 277 280
536 9 37 40 42
537 9 581 583 586
538 13 583 586 585
539 4 585 586 587
540 4 585 586 588
541 6 587 586 588
542 9 581 584 585
543 13 584 585 586
544 4 586 585 589
545 4 586 585 590
546 6 589 585 590
547 9 445 447 449
548 11 446 445 447
549 11 446 445 448
550 12 447 445 448
551 9 701 704 705
552 13 704 705 706
553 4 706 705 709
554 4 706 705 710
555 6 709 705 710
556 11 702 701 703
557 11 702 701 704
558 12 703 701 704
559 4 495 497 499
560 4 495 497 500
561 4 495 497 501
562 7 499 497 500
563 7 499 497 501
564 7 500 497 501
565 4 292 294 298
566 4 292 294 299
567 4 292 294 300
568 7 298 294 299
569 7 298 294 300
570 7 299 294 300
571 9 701 703 706
572 9 121 124 126
573 4 124 126 130
574 4 124 126 131
575 4 124 126 132
576 7 130 126 131
577 7 130 126 132
578 7 131 126 132
579 9 193 195 197
580 13 613 616 615
581 4 615 616 617
582 4 615 616 618
583 6 617 616 618
584 13 614 615 616
585 4 616 615 619
586 4 616 615 620
587 6 619 615 620
588 9 193 196 198
589 9 611 613 616
590 11 194 193 195
591 11 194 193 196
592 12 195 193 196
593 9 289 291 293
594 11 518 517 519
595 11 518 517 520
596 12 519 517 520
597 11 290 289 291
598 11 290 289 292
599 12 291 289 292
600 4 519 521 523
601 4 519 521 524
602 4 519 521 525
603 7 523 521 524
604 7 523 521 525
605 7 524 521 525
606 9 517 519 521
607 9 289 292 294
608 4 447 449 451
609 4 447 449 452
610 4 447 449 453
611 7 451 449 452
612 7 451 449 453
613 7 452 449 453
614 9 517 520 522
615 4 496 498 502
616 4 496 498 503
617 4 496 498 504
618 7 502 498 503
619 7 502 498 504
620 7 503 498 504
621 9 493 496 498
622 11 494 493 495
623 11 494 493 496
624 12 495 493 496
625 9 493 495 497
626 9 205 207 209
627 4 207 209 211
628 4 207 209 212
629 4 207 209 213
630 7 211 209 212
631 7 211 209 213
632 7 212 209 213
633 4 147 149 151
634 4 147 149 152
635 4 147 149 153
636 7 151 149 152
637 7 151 149 153
638 7 152 149 153
639 9 145 147 149
640 9 611 614 615
641 11 612 611 613
642 11 612 611 614
643 12 613 611 614
644 11 652 651 653
645 11 652 651 654
646 12 653 651 654
647 4 159 161 163
648 4 159 161 164
649 4 159 161 165
650 7 163 161 164
651 7 163 161 165
652 7 164 161 165
653 9 157 159 161
654 9 651 653 656
655 11 158 157 159
656 11 158 157 160
657 12 159 157 160
658 9 651 654 655
659 9 157 160 162
660 13 654 655 656
661 4 656 655 659
662 4 656 655 660
663 6 659 655 660
664 13 653 656 655
665 4 655 656 657
666 4 655 656 658
667 6 657 656 658
668 11 592 591 593
669 11 592 591 594
670 12 593 591 594
671 9 591 593 596
672 9 591 594 595
673 9 691 693 696
674 4 435 437 439
675 4 435 437 440
676 4 435 437 441
677 7 439 437 440
678 7 439 437 441
679 7 440 437 441
680 11 434 433 435
681 11 434 433 436
682 12 435 433 436
683 11 146 145 147
684 11 146 145 148
685 12 147 145 148
686 9 433 435 437
687 9 145 148 150
688 4 148 150 154
689 4 148 150 155
690 4 148 150 156
691 7 154 150 155
692 7 154 150 156
693 7 155 150 156
694 11 672 671 673
695 11 672 671 674
696 12 673 671 674
697 4 304 306 310
698 4 304 306 311
699 4 304 306 312
700 7 310 306 311
701 7 310 306 312
702 7 311 306 312
703 13 693 696 695
704 4 695 696 697
705 4 695 696 698
706 6 697 696 698
707 11 2 1 3
708 11 2 1 4
709 12 3 1 4
710 9 1 4 6
711 4 4 6 10
712 4 4 6 11
713 4 4 6 12
714 7 10 6 11
715 7 10 6 12
716 7 11 6 12
717 4 3 5 7
718 4 3 5 8
719 4 3 5 9
720 7 7 5 8
721 7 7 5 9
722 7 8 5 9
723 9 1 3 5
724 13 593 596 595
725 4 595 596 597
726 4 595 596 598
727 6 597 596 598
728 13 594 595 596
729 4 596 595 599
730 4 596 595 600
731 6 599 595 600
732 13 703 706 705
733 4 705 706 707
734 4 705 706 708
735 6 707 706 708
736 11 692 691 693
737 11 692 691 694
738 12 693 691 694
739 9 691 694 695
740 4 88 90 94
741 4 88 90 95
742 4 88 90 96
743 7 94 90 95
744 7 94 90 96
745 7 95 90 96
746 4 39 41 43
747 4 39 41 44
748 4 39 41 45
749 7 43 41 44
750 7 43 41 45
751 7 44 41 45
752 11 86 85 87
753 11 86 85 88
754 12 87 85 88
755 9 721 723 726
756 11 722 721 723
757 11 722 721 724
758 12 723 721 724
759 4 87 89 91
760 4 87 89 92
761 4 87 89 93
762 7 91 89 92
763 7 91 89 93
764 7 92 89 93
765 4 195 197 199
766 4 195 197 200
767 4 195 197 201
768 7 199 197 200
769 7 199 197 201
770 7 200 197 201
771 9 85 87 89
772 9 37 39 41
773 4 40 42 46
774 4 40 42 47
775 4 40 42 48
776 7 46 42 47
777 7 46 42 48
778 7 47 42 48
779 9 571 574 575
780 13 574 575 576
781 4 576 575 579
782 4 576 575 580
783 6 579 575 580
784 13 573 576 575
785 4 575 576 577
786 4 575 576 578
787 6 577 576 578
788 4 520 522 526
789 4 520 522 527
790 4 520 522 528
791 7 526 522 527
792 7 526 522 528
793 7 527 522 528
794 4 448 450 454
795 4 448 450 455
796 4 448 450 456
797 7 454 450 455
798 7 454 450 456
799 7 455 450 456
800 9 445 448 450
801 13 694 695 696
802 4 696 695 699
803 4 696 695 700
804 6 699 695 700
805 4 219 221 223
806 4 219 221 224
807 4 219 221 225
808 7 223 221 224
809 7 223 221 225
810 7 224 221 225
811 9 601 603 606
812 11 602 601 603
813 11 602 601 604
814 12 603 601 604
815 9 601 604 605
816 4 363 365 367
817 4 363 365 368
818 4 363 365 369
819 7 367 365 368
820 7 367 365 369
821 7 368 365 369
822 9 361 363 365
823 4 256 258 262
824 4 256 258 263
825 4 256 258 264
826 7 262 258 263
827 7 262 258 264
828 7 263 258 264
829 11 74 73 75
830 11 74 73 76
831 12 75 73 76
832 4 75 77 79
833 4 75 77 80
834 4 75 77 81
835 7 79 77 80
836 7 79 77 81
837 7 80 77 81
838 4 196 198 202
839 4 196 198 203
840 4 196 198 204
841 7 202 198 203
842 7 202 198 204
843 7 203 198 204
844 18 737 736 738
845 18 739 736 740
846 18 741 736 742
847 17 737 736 739
848 17 737 736 740
849 17 737 736 741
850 17 737 736 742
851 17 738 736 739
852 17 738 736 740
853 17 738 736 741
854 17 738 736 742
855 17 739 736 741
856 17 739 736 742
857 17 740 736 741
858 17 740 736 742
859 9 529 531 533
860 4 531 533 535
861 4 531 533 536
862 4 531 533 537
863 7 535 533 536
864 7 535 533 537
865 7 536 533 537
866 11 530 529 531
867 11 530 529 532
868 12 531 529 532
869 4 532 534 538
870 4 532 534 539
871 4 532 534 540
872 7 538 534 539
873 7 538 534 540
874 7 539 534 540
875 4 184 186 190
876 4 184 186 191
877 4 184 186 192
878 7 190 186 191
879 7 190 186 192
880 7 191 186 192
881 9 181 184 186
882 11 182 181 183
883 11 182 181 184
884 12 183 181 184
885 4 183 185 187
886 4 183 185 188
887 4 183 185 189
888 7 187 185 188
889 7 187 185 189
890 7 188 185 189
891 9 181 183 185
892 9 529 532 534
893 9 361 364 366
894 11 362 361 363
895 11 362 361 364
896 12 363 361 364
897 4 315 317 319
898 4 315 317 320
899 4 315 317 321
900 7 319 317 320
901 7 319 317 321
902 7 320 317 321
903 9 385 388 390
904 4 364 366 370
905 4 364 366 371
906 4 364 366 372
907 7 370 366 371
908 7 370 366 372
909 7 371 366 372
910 4 388 390 394
911 4 388 390 395
912 4 388 390 396
913 7 394 390 395
914 7 394 390 396
915 7 395 390 396
916 11 386 385 387
917 11 386 385 388
918 12 387 385 388
919 4 507 509 511
920 4 507 509 512
921 4 507 509 513
922 7 511 509 512
923 7 511 509 513
924 7 512 509 513
925 9 253 256 258
926 4 255 257 259
927 4 255 257 260
928 4 255 257 261
929 7 259 257 260
930 7 259 257 261
931 7 260 257 261
932 9 253 255 257
933 11 254 253 255
934 11 254 253 256
935 12 255 253 256
936 4 399 401 403
937 4 399 401 404
938 4 399 401 405
939 7 403 401 404
940 7 403 401 405
941 7 404 401 405
942 4 400 402 406
943 4 400 402 407
944 4 400 402 408
945 7 406 402 407
946 7 406 402 408
947 7 407 402 408
948 9 397 400 402
949 11 398 397 399
950 11 398 397 400
951 12 399 397 400
952 9 397 399 401
953 13 664 665 666
954 4 666 665 669
955 4 666 665 670
956 6 669 665 670
957 11 662 661 663
958 11 662 661 664
959 12 663 661 664
960 9 661 664 665
961 4 387 389 391
962 4 387 389 392
963 4 387 389 393
964 7 391 389 392
965 7 391 389 393
966 7 392 389 393
967 9 385 387 389
968 11 98 97 99
969 11 98 97 100
970 12 99 97 100
971 9 97 100 102
972 9 505 507 509
973 4 508 510 514
974 4 508 510 515
975 4 508 510 516
976 7 514 510 515
977 7 514 510 516
978 7 515 510 516
979 9 505 508 510
980 11 506 505 507
981 11 506 505 508
982 12 507 505 508
983 4 160 162 166
984 4 160 162 167
985 4 160 162 168
986 7 166 162 167
987 7 166 162 168
988 7 167 162 168
989 4 303 305 307
990 4 303 305 308
991 4 303 305 309
992 7 307 305 308
993 7 307 305 309
994 7 308 305 309
995 9 301 303 305
996 9 301 304 306
997 11 302 301 303
998 11 302 301 304
999 12 303 301 304
1000 9 61 64 66
1001 4 64 66 70
1002 4 64 66 71
1003 4 64 66 72
1004 7 70 66 71
1005 7 70 66 72
1006 7 71 66 72
1007 9 61 63 65
1008 11 62 61 63
1009 11 62 61 64
1010 12 63 61 64
1011 18 744 743 745
1012 18 746 743 747
1013 18 748 743 749
1014 17 744 743 746
1015 17 744 743 747
1016 17 744 743 748
1017 17 744 743 749
1018 17 745 743 746
1019 17 745 743 747
1020 17 745 743 748
1021 17 745 743 749
1022 17 746 743 748
1023 17 746 743 749
1024 17 747 743 748
1025 17 747 743 749
1026 13 603 606 605
1027 4 605 606 607
1028 4 605 606 608
1029 6 607 606 608
1030 4 76 78 82
1031 4 76 78 83
1032 4 76 78 84
1033 7 82 78 83
1034 7 82 78 84
1035 7 83 78 84
1036 9 85 88 90
1037 4 472 474 478
1038 4 472 474 479
1039 4 472 474 480
1040 7 478 474 479
1041 7 478 474 480
1042 7 479 474 480
1043 9 217 220 222
1044 4 220 222 226
1045 4 220 222 227
1046 4 220 222 228
1047 7 226 222 227
1048 7 226 222 228
1049 7 227 222 228
1050 11 218 217 219
1051 11 218 217 220
1052 12 219 217 220
1053 9 73 75 77
1054 9 73 76 78
1055 9 469 472 474
1056 4 471 473 475
1057 4 471 473 476
1058 4 471 473 477
1059 7 475 473 476
1060 7 475 473 477
1061 7 476 473 477
1062 9 469 471 473
1063 11 470 469 471
1064 11 470 469 472
1065 12 471 469 472
1066 11 572 571 573
1067 11 572 571 574
1068 12 573 571 574
1069 9 571 573 576
1070 4 232 234 238
1071 4 232 234 239
1072 4 232 234 240
1073 7 238 234 239
1074 7 238 234 240
1075 7 239 234 240
1076 9 229 232 234
1077 11 230 229 231
1078 11 230 229 232
1079 12 231 229 232
1080 9 229 231 233
1081 9 217 219 221
1082 4 231 233 235
1083 4 231 233 236
1084 4 231 233 237
1085 7 235 233 236
1086 7 235 233 237
1087 7 236 233 237

Dihedrals

1 6 409 411 413 415
2 6 409 411 413 416
3 6 409 411 413 417
4 8 410 409 411 413
5 8 410 409 412 414
6 7 643 646 645 644
7 8 266 265 267 269
8 8 266 265 268 270
9 6 481 483 485 487
10 6 481 483 485 488
11 6 481 483 485 489
12 8 482 481 483 485
13 8 482 481 484 486
14 6 481 484 486 490
15 6 481 484 486 491
16 6 481 484 486 492
17 6 265 268 270 274
18 6 265 268 270 275
19 6 265 268 270 276
20 8 712 711 713 716
21 8 712 711 714 715
22 7 711 714 715 716
23 5 711 713 716 715
24 7 713 716 715 714
25 5 641 643 646 645
26 6 169 171 173 175
27 6 169 171 173 176
28 6 169 171 173 177
29 6 313 316 318 322
30 6 313 316 318 323
31 6 313 316 318 324
32 8 314 313 315 317
33 8 314 313 316 318
34 6 313 315 317 319
35 6 313 315 317 320
36 6 313 315 317 321
37 7 641 644 645 646
38 6 109 111 113 115
39 6 109 111 113 116
40 6 109 111 113 117
41 6 265 267 269 271
42 6 265 267 269 272
43 6 265 267 269 273
44 8 110 109 111 113
45 8 110 109 112 114
46 5 681 683 686 685
47 7 683 686 685 684
48 8 682 681 683 686
49 8 682 681 684 685
50 7 681 684 685 686
51 8 14 13 15 17
52 8 14 13 16 18
53 6 13 15 17 19
54 6 13 15 17 20
55 6 13 15 17 21
56 6 13 16 18 22
57 6 13 16 18 23
58 6 13 16 18 24
59 8 642 641 643 646
60 8 642 641 644 645
61 5 661 663 666 665
62 7 663 666 665 664
63 6 97 99 101 103
64 6 97 99 101 104
65 6 97 99 101 105
66 6 109 112 114 118
67 6 109 112 114 119
68 6 109 112 114 120
69 6 241 243 245 247
70 6 241 243 245 248
71 6 241 243 245 249
72 7 541 544 545 546
73 6 241 244 246 250
74 6 241 244 246 251
75 6 241 244 246 252
76 8 242 241 243 245
77 8 242 241 244 246
78 6 133 135 137 139
79 6 133 135 137 140
80 6 133 135 137 141
81 8 134 133 135 137
82 8 134 133 136 138
83 5 631 633 636 635
84 7 633 636 635 634
85 8 632 631 633 636
86 8 632 631 634 635
87 7 631 634 635 636
88 6 25 27 29 31
89 6 25 27 29 32
90 6 25 27 29 33
91 6 25 28 30 34
92 6 25 28 30 35
93 6 25 28 30 36
94 8 26 25 27 29
95 8 26 25 28 30
96 6 277 279 281 283
97 6 277 279 281 284
98 6 277 279 281 285
99 6 337 339 341 343
100 6 337 339 341 344
101 6 337 339 341 345
102 6 337 340 342 346
103 6 337 340 342 347
104 6 337 340 342 348
105 8 338 337 339 341
106 8 338 337 340 342
107 8 582 581 583 586
108 8 582 581 584 585
109 6 409 412 414 418
110 6 409 412 414 419
111 6 409 412 414 420
112 6 49 51 53 55
113 6 49 51 53 56
114 6 49 51 53 57
115 6 457 459 461 463
116 6 457 459 461 464
117 6 457 459 461 465
118 8 458 457 459 461
119 8 458 457 460 462
120 8 50 49 51 53
121 8 50 49 52 54
122 6 121 123 125 127
123 6 121 123 125 128
124 6 121 123 125 129
125 8 122 121 123 125
126 8 122 121 124 126
127 8 622 621 623 626
128 8 622 621 624 625
129 5 621 623 626 625
130 6 373 375 377 379
131 6 373 375 377 380
132 6 373 375 377 381
133 8 374 373 375 377
134 8 374 373 376 378
135 6 373 376 378 382
136 6 373 376 378 383
137 6 373 376 378 384
138 6 169 172 174 178
139 6 169 172 174 179
140 6 169 172 174 180
141 8 170 169 171 173
142 8 170 169 172 174
143 6 457 460 462 466
144 6 457 460 462 467
145 6 457 460 462 468
146 7 553 556 555 554
147 8 552 551 553 556
148 8 552 551 554 555
149 5 551 553 556 555
150 7 551 554 555 556
151 5 561 563 566 565
152 7 563 566 565 564
153 8 562 561 563 566
154 8 562 561 564 565
155 8 206 205 207 209
156 8 206 205 208 210
157 6 325 328 330 334
158 6 325 328 330 335
159 6 325 328 330 336
160 6 325 327 329 331
161 6 325 327 329 332
162 6 325 327 329 333
163 8 326 325 327 329
164 8 326 325 328 330
165 6 349 352 354 358
166 6 349 352 354 359
167 6 349 352 354 360
168 8 350 349 351 353
169 8 350 349 352 354
170 6 349 351 353 355
171 6 349 351 353 356
172 6 349 351 353 357
173 8 542 541 543 546
174 8 542 541 544 545
175 5 541 543 546 545
176 6 433 436 438 442
177 6 433 436 438 443
178 6 433 436 438 444
179 7 561 564 565 566
180 7 543 546 545 544
181 6 133 136 138 142
182 6 133 136 138 143
183 6 133 136 138 144
184 7 673 676 675 674
185 5 671 673 676 675
186 7 671 674 675 676
187 6 205 208 210 214
188 6 205 208 210 215
189 6 205 208 210 216
190 6 421 423 425 427
191 6 421 423 425 428
192 6 421 423 425 429
193 6 421 424 426 430
194 6 421 424 426 431
195 6 421 424 426 432
196 8 422 421 423 425
197 8 422 421 424 426
198 6 49 52 54 58
199 6 49 52 54 59
200 6 49 52 54 60
201 7 721 724 725 726
202 7 621 624 625 626
203 7 723 726 725 724
204 7 623 626 625 624
205 8 38 37 39 41
206 8 38 37 40 42
207 6 277 280 282 286
208 6 277 280 282 287
209 6 277 280 282 288
210 8 278 277 279 281
211 8 278 277 280 282
212 6 37 40 42 46
213 6 37 40 42 47
214 6 37 40 42 48
215 5 581 583 586 585
216 7 583 586 585 584
217 7 581 584 585 586
218 6 445 447 449 451
219 6 445 447 449 452
220 6 445 447 449 453
221 8 446 445 447 449
222 8 446 445 448 450
223 7 701 704 705 706
224 8 702 701 703 706
225 8 702 701 704 705
226 5 701 703 706 705
227 6 121 124 126 130
228 6 121 124 126 131
229 6 121 124 126 132
230 6 193 195 197 199
231 6 193 195 197 200
232 6 193 195 197 201
233 7 613 616 615 614
234 6 193 196 198 202
235 6 193 196 198 203
236 6 193 196 198 204
237 5 611 613 616 615
238 8 194 193 195 197
239 8 194 193 196 198
240 6 289 291 293 295
241 6 289 291 293 296
242 6 289 291 293 297
243 8 518 517 519 521
244 8 518 517 520 522
245 8 290 289 291 293
246 8 290 289 292 294
247 6 517 519 521 523
248 6 517 519 521 524
249 6 517 519 521 525
250 6 289 292 294 298
251 6 289 292 294 299
252 6 289 292 294 300
253 6 517 520 522 526
254 6 517 520 522 527
255 6 517 520 522 528
256 6 493 496 498 502
257 6 493 496 498 503
258 6 493 496 498 504
259 8 494 493 495 497
260 8 494 493 496 498
261 6 493 495 497 499
262 6 493 495 497 500
263 6 493 495 497 501
264 6 205 207 209 211
265 6 205 207 209 212
266 6 205 207 209 213
267 6 145 147 149 151
268 6 145 147 149 152
269 6 145 147 149 153
270 7 611 614 615 616
271 8 612 611 613 616
272 8 612 611 614 615
273 8 652 651 653 656
274 8 652 651 654 655
275 6 157 159 161 163
276 6 157 159 161 164
277 6 157 159 161 165
278 5 651 653 656 655
279 8 158 157 159 161
280 8 158 157 160 162
281 7 651 654 655 656
282 6 157 160 162 166
283 6 157 160 162 167
284 6 157 160 162 168
285 7 653 656 655 654
286 8 592 591 593 596
287 8 592 591 594 595
288 5 591 593 596 595
289 7 591 594 595 596
290 5 691 693 696 695
291 8 434 433 435 437
292 8 434 433 436 438
293 8 146 145 147 149
294 8 146 145 148 150
295 6 433 435 437 439
296 6 433 435 437 440
297 6 433 435 437 441
298 6 145 148 150 154
299 6 145 148 150 155
300 6 145 148 150 156
301 8 672 671 673 676
302 8 672 671 674 675
303 7 693 696 695 694
304 8 2 1 3 5
305 8 2 1 4 6
306 6 1 4 6 10
307 6 1 4 6 11
308 6 1 4 6 12
309 6 1 3 5 7
310 6 1 3 5 8
311 6 1 3 5 9
312 7 593 596 595 594
313 7 703 706 705 704
314 8 692 691 693 696
315 8 692 691 694 695
316 7 691 694 695 696
317 8 86 85 87 89
318 8 86 85 88 90
319 5 721 723 726 725
320 8 722 721 723 726
321 8 722 721 724 725
322 6 85 87 89 91
323 6 85 87 89 92
324 6 85 87 89 93
325 6 37 39 41 43
326 6 37 39 41 44
327 6 37 39 41 45
328 7 571 574 575 576
329 7 573 576 575 574
330 6 445 448 450 454
331 6 445 448 450 455
332 6 445 448 450 456
333 5 601 603 606 605
334 8 602 601 603 606
335 8 602 601 604 605
336 7 601 604 605 606
337 6 361 363 365 367
338 6 361 363 365 368
339 6 361 363 365 369
340 8 74 73 75 77
341 8 74 73 76 78
342 6 529 531 533 535
343 6 529 531 533 536
344 6 529 531 533 537
345 8 530 529 531 533
346 8 530 529 532 534
347 6 181 184 186 190
348 6 181 184 186 191
349 6 181 184 186 192
350 8 182 181 183 185
351 8 182 181 184 186
352 6 181 183 185 187
353 6 181 183 185 188
354 6 181 183 185 189
355 6 529 532 534 538
356 6 529 532 534 539
357 6 529 532 534 540
358 6 361 364 366 370
359 6 361 364 366 371
360 6 361 364 366 372
361 8 362 361 363 365
362 8 362 361 364 366
363 6 385 388 390 394
364 6 385 388 390 395
365 6 385 388 390 396
366 8 386 385 387 389
367 8 386 385 388 390
368 6 253 256 258 262
369 6 253 256 258 263
370 6 253 256 258 264
371 6 253 255 257 259
372 6 253 255 257 260
373 6 253 255 257 261
374 8 254 253 255 257
375 8 254 253 256 258
376 6 397 400 402 406
377 6 397 400 402 407
378 6 397 400 402 408
379 8 398 397 399 401
380 8 398 397 400 402
381 6 397 399 401 403
382 6 397 399 401 404
383 6 397 399 401 405
384 8 662 661 663 666
385 8 662 661 664 665
386 7 661 664 665 666
387 6 385 387 389 391
388 6 385 387 389 392
389 6 385 387 389 393
390 8 98 97 99 101
391 8 98 97 100 102
392 6 97 100 102 106
393 6 97 100 102 107
394 6 97 100 102 108
395 6 505 507 509 511
396 6 505 507 509 512
397 6 505 507 509 513
398 6 505 508 510 514
399 6 505 508 510 515
400 6 505 508 510 516
401 8 506 505 507 509
402 8 506 505 508 510
403 6 301 303 305 307
404 6 301 303 305 308
405 6 301 303 305 309
406 6 301 304 306 310
407 6 301 304 306 311
408 6 301 304 306 312
409 8 302 301 303 305
410 8 302 301 304 306
411 6 61 64 66 70
412 6 61 64 66 71
413 6 61 64 66 72
414 6 61 63 65 67
415 6 61 63 65 68
416 6 61 63 65 69
417 8 62 61 63 65
418 8 62 61 64 66
419 7 603 606 605 604
420 6 85 88 90 94
421 6 85 88 90 95
422 6 85 88 90 96
423 6 217 220 222 226
424 6 217 220 222 227
425 6 217 220 222 228
426 8 218 217 219 221
427 8 218 217 220 222
428 6 73 75 77 79
429 6 73 75 77 80
430 6 73 75 77 81
431 6 73 76 78 82
432 6 73 76 78 83
433 6 73 76 78 84
434 6 469 472 474 478
435 6 469 472 474 479
436 6 469 472 474 480
437 6 469 471 473 475
438 6 469 471 473 476
439 6 469 471 473 477
440 8 470 469 471 473
441 8 470 469 472 474
442 8 572 571 573 576
443 8 572 571 574 575
444 5 571 573 576 575
445 6 229 232 234 238
446 6 229 232 234 239
447 6 229 232 234 240
448 8 230 229 231 233
449 8 230 229 232 234
450 6 229 231 233 235
451 6 229 231 233 236
452 6 229 231 233 237
453 6 217 219 221 223
454 6 217 219 221 224
455 6 217 219 221 225
