LAMMPS data file via write_data, version 23 Jun 2022, timestep = 2514

770 atoms
31 atom types
715 bonds
17 bond types
1087 angles
18 angle types
455 dihedrals
9 dihedral types
0 impropers
2 improper types

0 20 xlo xhi
0 20 ylo yhi
0 20 zlo zhi

Masses

1 12.011
2 12.011
3 12.011
4 12.011
5 12.011
6 12.011
7 12.011
8 12.011
9 12.011
10 12.011
11 1.008
12 1.008
13 1.008
14 1.008
15 1.008
16 1.008
17 1.008
18 15.999
19 15.999
20 15.999
21 15.999
22 14.007
23 14.007
24 14.007
25 14.007
26 18.998
27 30.974
28 6.941
29 32.065
30 32.065
31 6.941

Atoms # full

757 73 27 1.34 0.9261746661000279 1.1230462786772384 1.2881660597538018 0 0 0
760 73 26 -0.39 2.0714387350203345 0.17001977150980013 1.749855279199395 0 0 0
758 73 26 -0.39 1.9801482169557474 2.227190638455555 0.9710039978651606 0 0 0
419 35 11 0.06 4.4741109875522875 1.6952964100741157 0.9710273250775397 0 0 0
414 35 1 0.22 5.28655127653955 1.620281111393342 1.6920468273908547 0 0 0
418 35 11 0.06 6.175476428190369 1.2586703859876336 1.1782761718121848 0 0 0
712 63 20 -0.5 8.614404883054354 1.0773924337221499 0.662464693453067 0 0 0
711 63 9 0.52 8.987679990642564 2.140457193390371 1.1541738189677466 0 0 0
759 73 26 -0.39 19.87245343154434 0.017456131101443645 1.5999721650670662 -1 0 0
761 73 26 -0.39 19.784810545059536 2.0786590419213957 0.8222259396871863 -1 0 0
315 27 19 -0.35 1.8136426215855794 4.874149374861687 1.089014232169969 0 0 0
317 27 1 0.22 2.9191870251931764 4.68200483011655 0.22418162693284133 0 0 0
320 27 11 0.06 3.6714647259877515 4.045723564673503 0.6892925259371502 0 0 0
420 35 11 0.06 5.504303103448975 2.62376505123963 2.0588801484224994 0 0 0
714 63 19 -0.35 9.887049906767178 2.983054819571545 0.45323653991477175 0 0 0
732 66 31 1 7.532849225922139 4.608106662120866 1.4649211752224618 0 0 0
719 63 11 0.06 10.340828280374437 4.2313680670740785 1.1874051641321814 0 0 0
720 63 11 0.06 11.298586244245223 2.7988417026138803 0.49878695538369583 0 0 0
715 63 2 0.22 10.915039626557364 3.3198120937337894 1.3815130823251136 0 0 0
170 15 20 -0.5 13.255878332158396 3.8791693822279933 2.344032929674581 0 0 0
180 15 11 0.06 15.416284566264492 3.5891656757494284 1.121259533395272 0 0 0
174 15 1 0.22 15.77123039557283 4.116417741226963 2.004676420820781 0 0 0
178 15 11 0.06 16.831526452333645 4.326445809770274 1.8649804049823013 0 0 0
313 27 9 0.52 1.2961875001131404 6.19269151497958 1.081196044722732 0 0 0
314 27 20 -0.5 1.2781625884486565 6.856654517913163 0.04560173245485536 0 0 0
316 27 19 -0.35 0.4992148511146295 6.563707556874868 2.190930541273665 0 0 0
265 23 9 0.52 4.110961781325054 6.137203807593675 2.271109381470551 0 0 0
266 23 20 -0.5 3.5340590105351084 7.202096623550916 2.0583495624688344 0 0 0
268 23 19 -0.35 5.345370524174278 5.805140616021255 1.6430702704459281 0 0 0
270 23 1 0.22 5.835631701134515 6.6522378403867375 0.6075751982368743 0 0 0
275 23 11 0.06 5.157895492587281 7.387095433815502 0.17698640432241536 0 0 0
276 23 11 0.06 6.712271137415626 7.192722735517615 0.9576664100690974 0 0 0
169 15 9 0.52 13.664693367175591 5.034137226795103 2.2380869381383754 0 0 0
171 15 19 -0.35 12.773990901137665 6.106188527998889 2.0068554088617065 0 0 0
172 15 19 -0.35 15.04805246696984 5.308302191527428 2.2232110540603607 0 0 0
318 27 1 0.22 0.44105524000073715 7.963668422734344 2.383318464646329 0 0 0
324 27 11 0.06 0.07131462459101345 8.48691496960489 1.5031516423407076 0 0 0
731 65 31 1 3.0149209743650416 9.584431526495225 0.7258274849686782 0 0 0
399 34 19 -0.35 7.494267719654602 9.291417962529216 2.0657793641444333 0 0 0
405 34 11 0.06 9.493848300177262 8.967820945461934 2.4286073203221905 0 0 0
22 2 11 0.06 9.002710097882861 7.890673112376646 0.22785998826083917 0 0 1
69 6 11 0.06 17.507636109359968 7.585935755162227 2.154154116254736 0 0 0
65 6 1 0.22 17.245264651319427 8.420056843599465 1.5032118707723214 0 0 0
67 6 11 0.06 16.159085746893393 8.503295096231732 1.5122624386432706 0 0 0
68 6 11 0.06 17.556762661486598 8.159087512964767 0.4927067770858584 0 0 0
63 6 19 -0.35 17.8800879870135 9.605458660284034 1.9404166028380379 0 0 0
107 9 11 0.06 2.0897569397392983 11.78939780169146 2.0178472960621683 0 0 0
407 34 11 0.06 4.762449358998887 12.20461315458797 0.3291297050141822 0 0 0
397 34 9 0.52 7.243537321655304 10.657211670501209 1.8114934547728552 0 0 0
400 34 19 -0.35 5.898986991116554 11.065965817203425 1.647449865029326 0 0 0
402 34 1 0.22 5.674211752193313 11.61318864566348 0.3664965760192241 0 0 0
408 34 11 0.06 6.491394471011064 12.265326942132402 0.058392033933662844 0 0 0
398 34 20 -0.5 8.164919991792873 11.469012733379753 1.756190984227901 0 0 0
344 29 11 0.06 12.497794124896112 12.19904656567497 1.7812352207255797 0 0 0
341 29 1 0.22 13.53855607740925 11.956846270057023 1.567032443295076 0 0 0
343 29 11 0.06 13.956952822003275 11.436105307077717 2.423114337784377 0 0 0
345 29 11 0.06 13.552819644072562 11.228493233305397 0.7609211999475866 0 0 0
61 6 9 0.52 17.36244202218339 10.748547351980001 1.292352388620687 0 0 0
62 6 20 -0.5 16.160353367610277 10.995516665426734 1.3299817570715782 0 0 0
64 6 19 -0.35 18.280559247270308 11.719312261691933 0.8227724787296664 0 0 0
106 9 11 0.06 1.0803595740155203 13.178029939775255 1.6923296758530952 0 0 0
102 9 1 0.22 1.9886664242366157 12.861057013432669 2.1950457208243845 0 0 0
100 9 19 -0.35 3.095470259003347 13.593850105167615 1.7084922651023362 0 0 0
104 9 11 0.06 7.335251955039269 13.814486708629932 2.0742043212766488 0 0 0
99 9 19 -0.35 5.334265623982508 14.214472687753869 2.4165718671570064 0 0 0
247 21 11 0.06 9.860208127257602 15.007730393544476 1.626437397366033 0 0 0
243 21 19 -0.35 11.86154925988966 14.859615606516844 1.123502382438002 0 0 0
245 21 1 0.22 10.679805938060792 14.289956838658851 1.64593214492014 0 0 0
248 21 11 0.06 10.37844159756451 13.422815293890833 1.0581303055075517 0 0 0
337 29 9 0.52 14.726088645690004 13.932805452475462 2.199622247174211 0 0 0
339 29 19 -0.35 14.262718596903643 13.100503611958771 1.155595469598199 0 0 0
72 6 11 0.06 17.257842577275408 13.139602238055316 1.999593683095672 0 0 0
71 6 11 0.06 17.25702440570904 13.44276848098595 0.2626247763629386 0 0 0
66 6 1 0.22 17.845409957498468 13.044830623726737 1.0860029362625365 0 0 0
70 6 11 0.06 18.69273344413132 13.717011909946775 1.1933851857947178 0 0 0
766 74 26 -0.39 1.5643816577927652 15.62061222474604 1.9102950851407456 0 0 0
767 74 26 -0.39 3.691828026790267 16.00888286963809 1.4657486827251385 0 0 0
32 3 11 0.06 5.74035208795515 17.287080475012296 0.7595130491975007 0 0 0
241 21 9 0.52 12.114875135606962 16.10748712227875 1.7330122235560927 0 0 0
340 29 19 -0.35 15.011254808873955 15.26905003084607 1.8565204742700332 0 0 0
244 21 19 -0.35 13.199783848431716 16.867349956117152 1.2213867969886942 0 0 0
769 74 26 -0.39 2.2605082170534554 17.682974572461184 1.5829732307407016 0 0 0
33 3 11 0.06 4.545854733497322 18.55364450228493 1.0684245985932412 0 0 0
27 3 19 -0.35 6.394805192753661 18.87795290476302 1.918452024447159 0 0 0
29 3 1 0.22 5.599162428048379 18.36124359248972 0.8779796273598967 0 0 0
25 3 9 0.52 7.7645765498957315 18.617096812478376 1.6983104764161057 0 0 0
26 3 20 -0.5 8.238171734929573 18.608071354017223 0.5631837222368153 0 0 0
36 3 11 0.06 9.926505738640392 19.86396896157307 2.461891457410384 0 0 0
35 3 11 0.06 10.378995989409809 18.309298444414992 1.8134559763908542 0 0 0
251 21 11 0.06 12.599616118281396 18.807463518199654 0.7814178407229585 0 0 0
246 21 1 0.22 13.185880695261693 18.255221276238167 1.5151030049870693 0 0 0
250 21 11 0.06 14.203379056262262 18.640979834195214 1.45263824641152 0 0 0
734 68 31 1 17.978317698646777 18.03530536133362 0.06195801953730192 0 0 0
763 73 26 -0.39 0.7878433912181095 1.6700367709733142 2.742316003059033 0 0 0
409 35 9 0.52 3.9990981844733167 1.3435760505304843 3.587764610995675 0 0 0
410 35 20 -0.5 3.2003708908523025 2.173264288781315 3.159054122093012 0 0 0
411 35 19 -0.35 4.062336282551522 1.0203202470658468 4.9580621426284335 0 0 0
412 35 19 -0.35 4.935147534795189 0.7364235856005692 2.7313544300567925 0 0 0
483 41 19 -0.35 6.2488314722650955 2.0866318407209747 4.383620055238496 0 0 0
485 41 1 0.22 7.258190726700546 1.0922999067734576 4.321354412923425 0 0 0
489 41 11 0.06 7.366688466978325 0.7119238763231502 3.3092969053314447 0 0 0
488 41 11 0.06 6.959975450687349 0.2405642337216688 4.930270451608169 0 0 0
487 41 11 0.06 8.237953029656106 1.3934097432902985 4.687870877155632 0 0 0
713 63 19 -0.35 9.179155243414291 2.2449333163620144 2.53371859549635 0 0 0
716 63 2 0.22 10.56080925971752 2.490837020871663 2.625234522645996 0 0 0
718 63 11 0.06 11.43155041930019 1.9489383461931684 2.99165327293511 0 0 0
587 50 11 0.06 18.83492474231081 0.5078823332751299 3.82068084539093 -1 1 0
272 23 11 0.06 1.8193968822051718 4.73630730667244 4.144829847975697 0 0 0
481 41 9 0.52 6.655287666015006 3.429868772735992 4.155560697814652 0 0 0
484 41 19 -0.35 5.648049548786923 4.418362674992404 4.137373572053289 0 0 0
482 41 20 -0.5 7.828589652879143 3.7566088905353285 3.99742373445916 0 0 0
717 63 11 0.06 10.172172742390167 3.086091341159438 3.4450086665270403 0 0 0
179 15 11 0.06 15.66840865921616 3.436690983494752 2.848273270702169 0 0 0
271 23 11 0.06 2.1992821930124635 6.429544075616535 4.018883432893516 0 0 0
267 23 19 -0.35 3.460877774902106 5.075703125207301 2.9563801595054273 0 0 0
269 23 1 0.22 2.6480179963476274 5.439112643118836 4.061362783733816 0 0 0
273 23 11 0.06 3.209855081179143 5.368768235685393 4.989192914224722 0 0 0
486 41 1 0.22 6.210034069228951 5.680899904951544 4.42861026645127 0 0 0
490 41 11 0.06 5.433545333449044 6.431579989576727 4.573200765599277 0 0 0
492 41 11 0.06 6.855720083775824 6.027278219940335 3.6219348912918847 0 0 0
383 32 11 0.06 9.487421599584035 6.138385367164836 4.637618379308419 0 0 0
173 15 1 0.22 11.845894572887664 6.218595242715079 3.0644610093313314 0 0 0
175 15 11 0.06 11.399530815739784 5.256343965246429 3.2924215609624308 0 0 0
176 15 11 0.06 12.316543846370747 6.579979408770967 3.9772005939286017 0 0 0
177 15 11 0.06 11.038347293284824 6.903257714091029 2.8047253418485285 0 0 0
323 27 11 0.06 1.4111841076546952 8.383535564907254 2.6409954940939064 0 0 0
114 10 1 0.22 4.716416871286042 9.172415658772898 3.684953755885296 0 0 0
120 10 11 0.06 4.194820603046164 9.812690786438562 2.9765622515147427 0 0 0
119 10 11 0.06 3.9588834627199696 8.564271203542 4.171393118411763 0 0 0
118 10 11 0.06 5.375682414606379 8.504901035174504 3.1323678696669 0 0 0
112 10 19 -0.35 5.466904771305013 9.919177956960018 4.61620493972866 0 0 0
401 34 1 0.22 8.560697609942803 9.08803730234767 2.9729461210038433 0 0 0
403 34 11 0.06 8.690541495567095 9.896184863096643 3.695865484703076 0 0 0
404 34 11 0.06 8.399991812781266 8.170711058580329 3.5388427035966186 0 0 0
689 60 11 0.06 11.782899399340376 9.943015325795322 2.657790719255504 0 0 0
690 60 11 0.06 11.181812832260784 9.227504860181057 4.2530783279850395 0 0 0
685 60 2 0.22 11.973473543291364 9.26862647821592 3.497245488268322 0 0 0
686 60 2 0.22 13.437094831696868 9.018825659351307 3.907509359011995 0 0 0
687 60 11 0.06 13.92979476772539 8.332157296569079 3.2191707009630286 0 0 0
688 60 11 0.06 13.504328298077596 8.575733258101046 4.900923089204562 0 0 0
638 55 11 0.06 16.155153026509918 9.282620105551066 3.886872110854162 0 0 0
322 27 11 0.06 19.76566694312053 8.197493367631896 3.2053122138125354 -1 0 0
635 55 2 0.22 18.15773787031996 9.486393499078641 4.894012982628777 0 0 0
98 9 20 -0.5 4.239067043655059 12.30338521436327 3.181067373486596 0 0 0
684 60 19 -0.35 11.656744974079274 10.549135360291332 4.028288207625845 0 0 0
681 60 9 0.52 12.839138927229149 11.051232373652445 4.624455659812433 0 0 0
683 60 19 -0.35 13.921230197628072 10.164467228079415 4.5748600097024354 0 0 0
682 60 20 -0.5 13.005245252074696 12.250063641929723 4.827181896419533 0 0 0
637 55 11 0.06 16.343414705931536 10.836584339031594 4.705740431116948 0 0 0
636 55 2 0.22 16.88396658899918 10.037653103171431 4.191045809960758 0 0 0
633 55 19 -0.35 17.213791565588235 11.325584549775662 3.718981370403258 0 0 0
631 55 9 0.52 18.6130466619555 11.404140222428166 3.8271906580033357 0 0 0
634 55 19 -0.35 19.217000449608808 10.35295824255753 4.541183161418556 0 0 0
632 55 20 -0.5 19.268271189949594 12.274797906143661 3.258935492743324 0 0 0
108 9 11 0.06 1.845859551451012 13.017165995352348 3.264849906397115 0 0 0
427 36 11 0.06 0.9217245814721653 14.961631888874019 4.780399303155708 0 0 0
97 9 9 0.52 4.229629597207897 13.320070457151365 2.4991258987056937 0 0 0
117 10 11 0.06 4.773132941865383 14.087741473531171 4.848632638921308 0 0 0
101 9 1 0.22 6.604011638373173 13.755786771031078 2.8802272056163734 0 0 0
103 9 11 0.06 6.687379086381508 12.759230411960623 3.3055230801307878 0 0 0
105 9 11 0.06 6.957318043096282 14.40251206807863 3.675000776675609 0 0 0
249 21 11 0.06 10.815774008629985 13.96019368092156 2.6763024340234787 0 0 0
284 24 11 0.06 12.948653116061546 14.679347240375085 4.245997082022343 0 0 0
338 29 20 -0.5 15.128112023920439 13.472460387505182 3.2649516976568966 0 0 0
425 36 1 0.22 19.839556953100576 14.90566772754391 4.9001361918918445 -1 0 0
429 36 11 0.06 19.41466503757662 14.769630311163317 3.9055375937579253 -1 0 0
768 74 26 -0.39 1.6622639538802093 17.0365099933593 3.6003020860737975 0 0 0
764 74 27 1.34 2.6759360085544737 16.519076178419077 2.534053436594996 0 0 0
770 74 26 -0.39 3.0869205369541737 15.352715146250954 3.485113707229691 0 0 0
765 74 26 -0.39 3.7885256361185755 17.414617197583716 3.159909699992702 0 0 0
729 64 11 0.06 6.524481589050293 16.843999362158677 3.3655587209976336 0 0 0
725 64 2 0.22 6.894772437881686 16.868720684744666 4.392458450049437 0 0 0
726 64 2 0.22 8.379713850299492 16.445073111551753 4.56683072128956 0 0 0
727 64 11 0.06 8.859314847194767 16.021613811226302 3.6806058349898696 0 0 0
242 21 20 -0.5 11.590784049456563 16.36716756604816 2.8125554920359557 0 0 0
283 24 11 0.06 11.336368499310504 15.00153335390497 4.8883337023607165 0 0 0
342 29 1 0.22 15.691812023887902 15.921502388004704 2.9036204405988366 0 0 0
346 29 11 0.06 15.880256721232167 16.963147490060607 2.6440852680125744 0 0 0
347 29 11 0.06 15.105344294303983 15.909556666829202 3.821810212039301 0 0 0
348 29 11 0.06 16.65287867326468 15.446709092594958 3.100378083138506 0 0 0
583 50 19 -0.35 0.8799498489515847 19.412464061057637 3.8119676667360007 0 0 0
581 50 9 0.52 1.6531190423206632 19.268655377378586 4.977957432680087 0 0 0
582 50 20 -0.5 2.809913925406255 18.857171767767525 4.951042567999118 0 0 0
28 3 19 -0.35 8.56477210822858 18.352173087243777 2.8307875987244753 0 0 0
30 3 1 0.22 9.891716956466913 18.798200752776527 2.652873775298173 0 0 0
34 3 11 0.06 10.485968213051455 18.60482605557536 3.545930652643337 0 0 0
252 21 11 0.06 12.828657141064733 18.513718032263032 2.5116669567792047 0 0 0
588 50 11 0.06 19.48581395332715 18.888332077640747 3.7958278114088384 -1 0 0
586 50 2 0.22 19.6196465221367 19.877157544050164 4.247522401103116 -1 0 0
416 35 11 0.06 2.2175801106661215 1.7826786576288083 5.475098955152977 0 0 0
413 35 1 0.22 3.274442681622531 1.9129064521553412 5.708146211706236 0 0 0
417 35 11 0.06 3.4257063226368882 1.741856114604826 6.772121668366484 0 0 0
624 54 19 -0.35 6.82731196556053 1.3812253878592633 7.150442573508462 0 0 0
621 54 9 0.52 8.207557510105307 1.4890885152968705 7.408265667960679 0 0 0
622 54 20 -0.5 9.026343198996159 0.6943100489602458 6.953242045777033 0 0 0
379 32 11 0.06 11.143835887741856 1.527719255501725 5.438310135203378 0 0 0
377 32 1 0.22 11.965406069024747 2.142837871704316 5.803464780818868 0 0 0
381 32 11 0.06 11.853472576426256 2.2518864509414334 6.882821843466023 0 0 0
380 32 11 0.06 12.89517409353899 1.606590136341545 5.614530698811482 0 0 0
333 28 11 0.06 15.855756217798993 2.4528811032774853 5.138497845074754 0 0 0
589 50 11 0.06 19.205750308849268 0.7583183362839511 6.27311584061263 -1 1 0
642 56 20 -0.5 0.822865654484321 3.720605588641903 6.5596030240522145 0 0 0
415 35 11 0.06 3.545660158150265 2.947730724544557 5.50978313996535 0 0 0
630 54 11 0.06 5.864360836822139 2.9632624209096337 6.690637036742542 0 0 0
374 32 20 -0.5 9.795480305596357 3.58848629628581 5.864862843677305 0 0 0
373 32 9 0.52 10.857519294360808 4.149707402613143 5.600498094836807 0 0 0
375 32 19 -0.35 11.968340071061442 3.3996384330123584 5.163654710489435 0 0 0
327 28 19 -0.35 14.376965648632012 3.60018725247255 6.011754889525228 0 0 0
325 28 9 0.52 14.257942304119851 4.691668537631036 6.896622704160896 0 0 0
328 28 19 -0.35 12.999582479353554 4.941105062293628 7.482673647097906 0 0 0
329 28 1 0.22 15.738163837379448 3.3596926829132854 5.731568826292307 0 0 0
332 28 11 0.06 16.31241686743277 3.233710849615164 6.6486144130420515 0 0 0
331 28 11 0.06 16.1759248779051 4.189569334089578 5.176963038935914 0 0 0
463 39 11 0.06 1.3445907744904935 7.193820178160782 6.239349324214972 0 0 0
458 39 20 -0.5 3.925205926869634 7.339518696540985 6.34815989635365 0 0 0
468 39 11 0.06 5.519061986507203 5.398000977949508 7.465324561420574 0 0 0
491 41 11 0.06 6.80843307753363 5.63977389113805 5.3375368505008165 0 0 0
378 32 1 0.22 9.86767103929804 6.257233552995369 5.651026012651573 0 0 0
384 32 11 0.06 9.083492865775092 5.936310332591409 6.329818857732752 0 0 0
376 32 19 -0.35 11.05341663828857 5.522811870743899 5.864011873905047 0 0 0
382 32 11 0.06 10.042616252931573 7.319172379370821 5.8230543132602515 0 0 0
336 28 11 0.06 13.061702243061823 6.883062587401579 6.7804547595580305 0 0 0
326 28 20 -0.5 15.214967308117599 5.4288597286483435 7.12355735091539 0 0 0
461 39 1 0.22 1.510603086194321 8.13759223072346 6.753205334167898 0 0 0
464 39 11 0.06 0.5381983925120241 8.529235548830224 7.039322031439255 0 0 0
465 39 11 0.06 1.9417791154953992 8.82782103927439 6.0327949968412895 0 0 0
561 48 9 0.52 5.568350814654389 9.454805320543446 7.069965023286625 0 0 0
563 48 19 -0.35 6.161420684953021 8.185200481981191 7.076926559240194 0 0 0
565 48 2 0.22 7.7791677709990825 9.939587010507328 6.823217451273175 0 0 0
568 48 11 0.06 7.630370629177706 7.969061397514728 5.908591307966673 0 0 0
566 48 2 0.22 7.541103426618719 8.427394316490172 6.892644098283691 0 0 0
136 12 19 -0.35 12.091034223882346 9.71438180190699 6.660017478627943 0 0 0
133 12 9 0.52 13.427558711721911 9.981576813765535 7.016682581499157 0 0 0
137 12 1 0.22 15.477936856551867 8.79309262142612 7.18429707241786 0 0 0
139 12 11 0.06 15.953816163771075 9.732012709874468 6.9126612399459235 0 0 0
141 12 11 0.06 15.515659049972005 8.135527115541493 6.317002171878951 0 0 0
640 55 11 0.06 18.14887174204152 8.411283119579668 5.099607557521916 0 0 0
639 55 11 0.06 18.377168290772076 9.960472896414467 5.851732162330971 0 0 0
110 10 20 -0.5 3.4949733846390925 10.701644169269077 5.469101369550917 0 0 0
109 10 9 0.52 4.676134465866879 10.92312695830898 5.213737675716711 0 0 0
111 10 19 -0.35 5.30187243210375 12.180347744316377 5.452687639217047 0 0 0
564 48 19 -0.35 6.4862297999884815 10.512973286959026 6.88729477853688 0 0 0
570 48 11 0.06 7.522544068934191 10.491016981976667 5.917183163995299 0 0 0
138 12 1 0.22 11.257174239911494 10.72774881012901 7.17797277035906 0 0 0
142 12 11 0.06 10.21062121084736 10.484260380486383 7.011543157437018 0 0 0
144 12 11 0.06 11.450166006189619 11.686775842711684 6.700326043498309 0 0 0
134 12 20 -0.5 13.877070593869815 11.119981511656443 6.896345385382978 0 0 0
59 5 11 0.06 1.3216593567058557 14.552873034931434 7.218476955039286 0 0 0
113 10 1 0.22 4.472943493403154 13.33048300335202 5.568795742819174 0 0 0
115 10 11 0.06 3.4011772098501987 13.193671599506493 5.434307876262737 0 0 0
116 10 11 0.06 4.627428729010458 13.78519186133174 6.544249485033201 0 0 0
438 37 1 0.22 7.977265690221456 13.271864293845034 7.367184805842769 0 0 0
442 37 11 0.06 8.237530602513306 12.991909580139104 6.346440055496 0 0 0
443 37 11 0.06 8.084175945213694 14.35225316407912 7.4602116689275135 0 0 0
285 24 11 0.06 12.65691880944223 14.72923103078231 5.992758128135727 0 0 0
752 72 26 -0.39 15.980928213177192 12.63731512350208 6.898821024251049 0 0 0
753 72 26 -0.39 15.076301698501798 14.207412298570274 5.6523322098093605 0 0 0
750 72 27 1.34 16.432777481276148 14.042676021697854 6.396744019292683 0 0 0
756 72 26 -0.39 17.054855258665835 13.387650940692282 5.124674769077671 0 0 0
428 36 11 0.06 19.62830239935409 13.999139772880422 5.4650584358618275 -1 0 0
754 72 26 -0.39 17.787535149586546 13.877886630015704 7.150724631147715 0 0 0
421 36 9 0.52 0.15005451489188074 16.62981669038744 6.470985137402782 0 0 0
422 36 20 -0.5 1.2450882696394614 17.055126417331312 6.105930618357663 0 0 0
50 5 20 -0.5 3.429635804228546 15.953678204422804 6.879036215081842 0 0 0
730 64 11 0.06 6.1680713897036235 16.35113739971969 5.025907907942011 0 0 0
728 64 11 0.06 8.55730935554742 15.73062865117337 5.375929015773613 0 0 0
723 64 19 -0.35 8.944435053773757 17.383923069367782 5.4515310816583575 0 0 0
277 24 9 0.52 12.16220767751908 17.176250793410293 6.1649520498956925 0 0 0
278 24 20 -0.5 11.082087440703557 16.800296903644476 6.604501421536355 0 0 0
281 24 1 0.22 12.400586183030299 15.185881753899094 5.038876447795808 0 0 0
279 24 19 -0.35 12.723642856726297 16.559632180811086 5.032279871321259 0 0 0
452 38 11 0.06 15.005180938286777 16.99974317746039 7.1122471488734 0 0 0
751 72 26 -0.39 16.87799617666942 15.449077605859447 5.891119416735326 0 0 0
423 36 19 -0.35 19.27558908980755 16.050572584746504 5.521424293842132 -1 0 0
584 50 19 -0.35 0.9834486460798267 19.539873153415908 6.181455366177463 0 0 0
55 5 11 0.06 4.500485504170952 18.202986254652128 6.672046006885005 0 0 0
724 64 19 -0.35 6.618943251830349 17.8104563348149 5.405171954897688 0 0 0
721 64 9 0.52 7.849743980851067 18.03263876668372 6.044410424739666 0 0 0
722 64 20 -0.5 7.908923731514673 18.47140454704649 7.1903659531587305 0 0 0
287 24 11 0.06 11.146873482060334 19.389134451690037 6.730705009309466 0 0 0
282 24 1 0.22 11.9412917984289 19.09655109744679 7.414735960828545 0 0 0
280 24 19 -0.35 12.859170349134546 18.2364626117907 6.777449825532055 0 0 0
449 38 1 0.22 15.751594032447366 17.791243074291057 7.167044784988848 0 0 0
453 38 11 0.06 16.005934164895056 18.079501910893324 6.147009106487866 0 0 0
585 50 2 0.22 19.66954290568984 19.88723900602562 5.801464061786971 -1 0 0
590 50 11 0.06 19.226040686564602 19.007343069754132 6.27092269288957 -1 0 0
292 25 19 -0.35 2.0141383987958634 2.015505524957502 9.506354924546331 0 0 0
294 25 1 0.22 1.4417020924599864 1.0604631885812448 8.636203646252287 0 0 0
298 25 11 0.06 1.1176405061740549 1.51770313539738 7.703708673769679 0 0 0
299 25 11 0.06 2.1816323856833315 0.301361518207654 8.391867430030405 0 0 0
300 25 11 0.06 0.5651568630462862 0.5678478160203723 9.062600416173591 0 0 0
708 62 11 0.06 4.72089792311955 0.7036952671890758 9.84242094460352 0 0 0
707 62 11 0.06 6.444206260470944 0.653576667503633 9.514557464049005 0 0 0
125 11 1 0.22 9.790881506734246 0.5536762409911857 9.950329828819692 0 0 0
123 11 19 -0.35 10.511662704046115 1.5853607757814574 9.312714359881246 0 0 0
201 17 11 0.06 15.318148765314387 2.0113565621134075 8.588991461481061 0 0 0
197 17 1 0.22 15.333460352652788 2.3487142898529374 9.624787424712153 0 0 0
641 56 9 0.52 0.9047791846732659 4.1505678555409835 7.7078466778956765 0 0 0
643 56 19 -0.35 0.2023146310835033 3.577050057516307 8.78210158518059 0 0 0
646 56 2 0.22 0.46198143524204743 4.425110386105859 9.883552372799423 0 0 0
467 39 11 0.06 3.8735728655757162 4.8544038747167075 7.684961139011058 0 0 0
466 39 11 0.06 4.965332762756241 4.866631012501351 9.059141146859906 0 0 0
629 54 11 0.06 5.367646794388331 2.531106016537417 8.2649708894798 0 0 0
626 54 2 0.22 7.4268285027399275 3.4014754396608997 8.243141677431014 0 0 0
625 54 2 0.22 6.254793921930053 2.5786614659945646 7.634712841529701 0 0 0
627 54 11 0.06 7.249577496421631 3.865940753722047 9.21421867923388 0 0 0
623 54 19 -0.35 8.606128673589216 2.6471786156642025 8.091638616354375 0 0 0
628 54 11 0.06 7.8566610383563 4.157889159552028 7.585312719584285 0 0 0
199 17 11 0.06 14.504278694362352 3.0435824096327546 9.746648682706589 0 0 0
200 17 11 0.06 16.264636201698547 2.892910879523679 9.781540515144176 0 0 0
647 56 11 0.06 19.3984077164535 4.304362254404117 9.691015877728463 -1 0 0
644 56 19 -0.35 1.4409490807410679 5.424105761851471 8.00032244201492 0 0 0
649 56 11 0.06 0.3771590454169489 6.37804940732991 8.696979250475415 0 0 0
645 56 2 0.22 1.015540975827953 5.742273852953142 9.316810415987623 0 0 0
650 56 11 0.06 2.0818041496437005 5.826863406886203 9.128626303260415 0 0 0
457 39 9 0.52 3.534790480157605 7.321696993088128 7.509829176704219 0 0 0
460 39 19 -0.35 4.3274896992746275 6.734242035872415 8.515954255700809 0 0 0
462 39 1 0.22 4.681265323721836 5.411771522311778 8.161348713291016 0 0 0
558 47 11 0.06 6.878260675698452 6.7125416652249426 9.098499347790735 0 0 0
560 47 11 0.06 9.300601387365854 5.783162901719282 8.81554354230696 0 0 0
554 47 19 -0.35 9.89098026957442 6.756192732485341 9.563278221003962 0 0 0
555 47 2 0.22 8.779190824500105 5.893460740225361 9.771056789177024 0 0 0
556 47 2 0.22 7.58180736511466 6.841618558164368 9.916797499507933 0 0 0
131 11 11 0.06 11.662543070467525 4.9874625280147695 9.924760307100692 0 0 0
334 28 11 0.06 11.830062073773899 6.5697973237217475 7.996954485669217 0 0 0
330 28 1 0.22 12.847441382796415 6.326943962785553 7.693156385402238 0 0 0
335 28 11 0.06 13.521487143074017 6.674694501000545 8.476051754058012 0 0 0
459 39 19 -0.35 2.343001275716106 7.978013200612449 7.882414758791986 0 0 0
562 48 20 -0.5 4.444296143107584 9.648840024206802 7.526562555635108 0 0 0
153 13 11 0.06 5.880893643654958 9.179089371070415 9.53348492466359 0 0 0
551 47 9 0.52 9.433216294357944 8.086363722075356 9.746741837485272 0 0 0
567 48 11 0.06 8.319213954107113 7.997978268167059 7.512672549519849 0 0 0
552 47 20 -0.5 9.965747734707605 9.032310179686052 9.169646327395148 0 0 0
135 12 19 -0.35 14.153553941518124 8.951108036884033 7.660968445231392 0 0 0
140 12 11 0.06 16.09909893350029 8.337773872703705 7.955717685271942 0 0 0
216 18 11 0.06 18.687029370861556 9.626521828186068 8.308801674578547 0 0 0
356 30 11 0.06 1.8615154999263213 10.962540190351628 8.136810182809251 0 0 0
353 30 1 0.22 2.3375599400410887 11.036864115844198 9.114037835780149 0 0 0
355 30 11 0.06 2.67345408917753 10.042545377761845 9.389467168886378 0 0 0
357 30 11 0.06 3.2309139483574105 11.640173666354954 8.992004877392668 0 0 0
152 13 11 0.06 5.754972217658047 10.90423064898531 9.245596813429707 0 0 0
569 48 11 0.06 7.720651299908658 10.512319962485385 7.7507168503703205 0 0 0
143 12 11 0.06 11.408589346935562 10.854597172034216 8.249613636045869 0 0 0
213 18 11 0.06 13.291843957461717 10.488824645604689 9.856024789433087 0 0 0
207 18 19 -0.35 15.144060684080513 10.796593970367738 9.025242990883319 0 0 0
205 18 9 0.52 16.51552942636466 10.535269752167263 9.21181965372607 0 0 0
208 18 19 -0.35 17.4201063600822 11.229327346084798 8.379674574274754 0 0 0
210 18 1 0.22 18.713483666854536 10.695023168221748 8.505651799901793 0 0 0
214 18 11 0.06 19.39362694825644 11.161616672972372 7.793677190845988 0 0 0
215 18 11 0.06 19.114638642924312 10.855384246812042 9.50569867884466 0 0 0
54 5 1 0.22 1.7757765634658405 14.496246036144777 8.205509338320619 0 0 0
58 5 11 0.06 1.0976703474729725 13.953563135638653 8.86413710035315 0 0 0
60 5 11 0.06 2.676300521220622 13.906290254775914 8.099768222636532 0 0 0
435 37 19 -0.35 4.9661614006556425 13.851307748153479 9.098421429733992 0 0 0
436 37 19 -0.35 6.661573215436857 12.877092899312172 7.677404053416638 0 0 0
433 37 9 0.52 6.290188466808219 13.403900160007831 8.929474553351058 0 0 0
434 37 20 -0.5 7.108339357211999 13.502016474108949 9.838592533513252 0 0 0
444 37 11 0.06 8.691996640026055 12.796542116772775 8.038313857485745 0 0 0
544 46 19 -0.35 9.55524343418926 14.49091854446425 9.95822324824693 0 0 0
542 46 20 -0.5 10.546894729840288 14.46220524168621 7.872978530746679 0 0 0
38 4 20 -0.5 11.86789496569424 13.198843892484334 9.579071587223149 0 0 0
692 61 20 -0.5 14.221393328673916 13.10086104679502 8.743167659555649 0 0 0
691 61 9 0.52 14.905408653682937 13.245538389737984 9.753803290854245 0 0 0
755 72 26 -0.39 15.811214022996017 14.69935192855755 7.665180901879678 0 0 0
694 61 19 -0.35 16.27834636616291 12.95565420261707 9.77959065839391 0 0 0
431 36 11 0.06 0.30827074456461423 17.24021032748885 9.703518216329174 0 0 0
52 5 19 -0.35 2.079625448823424 15.768097590647733 8.733484535249056 0 0 0
49 5 9 0.52 3.0673411507380566 16.415579156259252 7.958795900044273 0 0 0
57 5 11 0.06 5.489591111236492 17.227690057285795 7.763299864691666 0 0 0
548 46 11 0.06 9.423348970089728 17.3306370903893 9.721639994214568 0 0 0
541 46 9 0.52 10.132833283307225 15.105479095917598 8.835090486881695 0 0 0
543 46 19 -0.35 10.413006632301279 16.4726922009438 8.987626816739327 0 0 0
43 4 11 0.06 12.871261036278455 15.18189682922971 8.441426520412053 0 0 0
41 4 1 0.22 13.03669799476915 15.709341368704754 9.376204014847746 0 0 0
44 4 11 0.06 12.891764144054852 16.759228222949254 9.136490325497054 0 0 0
45 4 11 0.06 14.082399159318879 15.602763682344087 9.65190446845424 0 0 0
451 38 11 0.06 16.64904811657126 17.37588989892116 7.625887013776981 0 0 0
524 44 11 0.06 16.763511065191643 15.515337932641247 9.826932649004913 0 0 0
424 36 19 -0.35 19.834603174707762 16.460361156334617 7.846781676460549 -1 0 0
523 44 11 0.06 18.501447073865442 15.264616164918678 9.643018438618224 0 0 0
525 44 11 0.06 17.850567338208883 16.87275473600598 9.969417016801673 0 0 0
426 36 1 0.22 0.17764939324797271 17.564486630852745 8.670926341645702 0 0 0
432 36 11 0.06 1.108703148961713 18.045510961898973 8.392849406017687 0 0 0
51 5 19 -0.35 3.575504738543092 17.6460142001591 8.43123974608001 0 0 0
53 5 1 0.22 4.734692681797035 18.012552492491608 7.718145374301357 0 0 0
56 5 11 0.06 5.169642492279903 18.922266891956742 8.132645269935555 0 0 0
128 11 11 0.06 9.481677755789526 19.79023190348125 9.238576993862708 0 -1 0
286 24 11 0.06 12.442955177619865 19.99310344369741 7.774671771792022 0 0 0
288 24 11 0.06 11.468743739481619 18.621946256006996 8.27174424480684 0 0 0
445 38 9 0.52 14.846512138234914 18.4943574061617 9.181856907766498 0 0 0
448 38 19 -0.35 13.701855655597399 19.098845827181883 9.740700217248406 0 0 0
446 38 20 -0.5 15.486288233315841 17.663327261734477 9.81911287219835 0 0 0
447 38 19 -0.35 15.263795721839216 18.899156518465706 7.8949370943807535 0 0 0
430 36 11 0.06 19.40663116852264 18.333342827790837 8.669722208922634 -1 0 0
289 25 9 0.52 2.0738580138017078 1.4999589836607814 10.81783802864202 0 0 0
290 25 20 -0.5 2.429239872508103 0.3385258426225358 11.005562645753386 0 0 0
291 25 19 -0.35 1.4027656948946137 2.222816794793078 11.825557242417734 0 0 0
701 62 9 0.52 4.7710949538075615 0.4522875452200702 12.327109766331349 0 0 0
705 62 2 0.22 5.914673831417542 1.9951070937763764 11.191696327577999 0 0 0
706 62 2 0.22 5.70642277398436 0.7420582669416658 10.31396914781745 0 0 0
709 62 11 0.06 6.9648975193770495 2.191556677131864 11.411624351297064 0 0 0
704 62 19 -0.35 5.331879157250608 1.7329460237846719 12.449111401428661 0 0 0
127 11 11 0.06 8.8896198873128 0.9422538412784257 10.42044741853366 0 0 0
81 7 11 0.06 11.50863567289937 1.5050451642558484 12.428207667718173 0 0 0
129 11 11 0.06 10.394482811634928 0.06591610518692793 10.715072597615922 0 0 0
193 17 9 0.52 14.880496272785967 1.6194441233287333 11.810605525754879 0 0 0
194 17 20 -0.5 13.857105875546619 2.263338290496502 12.030505175655613 0 0 0
195 17 19 -0.35 15.235816399421585 1.2400722537814979 10.49414873608838 0 0 0
648 56 11 0.06 0.5724086046452461 4.41871343199684 10.967692060777063 0 0 0
259 22 11 0.06 4.548837415723732 4.5581597981231745 12.326220816881111 0 0 0
710 62 11 0.06 5.516716165870067 2.8969137551413184 10.731879783854247 0 0 0
122 11 20 -0.5 9.732261814781245 3.283227977715404 10.652991496319368 0 0 0
121 11 9 0.52 10.694629076255277 2.665025873206237 10.202436775728582 0 0 0
124 11 19 -0.35 12.013995562777168 3.0436302646755347 10.524739398503725 0 0 0
126 11 1 0.22 12.066344070699834 4.430246956580398 10.76785027489067 0 0 0
132 11 11 0.06 11.519805869438198 4.70206413882365 11.671253791100714 0 0 0
130 11 11 0.06 13.092465830921709 4.752435854167845 10.901284921178602 0 0 0
614 53 19 -0.35 15.473994145964738 4.432950488244574 11.584656275787426 0 0 0
616 53 2 0.22 17.729209297023747 4.508475194023784 12.275416731072552 0 0 0
618 53 11 0.06 18.357419351196274 3.709220059308417 11.884080027055159 0 0 0
496 42 19 -0.35 1.5865056477764896 7.46792583415892 12.379794935485512 0 0 0
255 22 19 -0.35 4.672727592373685 6.550672659047014 11.65825997702123 0 0 0
257 22 1 0.22 3.9342252408889835 5.3795543832937645 11.964644159697604 0 0 0
261 22 11 0.06 3.424266264135239 5.015210305805811 11.074303602238391 0 0 0
557 47 11 0.06 7.022871442133134 6.577438183593464 10.809899663005694 0 0 0
559 47 11 0.06 9.401496626528294 5.7609787270336765 10.654119992540206 0 0 0
680 59 11 0.06 11.200695561006992 7.181090984684785 11.648645023641167 0 0 0
677 59 11 0.06 13.981958628023119 7.0430329663746845 11.356618656672845 0 0 0
620 53 11 0.06 17.197686993821673 5.312704583015981 10.30536225578066 0 0 0
619 53 11 0.06 16.185982808513526 5.886162713715567 11.569415065989707 0 0 0
615 53 2 0.22 16.715042724154962 4.998525421006706 11.227989624680932 0 0 0
660 57 11 0.06 19.578223557881874 6.858116572375043 11.027588433036248 0 0 0
498 42 1 0.22 1.9359832755085482 8.403880619827804 11.386480180092812 0 0 0
502 42 11 0.06 1.7743656998351829 7.948525100402287 10.411984966067621 0 0 0
503 42 11 0.06 1.3270825011755214 9.305038334061956 11.409995924678576 0 0 0
504 42 11 0.06 2.9846848334321927 8.688038607226591 11.46707963333117 0 0 0
553 47 19 -0.35 8.08361070944989 8.149586679032412 10.10071229692794 0 0 0
675 59 2 0.22 11.942280924994252 7.925692062995432 11.358679835483926 0 0 0
674 59 19 -0.35 11.387196492903128 9.055192228765419 11.996546832157057 0 0 0
679 59 11 0.06 11.949273494340087 7.985492030832122 10.268243982632297 0 0 0
676 59 2 0.22 13.346093598579637 7.6887142313442975 11.964854463422126 0 0 0
211 18 11 0.06 14.431437909512818 9.19409181047292 10.131987780956116 0 0 0
206 18 20 -0.5 16.912119288764202 9.879263902361263 10.16789522050861 0 0 0
651 57 9 0.52 17.117541925155752 8.15158588076546 12.060914980044823 0 0 0
652 57 20 -0.5 15.938240342048914 8.462556505225168 11.983535414316679 0 0 0
654 57 19 -0.35 17.809363894260244 7.68038359363525 10.947189854194422 0 0 0
655 57 2 0.22 19.15122917637357 7.812864178480323 11.3154703538719 0 0 0
659 57 11 0.06 19.114212060661817 8.559005241164408 10.526457372215049 0 0 0
351 30 19 -0.35 1.4414366142434922 11.575974981680975 10.067545845846409 0 0 0
349 30 9 0.52 2.085735243594434 11.898481033935177 11.284828191319766 0 0 0
151 13 11 0.06 4.876885081933852 10.123808573774657 10.567584696455425 0 0 0
350 30 20 -0.5 2.9504229959113597 11.170196138314791 11.76399442835743 0 0 0
149 13 1 0.22 5.815693562575767 10.146226878630856 10.024151792456415 0 0 0
145 13 9 0.52 6.637347439042891 11.412803089677936 11.809028464838988 0 0 0
147 13 19 -0.35 6.919083899813233 10.385550019897845 10.876052102403866 0 0 0
148 13 19 -0.35 7.628010484710983 12.397403410844131 12.018878659486948 0 0 0
47 4 11 0.06 10.020810078805166 12.255206939331517 10.973198464400133 0 0 0
42 4 1 0.22 10.841422627482247 12.22376320951609 11.688882651608637 0 0 0
48 4 11 0.06 11.547787367051072 11.465849782292299 11.356161989447626 0 0 0
209 18 1 0.22 14.340483837745476 10.274960707520977 10.059295226867734 0 0 0
212 18 11 0.06 14.593952516936621 10.714936900402105 11.023577885701826 0 0 0
700 61 11 0.06 17.004584802386443 11.855890374527116 11.695101025822293 0 0 0
352 30 19 -0.35 1.62667567151655 13.021190031880051 12.004798507186052 0 0 0
437 37 1 0.22 4.543643773136896 13.629225062091672 10.425468168744079 0 0 0
440 37 11 0.06 3.479952750861725 13.83335202211565 10.536941304735068 0 0 0
441 37 11 0.06 4.720113525263594 12.611040566759124 10.746434506529393 0 0 0
439 37 11 0.06 5.09722203058231 14.243414176999606 11.124693714433548 0 0 0
37 4 9 0.52 11.918723882609138 13.941000223383304 10.557918237203593 0 0 0
40 4 19 -0.35 11.482664788293214 13.475369438348142 11.818248518764795 0 0 0
693 61 19 -0.35 14.340858105671968 13.521492986069306 11.010125585162108 0 0 0
696 61 2 0.22 15.428823136035666 13.43716324290811 11.901602241659672 0 0 0
699 61 11 0.06 17.369483445125415 13.272356459676926 10.7466740922784 0 0 0
695 61 2 0.22 16.544544674356462 12.674998894437566 11.135825551714026 0 0 0
697 61 11 0.06 15.589546511420798 14.515987877349733 11.973359013205446 0 0 0
94 8 11 0.06 2.4652736029014504 17.002503837469998 11.417859959158797 0 0 0
518 44 20 -0.5 0.10031973249288377 15.917421314846118 11.899776028200106 1 0 0
95 8 11 0.06 3.7977978651510322 16.31182857976462 10.532840556634838 0 0 0
90 8 1 0.22 3.4859317746335297 16.636049099205366 11.524626522119549 0 0 0
96 8 11 0.06 3.445623900639242 15.780655753283757 12.197196709479362 0 0 0
86 8 20 -0.5 6.161809547990935 16.49394762950301 11.31528382122594 0 0 0
85 8 9 0.52 5.695433566602143 17.3962921026487 12.004886102781816 0 0 0
545 46 2 0.22 9.611815289860472 15.463292935541316 10.98175569737033 0 0 0
549 46 11 0.06 9.809123820992733 15.377778924744815 12.053331043153166 0 0 0
550 46 11 0.06 8.544344908339207 15.283426730666848 10.843463956470885 0 0 0
546 46 2 0.22 10.135839709167287 16.77342305400432 10.333181517731918 0 0 0
547 46 11 0.06 10.650032276381348 17.474211488669262 10.99641443316767 0 0 0
39 4 19 -0.35 12.172886399263254 15.331832357917191 10.43658343470149 0 0 0
521 44 1 0.22 17.74194840290351 15.816026736004021 10.197892666027428 0 0 0
517 44 9 0.52 18.946994576941304 16.273136761878188 12.131581882991574 0 0 0
519 44 19 -0.35 17.847583871404325 15.577571356254015 11.584559977903641 0 0 0
88 8 19 -0.35 4.302915640008248 17.656994435319298 12.057723101670463 0 0 0
703 62 19 -0.35 4.883976917243095 19.8690797590698 11.052550830568121 0 -1 0
92 8 11 0.06 7.540568831184935 18.570159976109597 10.798522362130614 0 0 0
89 8 1 0.22 7.759646495045233 18.4105510809404 11.854452464531624 0 0 0
91 8 11 0.06 8.349864296530995 17.50427828769533 11.972584252452613 0 0 0
93 8 11 0.06 8.403539563650959 19.225782291020174 12.170418274327156 0 0 0
450 38 1 0.22 13.64289213280346 18.838733399431685 11.128648320550054 0 0 0
454 38 11 0.06 12.824901174957251 19.397405298660267 11.582125271783505 0 0 0
455 38 11 0.06 13.476734441224332 17.783538780988774 11.338938219849618 0 0 0
456 38 11 0.06 14.567509281199142 19.118550577778844 11.631930720558652 0 0 0
293 25 1 0.22 2.0764566339577324 2.137399452097585 13.061002789241506 0 0 0
295 25 11 0.06 2.225403665761718 1.1068352454408465 13.374484066756935 0 0 0
84 7 11 0.06 6.615640692068651 2.235419214899003 14.534303051510802 0 0 0
78 7 1 0.22 6.784258710966176 1.2651851864458128 14.989478681788741 0 0 0
76 7 19 -0.35 7.630399134549126 0.4717997983451077 14.191055336195063 0 0 0
73 7 9 0.52 8.986864612036552 0.823565510681509 14.370229554681146 0 0 0
75 7 19 -0.35 9.65108616149817 1.5036091589011427 13.329804272586118 0 0 0
77 7 1 0.22 11.003065681038823 1.1041688370492524 13.30372540283436 0 0 0
79 7 11 0.06 11.538889184829783 1.460339597017572 14.183059585754483 0 0 0
80 7 11 0.06 11.08613624586128 0.01795069537055106 13.27301988419024 0 0 0
198 17 1 0.22 14.794118201557378 0.7112922818646877 13.973137931979606 0 0 0
203 17 11 0.06 14.628350428831657 1.5484401699496868 14.643972836522188 0 0 0
204 17 11 0.06 13.812216698583354 0.34503687722701926 13.673387814339414 0 0 0
196 17 19 -0.35 15.623892359599322 1.0693896255028943 12.880811419926596 0 0 0
223 19 11 0.06 19.04257739104652 2.050129388259626 13.724488029471814 0 0 0
219 19 19 -0.35 18.19538824458505 0.39856738255563634 14.671735511917415 0 0 0
221 19 1 0.22 18.850904340274024 0.9896029207888634 13.569719521580366 0 0 0
224 19 11 0.06 19.80200484198344 0.49666399605964495 13.377814533199128 0 0 0
225 19 11 0.06 18.244047518232986 0.8983376165353474 12.669287786779602 0 0 0
297 25 11 0.06 1.4751687329421566 2.615499133291427 13.830505514869374 0 0 0
296 25 11 0.06 3.048706899200116 2.6302612077328225 13.02605538850353 0 0 0
741 70 26 -0.39 8.133477149241035 3.7909425219446136 13.300452432782738 0 0 0
736 70 27 1.34 8.561046870995433 4.572658301112148 14.580983519139792 0 0 0
738 70 26 -0.39 10.044171251205404 4.52191361879782 14.107063207593436 0 0 0
163 14 11 0.06 12.525229269188522 4.666831241217008 14.371694110216 0 0 0
612 53 20 -0.5 14.835159427900564 3.8499193304079062 13.696398800763795 0 0 0
611 53 9 0.52 15.686264071518456 3.785795905218804 12.814202177907026 0 0 0
613 53 19 -0.35 17.04281694860645 3.623020438375894 13.135002273615415 0 0 0
495 42 19 -0.35 1.903870657362496 7.111479157908761 14.732546737084943 0 0 0
260 22 11 0.06 3.1686806883597423 5.563392516264987 12.712303926896853 0 0 0
253 22 9 0.52 5.481972783183876 7.006888680674279 12.73083721781205 0 0 0
254 22 20 -0.5 5.778840757506184 6.2675465836736555 13.666858464536656 0 0 0
739 70 26 -0.39 8.36972273500183 5.913801883867089 13.821304562163093 0 0 0
158 14 20 -0.5 11.177666866894265 6.75221845333299 14.141928277734067 0 0 0
535 45 11 0.06 14.709100616940166 6.117992570025405 14.739569671008427 0 0 0
678 59 11 0.06 13.325325343595976 7.221915372569071 12.952819450786702 0 0 0
533 45 1 0.22 15.601718309481637 6.738836353796592 14.801300171753995 0 0 0
537 45 11 0.06 16.39618038046921 6.228724077530658 14.258673063365936 0 0 0
617 53 11 0.06 18.39357599175111 5.311514947922161 12.593281002786584 0 0 0
188 16 11 0.06 19.80653399516153 5.2520077553250735 14.694172963775888 0 0 0
493 42 9 0.52 1.5922582432942916 8.002202344187868 13.68352542488269 0 0 0
494 42 20 -0.5 1.544479325977213 9.21128976242521 13.895402385676118 0 0 0
499 42 11 0.06 3.9251511794912233 7.802761870343852 14.517249596723206 0 0 0
256 22 19 -0.35 5.90581072601742 8.359951324631131 12.711807374236232 0 0 0
258 22 1 0.22 7.2189575809697395 8.52098332498749 13.222461421316556 0 0 0
263 22 11 0.06 7.320992920905943 8.146270069386679 14.240734848873519 0 0 0
391 33 11 0.06 5.47313058718029 9.748154574890119 14.75887889908354 0 0 0
168 14 11 0.06 9.733497264725273 8.76791607654825 14.441761589760254 0 0 0
264 22 11 0.06 7.966755988734136 8.049948039657247 12.594075719317205 0 0 0
262 22 11 0.06 7.510390877288093 9.564714868019056 13.243060093391245 0 0 0
671 59 9 0.52 12.414672408875603 9.54454385592226 12.818086227473625 0 0 0
673 59 19 -0.35 13.602585547745552 8.796913664589866 12.796584009101917 0 0 0
536 45 11 0.06 15.391768487433316 7.667981008472041 14.285228271525863 0 0 0
656 57 2 0.22 19.264091188638673 8.29908464670988 12.774368907726018 0 0 0
657 57 11 0.06 19.08755770868043 9.354125344033978 13.002889251539408 0 0 0
658 57 11 0.06 19.01526344301019 7.608310979726188 13.584194595691802 0 0 0
653 57 19 -0.35 17.91720548709855 8.456032592761643 13.188546767347395 0 0 0
359 30 11 0.06 1.631158882129011 11.91444233125725 13.75321659269036 0 0 0
146 13 20 -0.5 5.716808632982567 11.28339885013789 12.614158313588833 0 0 0
156 13 11 0.06 7.370031940936575 12.458437472046626 14.075806828384973 0 0 0
46 4 11 0.06 10.421565241907835 11.900471908658252 12.640862804917331 0 0 0
672 59 20 -0.5 12.251067133086027 10.48639250933895 13.589693717891107 0 0 0
7 1 11 0.06 14.649479662424019 10.972669623376122 14.171503564058003 0 0 0
9 1 11 0.06 16.15141815773522 10.09102675357627 13.863963252591308 0 0 0
5 1 1 0.22 15.61512722235437 10.690112944558674 14.590460592516665 0 0 0
8 1 11 0.06 16.187114092819236 11.612471134636818 14.674751532285079 0 0 0
594 51 19 -0.35 19.112116569242264 11.793511383537659 13.967203608311182 0 0 0
354 30 1 0.22 1.9648213479916867 12.878419536303369 13.368164813732639 0 0 0
358 30 11 0.06 1.5001745657939685 13.659901425658777 13.968551630881503 0 0 0
360 30 11 0.06 3.0424219447712746 12.947877513087409 13.518582120741739 0 0 0
150 13 1 0.22 7.369361755412315 13.116713614728068 13.20669603965114 0 0 0
155 13 11 0.06 6.404836887402595 13.62309194719408 13.163020819823515 0 0 0
154 13 11 0.06 8.132422120993423 13.877919042784475 13.369138857355383 0 0 0
310 26 11 0.06 11.829009732207414 13.076326046245175 14.33930941610469 0 0 0
574 49 19 -0.35 13.99083724052709 14.885839224372022 14.92308011270731 0 0 0
698 61 11 0.06 15.201929232366133 13.078568329349277 12.90672830898067 0 0 0
579 49 11 0.06 15.544379989182781 14.424125518343018 14.984982599499885 0 0 0
592 51 20 -0.5 19.007025685254078 13.887490908469033 13.015056151374841 0 0 0
591 51 9 0.52 19.044808518091866 13.195990634156022 14.029435079681155 0 0 0
528 44 11 0.06 0.10873812989537839 17.350111527920195 14.444070209982856 1 0 0
572 49 20 -0.5 12.468040895697854 15.28388922885058 13.235050318952425 0 0 0
573 49 19 -0.35 14.480243809348043 16.409494822209847 13.170416739158572 0 0 0
571 49 9 0.52 13.576591711861877 15.488871519064416 13.723904357232193 0 0 0
576 49 2 0.22 15.578732755559061 16.419627224671174 14.055406382980287 0 0 0
577 49 11 0.06 16.56235469883404 16.248957035864272 13.620200780702383 0 0 0
578 49 11 0.06 15.55941310330346 17.461488423545628 14.371385314257799 0 0 0
520 44 19 -0.35 18.68065376787805 17.39374260843239 12.949141567686018 0 0 0
522 44 1 0.22 19.047463704133584 17.154297657830046 14.294720591406174 0 0 0
527 44 11 0.06 18.849247846444563 16.131458674071194 14.621444420042534 0 0 0
702 62 20 -0.5 4.366764024378497 19.822186322763944 13.30051637002218 0 -1 0
87 8 19 -0.35 6.565051472106405 18.33451905517081 12.60575053210019 0 0 0
202 17 11 0.06 15.269183162158884 19.935292787298156 14.56910529775896 0 -1 0
526 44 11 0.06 18.492527108954164 17.818177494672028 14.957785001004474 0 0 0
370 31 11 0.06 3.1875617931225673 2.2567173759297328 15.616173827528405 0 0 0
82 7 11 0.06 5.808797324659457 0.80332835102844 15.088286970090632 0 0 0
83 7 11 0.06 7.1837473361320905 1.4037715789154261 15.991620577077502 0 0 0
74 7 20 -0.5 9.560971949558596 0.5729791865886859 15.426980102350681 0 0 0
236 20 11 0.06 11.506061228365445 0.9637395467302403 17.013114738330913 0 0 0
186 16 1 0.22 15.619130279383002 2.118956867989315 17.037592769479765 0 0 0
190 16 11 0.06 15.44276321222033 1.0463954054071443 16.953493674208765 0 0 0
217 19 9 0.52 18.735250548961893 0.8518389645844786 15.895962469064939 0 0 0
218 19 20 -0.5 19.874155969465278 1.3098557128851886 15.962380055279937 0 0 0
220 19 19 -0.35 17.92313579613041 0.7571697078333206 17.04479372755355 0 0 0
372 31 11 0.06 2.7037051223867063 3.945671239688826 15.55157421702066 0 0 0
361 31 9 0.52 4.672967261989356 4.8616834790200265 16.96423586724026 0 0 0
364 31 19 -0.35 4.579686076271418 3.5855298785768874 16.363103508886542 0 0 0
366 31 1 0.22 3.2343364255491 3.2083124789990736 16.145455040144427 0 0 0
371 31 11 0.06 2.6747483901673723 3.0950227171373594 17.07087926613879 0 0 0
737 70 26 -0.39 7.075364579384408 4.636215985647313 15.048408764452429 0 0 0
740 70 26 -0.39 8.761595927635126 3.229337318709949 15.343856445009946 0 0 0
161 14 1 0.22 12.305778158109097 4.526289155020405 15.428692594270691 0 0 0
165 14 11 0.06 11.848714392089066 3.5422197809306932 15.531541723830859 0 0 0
164 14 11 0.06 13.270696718194344 4.452157327832881 15.924568258142962 0 0 0
192 16 11 0.06 14.635259066836193 2.5739723841321256 16.923118835226497 0 0 0
184 16 19 -0.35 16.51140173409063 2.5381213063104293 16.003901312138893 0 0 0
530 45 20 -0.5 15.608865461772611 4.863576115610676 16.704855019584475 0 0 0
183 16 19 -0.35 18.351354819076278 3.9089434557420084 15.244783559594522 0 0 0
181 16 9 0.52 17.601099917014203 3.401059103754964 16.33746816003354 0 0 0
182 16 20 -0.5 18.02997566595351 3.5091842440672463 17.48474130845847 0 0 0
497 42 1 0.22 3.269069731949494 7.167816198396248 15.115182884180369 0 0 0
501 42 11 0.06 3.7109545493584255 6.1796589860644024 15.072078204200423 0 0 0
362 31 20 -0.5 3.6826164059031288 5.4035009523540785 17.44748583548236 0 0 0
363 31 19 -0.35 5.965250802726958 5.402704450425023 17.152256087087796 0 0 0
365 31 1 0.22 6.007588692637803 6.808024839670437 17.02513225285306 0 0 0
369 31 11 0.06 5.818604555601395 7.139568542968907 16.0080286941367 0 0 0
368 31 11 0.06 7.00198920933003 7.166652761804388 17.281063132833285 0 0 0
742 70 26 -0.39 8.98387294798379 5.353685818329465 15.861994768765172 0 0 0
157 14 9 0.52 11.061721291952676 6.648009516513014 15.361779456399468 0 0 0
159 14 19 -0.35 11.49386301753097 5.497006578161026 16.084816063302107 0 0 0
12 1 11 0.06 13.511813098900602 6.767540032362046 16.8340511855296 0 0 0
529 45 9 0.52 16.28506448000927 5.876107574871792 16.841453228844497 0 0 0
531 45 19 -0.35 15.963309770454853 7.045071368531597 16.129510487375093 0 0 0
189 16 11 0.06 18.49427274405026 5.963728940288906 15.589540312893423 0 0 0
185 16 1 0.22 19.114788189629206 5.073271914536194 15.517200724877858 0 0 0
187 16 11 0.06 19.723245992545095 5.0026479932045715 16.418272650985198 0 0 0
396 33 11 0.06 1.4686060838643036 8.891202195286741 17.05819080761882 0 0 0
385 33 9 0.52 3.954288892346253 9.822048881912236 16.853112902137525 0 0 0
500 42 11 0.06 3.3377915215741987 7.506149564211337 16.143328976796667 0 0 0
387 33 19 -0.35 5.365225621196256 9.821585204293712 16.83540745013875 0 0 0
166 14 11 0.06 9.414510576437504 9.431090258605323 16.02653495945145 0 0 0
11 1 11 0.06 12.369783034645701 8.043386801984887 17.252593265024124 0 0 0
160 14 19 -0.35 10.201249941741704 7.527681281545312 16.06375169993772 0 0 0
162 14 1 0.22 10.107858707818954 8.805806163131265 15.464242182508578 0 0 0
167 14 11 0.06 11.071196460882115 9.312437820738161 15.454883127481748 0 0 0
6 1 1 0.22 13.349777066170983 7.624755415679353 17.481492003066645 0 0 0
1 1 9 0.52 14.468315469644674 9.16659009954114 16.08388094371053 0 0 0
2 1 20 -0.5 13.547531683320388 9.02841313789604 15.28386411083626 0 0 0
4 1 19 -0.35 14.400994504273173 8.561023009438799 17.358191752353324 0 0 0
668 58 11 0.06 17.815161366263805 8.520413842292903 16.927569168367654 0 0 0
599 51 11 0.06 0.21884298937804408 10.614000274850046 15.482773662959758 1 0 0
386 33 20 -0.5 3.3099097829774755 10.260271494416351 15.902493531323326 0 0 0
393 33 11 0.06 6.941099024504067 10.234331747036519 15.580749496622449 0 0 0
389 33 1 0.22 5.85564911397453 10.311783484063948 15.605432070013807 0 0 0
392 33 11 0.06 5.5815882973256965 11.35357993910428 15.445710355249922 0 0 0
513 43 11 0.06 8.880291104601815 12.003630369323847 17.093529640649237 0 0 0
304 26 19 -0.35 11.989796136337967 11.871014099220433 16.00935619470476 0 0 0
301 26 9 0.52 11.398349035631988 11.747218402424622 17.28241641023547 0 0 0
3 1 19 -0.35 15.578272970490016 10.023197058177711 15.842909234456572 0 0 0
745 71 26 -0.39 16.13584473452263 12.094389101747952 17.12547702526185 0 0 0
600 51 11 0.06 18.49802115699497 10.881321924635921 15.302213576659277 0 0 0
595 51 2 0.22 19.470362685901897 11.380086664686356 15.267727832444436 0 0 0
597 51 11 0.06 0.23805992857851002 12.58255796934175 17.011642590331867 1 0 0
514 43 11 0.06 2.769528761268435 12.611613556200052 17.067769753031683 0 0 0
510 43 1 0.22 3.7309485199702337 13.069081052977776 17.29286358473489 0 0 0
516 43 11 0.06 4.011497826519472 13.634410417076511 16.403746230967588 0 0 0
506 43 20 -0.5 6.316494742663877 13.677008107983186 17.3626775210773 0 0 0
306 26 1 0.22 11.509919322516428 13.038415285759717 15.380284244326974 0 0 0
311 26 11 0.06 10.420579837747573 13.07354539863704 15.402468274559896 0 0 0
312 26 11 0.06 11.885113630875704 13.933641618732308 15.875583109533782 0 0 0
749 71 26 -0.39 14.198172791169222 12.94251164000519 16.480886481147238 0 0 0
596 51 2 0.22 19.587137471637153 12.66494357700691 16.136557100287128 0 0 0
593 51 19 -0.35 19.27223188554602 13.75549190785977 15.298961585440317 0 0 0
598 51 11 0.06 18.63485999699212 13.067759379863666 16.49205497470206 0 0 0
478 40 11 0.06 4.035981156779549 16.069784070813245 17.32015627432681 0 0 0
472 40 19 -0.35 6.095919464851233 16.15933558180914 17.167606430567957 0 0 0
477 40 11 0.06 9.496115379452897 15.50667366544808 16.782764984959478 0 0 0
575 49 2 0.22 15.25196694641996 15.45025223474417 15.211737847732937 0 0 0
580 49 11 0.06 15.76693572217661 15.710795511358473 16.1388259682448 0 0 0
601 52 9 0.52 4.560852845161438 19.54117318867042 17.018944647702106 0 -1 0
602 52 20 -0.5 4.870284422207805 18.73952025511842 16.13952342974947 0 -1 0
235 20 11 0.06 10.527791151775991 19.577174905179454 17.50590199285006 0 -1 0
762 73 26 -0.39 1.0597324174888745 0.5724305954472552 19.837991444018538 0 0 -1
605 52 2 0.22 4.628041537702079 1.4153450686407139 18.243504372751673 0 0 0
606 52 2 0.22 3.3103729792218113 0.6674228063909938 18.537751331987632 0 0 0
607 52 11 0.06 2.5015143821763512 0.7045548794007587 17.80125705459387 0 0 0
609 52 11 0.06 4.550758820404243 2.446014548685435 18.58778200210026 0 0 0
610 52 11 0.06 5.490544153527261 1.0352496186708695 18.785491160333653 0 0 0
604 52 19 -0.35 5.446989499256545 0.49918056475442 17.541249236817453 0 0 0
229 20 9 0.52 9.149002913223015 1.5292254956243567 18.236572285995482 0 0 0
230 20 20 -0.5 8.299654695314024 0.6519534720100713 18.09847574375836 0 0 0
231 20 19 -0.35 10.425159047833407 1.2260929167986039 18.759395559877373 0 0 0
233 20 1 0.22 11.144571535138668 0.39793606449731533 17.872026273777966 0 0 0
191 16 11 0.06 15.930043622398777 2.2954739080905977 18.065663584510965 0 0 0
222 19 1 0.22 18.713401562448606 0.6011279566624488 18.200143937324 0 0 0
226 19 11 0.06 18.09551972356516 0.31972775114464735 19.053202008493734 0 0 0
228 19 11 0.06 19.219996766285806 1.5329977608163836 18.446326773157818 0 0 0
321 27 11 0.06 2.5871635963783475 4.169859313304068 19.325270022822828 0 0 -1
239 20 11 0.06 6.807564113912179 3.1297308145892653 17.758144187730437 0 0 0
240 20 11 0.06 7.346482015263292 2.813559434699381 19.390876604715704 0 0 0
234 20 1 0.22 7.6221401602723855 3.3012234738989634 18.45777382814099 0 0 0
238 20 11 0.06 7.662429517642499 4.367376810294867 18.666006370527576 0 0 0
232 20 19 -0.35 8.861554965620144 2.876039759984014 17.919662912219337 0 0 0
19 2 11 0.06 12.416950610493096 3.6368986168878235 18.158539478037685 0 0 0
15 2 19 -0.35 12.265651098825757 4.989667502145006 19.787038800092937 0 0 0
17 2 1 0.22 13.009172604059717 4.187572340165907 18.888580750174608 0 0 0
20 2 11 0.06 13.73437211377909 4.796764778378681 18.355803091860263 0 0 0
21 2 11 0.06 13.567656528027033 3.4373955203386157 19.44612405975306 0 0 0
540 45 11 0.06 16.410850365535378 4.584632841452103 19.056332704490575 0 0 0
319 27 11 0.06 3.4311115585721166 5.597060958935577 19.927715424948104 0 0 -1
274 23 11 0.06 6.169825504030878 6.040484586207098 19.770856034883757 0 0 -1
367 31 11 0.06 5.294523445021206 7.298984101929636 17.683501040161136 0 0 0
18 2 1 0.22 9.357239321712484 7.042764852040925 19.646544186081933 0 0 0
24 2 11 0.06 8.791477316756529 6.1722352945771135 19.975261247900043 0 0 0
23 2 11 0.06 9.124259367125726 7.2344710458430255 18.599627486443747 0 0 0
13 2 9 0.52 11.148674627779345 5.64976153465306 19.21578562264867 0 0 0
14 2 20 -0.5 10.409347966783859 5.099620205844657 18.400784525355494 0 0 0
16 2 19 -0.35 10.743497100926927 6.853616627940222 19.825596964335436 0 0 0
10 1 11 0.06 13.30636111189642 7.254839076620952 18.50556869801965 0 0 0
539 45 11 0.06 16.02178933866999 6.2777269022017625 19.361567966221138 0 0 0
532 45 19 -0.35 17.32273944387305 5.931024578481969 17.795731441948533 0 0 0
534 45 1 0.22 16.817315708561015 5.5943556638089955 19.06537426523608 0 0 0
538 45 11 0.06 17.60257134149599 5.638621272202185 19.820030525314532 0 0 0
390 33 1 0.22 1.9147536586570533 9.424834764702613 17.896951569732433 0 0 0
394 33 11 0.06 1.4331438235658938 9.074301722695335 18.80990857122044 0 0 0
388 33 19 -0.35 3.3102000253602606 9.22388714554322 17.959640562504447 0 0 0
733 67 31 1 7.072735719580503 8.941846471311376 19.03827035586687 0 0 -1
308 26 11 0.06 10.88034916546216 9.30991328852877 19.38726057085418 0 0 0
309 26 11 0.06 12.48645267700128 9.865706076128697 18.95884745623588 0 0 0
662 58 20 -0.5 15.358159227455577 9.60325516819658 19.416657328642337 0 0 0
661 58 9 0.52 16.37814804710797 9.54626491285361 18.732957307427814 0 0 0
663 58 19 -0.35 16.79231991172266 8.351583441037864 18.120683653193662 0 0 0
665 58 2 0.22 18.565220065756296 9.890218280530128 18.459340577198297 0 0 0
666 58 2 0.22 18.18876840251234 8.486076705216297 17.9511625940622 0 0 0
667 58 11 0.06 19.053486648336794 7.821002842550483 17.93475640454159 0 0 0
669 58 11 0.06 19.123137076341987 9.846401196659356 19.39571892925986 0 0 0
395 33 11 0.06 1.6791021488812385 10.480227938957123 17.783892676454858 0 0 0
735 69 31 1 2.3031179640091035 12.133583829709893 19.55139564841478 0 0 -1
508 43 19 -0.35 4.669512296495034 12.077312704003564 17.657772929911438 0 0 0
406 34 11 0.06 5.535304206897881 10.816598142147036 19.64149276430986 0 0 -1
507 43 19 -0.35 6.999107957398865 11.496202631199447 17.73444745023432 0 0 0
512 43 11 0.06 8.795791222890688 11.208343968721728 18.663900318780907 0 0 0
509 43 1 0.22 8.309300592366844 11.93930716642879 18.019048659276216 0 0 0
307 26 11 0.06 11.312548498846596 10.974494061677776 19.682809231309605 0 0 0
305 26 1 0.22 11.436438217747298 10.15024224371682 18.981854850312896 0 0 0
303 26 19 -0.35 10.971696406151208 10.46386416113681 17.686651036870437 0 0 0
746 71 26 -0.39 14.24164017705222 11.088395317491134 17.665948318140007 0 0 0
664 58 19 -0.35 17.364686338203033 10.54231271314619 18.802026479782036 0 0 0
748 71 26 -0.39 15.44451976524328 12.091138991579967 19.201024747508118 0 0 0
670 58 11 0.06 19.18062415339712 10.44152955173234 17.750101308726496 0 0 0
515 43 11 0.06 3.5629931554103065 13.751299967285071 18.12220161714138 0 0 0
505 43 9 0.52 6.0181092137535614 12.510960896472024 17.61659920438007 0 0 0
511 43 11 0.06 8.374432712989247 12.894044414433083 18.539254325330802 0 0 0
302 26 20 -0.5 11.11172365522251 12.748481395079036 17.935720286125648 0 0 0
743 71 27 1.34 14.82238493701728 12.52337235179552 17.845103748232624 0 0 0
744 71 26 -0.39 13.517513048513765 12.957614218344517 18.57832214728014 0 0 0
747 71 26 -0.39 15.400725901234285 13.960457216776309 18.02747937960843 0 0 0
479 40 11 0.06 4.928862593067668 15.7242844134449 18.81902998663512 0 0 0
480 40 11 0.06 4.783930061970853 17.362460802357592 18.223207080220117 0 0 0
474 40 1 0.22 4.911352846396207 16.3303481513543 17.913599302184213 0 0 0
469 40 9 0.52 7.210985006879757 16.42708709751618 17.987719155202598 0 0 0
471 40 19 -0.35 8.089277031878353 15.365595019579388 18.295943721715897 0 0 0
473 40 1 0.22 9.40109164750366 15.657276982952634 17.858164017251653 0 0 0
475 40 11 0.06 9.694259932211182 16.6833792474859 18.082302154018443 0 0 0
476 40 11 0.06 10.119666786243991 15.004521837821647 18.35177838901743 0 0 0
603 52 19 -0.35 3.2823814692184046 19.57619111840151 17.621330367068932 0 -1 0
608 52 11 0.06 3.334554697499165 19.778079439568934 19.175004451573294 0 -1 0
470 40 20 -0.5 7.380178967411685 17.54414475613827 18.469859121767147 0 0 0
31 3 11 0.06 5.832135177246473 18.846292453256417 19.937610499238605 0 0 -1
237 20 11 0.06 12.00959457923328 19.963317643133458 18.37301255701324 0 -1 0
227 19 11 0.06 19.46716885956026 19.82685122965162 18.058959917398255 0 -1 0

Velocities

757 0 0 0
760 0 0 0
758 0 0 0
419 0 0 0
414 0 0 0
418 0 0 0
712 0 0 0
711 0 0 0
759 0 0 0
761 0 0 0
315 0 0 0
317 0 0 0
320 0 0 0
420 0 0 0
714 0 0 0
732 0 0 0
719 0 0 0
720 0 0 0
715 0 0 0
170 0 0 0
180 0 0 0
174 0 0 0
178 0 0 0
313 0 0 0
314 0 0 0
316 0 0 0
265 0 0 0
266 0 0 0
268 0 0 0
270 0 0 0
275 0 0 0
276 0 0 0
169 0 0 0
171 0 0 0
172 0 0 0
318 0 0 0
324 0 0 0
731 0 0 0
399 0 0 0
405 0 0 0
22 0 0 0
69 0 0 0
65 0 0 0
67 0 0 0
68 0 0 0
63 0 0 0
107 0 0 0
407 0 0 0
397 0 0 0
400 0 0 0
402 0 0 0
408 0 0 0
398 0 0 0
344 0 0 0
341 0 0 0
343 0 0 0
345 0 0 0
61 0 0 0
62 0 0 0
64 0 0 0
106 0 0 0
102 0 0 0
100 0 0 0
104 0 0 0
99 0 0 0
247 0 0 0
243 0 0 0
245 0 0 0
248 0 0 0
337 0 0 0
339 0 0 0
72 0 0 0
71 0 0 0
66 0 0 0
70 0 0 0
766 0 0 0
767 0 0 0
32 0 0 0
241 0 0 0
340 0 0 0
244 0 0 0
769 0 0 0
33 0 0 0
27 0 0 0
29 0 0 0
25 0 0 0
26 0 0 0
36 0 0 0
35 0 0 0
251 0 0 0
246 0 0 0
250 0 0 0
734 0 0 0
763 0 0 0
409 0 0 0
410 0 0 0
411 0 0 0
412 0 0 0
483 0 0 0
485 0 0 0
489 0 0 0
488 0 0 0
487 0 0 0
713 0 0 0
716 0 0 0
718 0 0 0
587 0 0 0
272 0 0 0
481 0 0 0
484 0 0 0
482 0 0 0
717 0 0 0
179 0 0 0
271 0 0 0
267 0 0 0
269 0 0 0
273 0 0 0
486 0 0 0
490 0 0 0
492 0 0 0
383 0 0 0
173 0 0 0
175 0 0 0
176 0 0 0
177 0 0 0
323 0 0 0
114 0 0 0
120 0 0 0
119 0 0 0
118 0 0 0
112 0 0 0
401 0 0 0
403 0 0 0
404 0 0 0
689 0 0 0
690 0 0 0
685 0 0 0
686 0 0 0
687 0 0 0
688 0 0 0
638 0 0 0
322 0 0 0
635 0 0 0
98 0 0 0
684 0 0 0
681 0 0 0
683 0 0 0
682 0 0 0
637 0 0 0
636 0 0 0
633 0 0 0
631 0 0 0
634 0 0 0
632 0 0 0
108 0 0 0
427 0 0 0
97 0 0 0
117 0 0 0
101 0 0 0
103 0 0 0
105 0 0 0
249 0 0 0
284 0 0 0
338 0 0 0
425 0 0 0
429 0 0 0
768 0 0 0
764 0 0 0
770 0 0 0
765 0 0 0
729 0 0 0
725 0 0 0
726 0 0 0
727 0 0 0
242 0 0 0
283 0 0 0
342 0 0 0
346 0 0 0
347 0 0 0
348 0 0 0
583 0 0 0
581 0 0 0
582 0 0 0
28 0 0 0
30 0 0 0
34 0 0 0
252 0 0 0
588 0 0 0
586 0 0 0
416 0 0 0
413 0 0 0
417 0 0 0
624 0 0 0
621 0 0 0
622 0 0 0
379 0 0 0
377 0 0 0
381 0 0 0
380 0 0 0
333 0 0 0
589 0 0 0
642 0 0 0
415 0 0 0
630 0 0 0
374 0 0 0
373 0 0 0
375 0 0 0
327 0 0 0
325 0 0 0
328 0 0 0
329 0 0 0
332 0 0 0
331 0 0 0
463 0 0 0
458 0 0 0
468 0 0 0
491 0 0 0
378 0 0 0
384 0 0 0
376 0 0 0
382 0 0 0
336 0 0 0
326 0 0 0
461 0 0 0
464 0 0 0
465 0 0 0
561 0 0 0
563 0 0 0
565 0 0 0
568 0 0 0
566 0 0 0
136 0 0 0
133 0 0 0
137 0 0 0
139 0 0 0
141 0 0 0
640 0 0 0
639 0 0 0
110 0 0 0
109 0 0 0
111 0 0 0
564 0 0 0
570 0 0 0
138 0 0 0
142 0 0 0
144 0 0 0
134 0 0 0
59 0 0 0
113 0 0 0
115 0 0 0
116 0 0 0
438 0 0 0
442 0 0 0
443 0 0 0
285 0 0 0
752 0 0 0
753 0 0 0
750 0 0 0
756 0 0 0
428 0 0 0
754 0 0 0
421 0 0 0
422 0 0 0
50 0 0 0
730 0 0 0
728 0 0 0
723 0 0 0
277 0 0 0
278 0 0 0
281 0 0 0
279 0 0 0
452 0 0 0
751 0 0 0
423 0 0 0
584 0 0 0
55 0 0 0
724 0 0 0
721 0 0 0
722 0 0 0
287 0 0 0
282 0 0 0
280 0 0 0
449 0 0 0
453 0 0 0
585 0 0 0
590 0 0 0
292 0 0 0
294 0 0 0
298 0 0 0
299 0 0 0
300 0 0 0
708 0 0 0
707 0 0 0
125 0 0 0
123 0 0 0
201 0 0 0
197 0 0 0
641 0 0 0
643 0 0 0
646 0 0 0
467 0 0 0
466 0 0 0
629 0 0 0
626 0 0 0
625 0 0 0
627 0 0 0
623 0 0 0
628 0 0 0
199 0 0 0
200 0 0 0
647 0 0 0
644 0 0 0
649 0 0 0
645 0 0 0
650 0 0 0
457 0 0 0
460 0 0 0
462 0 0 0
558 0 0 0
560 0 0 0
554 0 0 0
555 0 0 0
556 0 0 0
131 0 0 0
334 0 0 0
330 0 0 0
335 0 0 0
459 0 0 0
562 0 0 0
153 0 0 0
551 0 0 0
567 0 0 0
552 0 0 0
135 0 0 0
140 0 0 0
216 0 0 0
356 0 0 0
353 0 0 0
355 0 0 0
357 0 0 0
152 0 0 0
569 0 0 0
143 0 0 0
213 0 0 0
207 0 0 0
205 0 0 0
208 0 0 0
210 0 0 0
214 0 0 0
215 0 0 0
54 0 0 0
58 0 0 0
60 0 0 0
435 0 0 0
436 0 0 0
433 0 0 0
434 0 0 0
444 0 0 0
544 0 0 0
542 0 0 0
38 0 0 0
692 0 0 0
691 0 0 0
755 0 0 0
694 0 0 0
431 0 0 0
52 0 0 0
49 0 0 0
57 0 0 0
548 0 0 0
541 0 0 0
543 0 0 0
43 0 0 0
41 0 0 0
44 0 0 0
45 0 0 0
451 0 0 0
524 0 0 0
424 0 0 0
523 0 0 0
525 0 0 0
426 0 0 0
432 0 0 0
51 0 0 0
53 0 0 0
56 0 0 0
128 0 0 0
286 0 0 0
288 0 0 0
445 0 0 0
448 0 0 0
446 0 0 0
447 0 0 0
430 0 0 0
289 0 0 0
290 0 0 0
291 0 0 0
701 0 0 0
705 0 0 0
706 0 0 0
709 0 0 0
704 0 0 0
127 0 0 0
81 0 0 0
129 0 0 0
193 0 0 0
194 0 0 0
195 0 0 0
648 0 0 0
259 0 0 0
710 0 0 0
122 0 0 0
121 0 0 0
124 0 0 0
126 0 0 0
132 0 0 0
130 0 0 0
614 0 0 0
616 0 0 0
618 0 0 0
496 0 0 0
255 0 0 0
257 0 0 0
261 0 0 0
557 0 0 0
559 0 0 0
680 0 0 0
677 0 0 0
620 0 0 0
619 0 0 0
615 0 0 0
660 0 0 0
498 0 0 0
502 0 0 0
503 0 0 0
504 0 0 0
553 0 0 0
675 0 0 0
674 0 0 0
679 0 0 0
676 0 0 0
211 0 0 0
206 0 0 0
651 0 0 0
652 0 0 0
654 0 0 0
655 0 0 0
659 0 0 0
351 0 0 0
349 0 0 0
151 0 0 0
350 0 0 0
149 0 0 0
145 0 0 0
147 0 0 0
148 0 0 0
47 0 0 0
42 0 0 0
48 0 0 0
209 0 0 0
212 0 0 0
700 0 0 0
352 0 0 0
437 0 0 0
440 0 0 0
441 0 0 0
439 0 0 0
37 0 0 0
40 0 0 0
693 0 0 0
696 0 0 0
699 0 0 0
695 0 0 0
697 0 0 0
94 0 0 0
518 0 0 0
95 0 0 0
90 0 0 0
96 0 0 0
86 0 0 0
85 0 0 0
545 0 0 0
549 0 0 0
550 0 0 0
546 0 0 0
547 0 0 0
39 0 0 0
521 0 0 0
517 0 0 0
519 0 0 0
88 0 0 0
703 0 0 0
92 0 0 0
89 0 0 0
91 0 0 0
93 0 0 0
450 0 0 0
454 0 0 0
455 0 0 0
456 0 0 0
293 0 0 0
295 0 0 0
84 0 0 0
78 0 0 0
76 0 0 0
73 0 0 0
75 0 0 0
77 0 0 0
79 0 0 0
80 0 0 0
198 0 0 0
203 0 0 0
204 0 0 0
196 0 0 0
223 0 0 0
219 0 0 0
221 0 0 0
224 0 0 0
225 0 0 0
297 0 0 0
296 0 0 0
741 0 0 0
736 0 0 0
738 0 0 0
163 0 0 0
612 0 0 0
611 0 0 0
613 0 0 0
495 0 0 0
260 0 0 0
253 0 0 0
254 0 0 0
739 0 0 0
158 0 0 0
535 0 0 0
678 0 0 0
533 0 0 0
537 0 0 0
617 0 0 0
188 0 0 0
493 0 0 0
494 0 0 0
499 0 0 0
256 0 0 0
258 0 0 0
263 0 0 0
391 0 0 0
168 0 0 0
264 0 0 0
262 0 0 0
671 0 0 0
673 0 0 0
536 0 0 0
656 0 0 0
657 0 0 0
658 0 0 0
653 0 0 0
359 0 0 0
146 0 0 0
156 0 0 0
46 0 0 0
672 0 0 0
7 0 0 0
9 0 0 0
5 0 0 0
8 0 0 0
594 0 0 0
354 0 0 0
358 0 0 0
360 0 0 0
150 0 0 0
155 0 0 0
154 0 0 0
310 0 0 0
574 0 0 0
698 0 0 0
579 0 0 0
592 0 0 0
591 0 0 0
528 0 0 0
572 0 0 0
573 0 0 0
571 0 0 0
576 0 0 0
577 0 0 0
578 0 0 0
520 0 0 0
522 0 0 0
527 0 0 0
702 0 0 0
87 0 0 0
202 0 0 0
526 0 0 0
370 0 0 0
82 0 0 0
83 0 0 0
74 0 0 0
236 0 0 0
186 0 0 0
190 0 0 0
217 0 0 0
218 0 0 0
220 0 0 0
372 0 0 0
361 0 0 0
364 0 0 0
366 0 0 0
371 0 0 0
737 0 0 0
740 0 0 0
161 0 0 0
165 0 0 0
164 0 0 0
192 0 0 0
184 0 0 0
530 0 0 0
183 0 0 0
181 0 0 0
182 0 0 0
497 0 0 0
501 0 0 0
362 0 0 0
363 0 0 0
365 0 0 0
369 0 0 0
368 0 0 0
742 0 0 0
157 0 0 0
159 0 0 0
12 0 0 0
529 0 0 0
531 0 0 0
189 0 0 0
185 0 0 0
187 0 0 0
396 0 0 0
385 0 0 0
500 0 0 0
387 0 0 0
166 0 0 0
11 0 0 0
160 0 0 0
162 0 0 0
167 0 0 0
6 0 0 0
1 0 0 0
2 0 0 0
4 0 0 0
668 0 0 0
599 0 0 0
386 0 0 0
393 0 0 0
389 0 0 0
392 0 0 0
513 0 0 0
304 0 0 0
301 0 0 0
3 0 0 0
745 0 0 0
600 0 0 0
595 0 0 0
597 0 0 0
514 0 0 0
510 0 0 0
516 0 0 0
506 0 0 0
306 0 0 0
311 0 0 0
312 0 0 0
749 0 0 0
596 0 0 0
593 0 0 0
598 0 0 0
478 0 0 0
472 0 0 0
477 0 0 0
575 0 0 0
580 0 0 0
601 0 0 0
602 0 0 0
235 0 0 0
762 0 0 0
605 0 0 0
606 0 0 0
607 0 0 0
609 0 0 0
610 0 0 0
604 0 0 0
229 0 0 0
230 0 0 0
231 0 0 0
233 0 0 0
191 0 0 0
222 0 0 0
226 0 0 0
228 0 0 0
321 0 0 0
239 0 0 0
240 0 0 0
234 0 0 0
238 0 0 0
232 0 0 0
19 0 0 0
15 0 0 0
17 0 0 0
20 0 0 0
21 0 0 0
540 0 0 0
319 0 0 0
274 0 0 0
367 0 0 0
18 0 0 0
24 0 0 0
23 0 0 0
13 0 0 0
14 0 0 0
16 0 0 0
10 0 0 0
539 0 0 0
532 0 0 0
534 0 0 0
538 0 0 0
390 0 0 0
394 0 0 0
388 0 0 0
733 0 0 0
308 0 0 0
309 0 0 0
662 0 0 0
661 0 0 0
663 0 0 0
665 0 0 0
666 0 0 0
667 0 0 0
669 0 0 0
395 0 0 0
735 0 0 0
508 0 0 0
406 0 0 0
507 0 0 0
512 0 0 0
509 0 0 0
307 0 0 0
305 0 0 0
303 0 0 0
746 0 0 0
664 0 0 0
748 0 0 0
670 0 0 0
515 0 0 0
505 0 0 0
511 0 0 0
302 0 0 0
743 0 0 0
744 0 0 0
747 0 0 0
479 0 0 0
480 0 0 0
474 0 0 0
469 0 0 0
471 0 0 0
473 0 0 0
475 0 0 0
476 0 0 0
603 0 0 0
608 0 0 0
470 0 0 0
31 0 0 0
237 0 0 0
227 0 0 0

Bonds

1 15 757 758
2 15 757 759
3 15 757 760
4 15 757 761
5 15 757 762
6 15 757 763
7 4 414 418
8 4 414 419
9 4 414 420
10 8 711 712
11 7 711 713
12 7 711 714
13 7 315 317
14 4 317 319
15 4 317 320
16 4 317 321
17 7 714 715
18 1 715 716
19 4 715 719
20 4 715 720
21 4 174 178
22 4 174 179
23 4 174 180
24 8 313 314
25 7 313 315
26 7 313 316
27 7 316 318
28 8 265 266
29 7 265 267
30 7 265 268
31 7 268 270
32 4 270 274
33 4 270 275
34 4 270 276
35 8 169 170
36 7 169 171
37 7 169 172
38 7 171 173
39 7 172 174
40 4 318 322
41 4 318 323
42 4 318 324
43 7 399 401
44 4 65 67
45 4 65 68
46 4 65 69
47 7 63 65
48 8 397 398
49 7 397 399
50 7 397 400
51 7 400 402
52 4 402 406
53 4 402 407
54 4 402 408
55 4 341 343
56 4 341 344
57 4 341 345
58 8 61 62
59 7 61 63
60 7 61 64
61 7 64 66
62 4 102 106
63 4 102 107
64 4 102 108
65 7 100 102
66 7 99 101
67 7 243 245
68 4 245 247
69 4 245 248
70 4 245 249
71 8 337 338
72 7 337 339
73 7 337 340
74 7 339 341
75 4 66 70
76 4 66 71
77 4 66 72
78 8 241 242
79 7 241 243
80 7 241 244
81 7 340 342
82 7 244 246
83 7 27 29
84 4 29 31
85 4 29 32
86 4 29 33
87 8 25 26
88 7 25 27
89 7 25 28
90 4 246 250
91 4 246 251
92 4 246 252
93 8 409 410
94 7 409 411
95 7 409 412
96 7 411 413
97 7 412 414
98 7 483 485
99 4 485 487
100 4 485 488
101 4 485 489
102 7 713 716
103 4 716 717
104 4 716 718
105 8 481 482
106 7 481 483
107 7 481 484
108 7 484 486
109 7 267 269
110 4 269 271
111 4 269 272
112 4 269 273
113 4 486 490
114 4 486 491
115 4 486 492
116 4 173 175
117 4 173 176
118 4 173 177
119 4 114 118
120 4 114 119
121 4 114 120
122 7 112 114
123 4 401 403
124 4 401 404
125 4 401 405
126 1 685 686
127 4 685 689
128 4 685 690
129 4 686 687
130 4 686 688
131 1 635 636
132 4 635 639
133 4 635 640
134 7 684 685
135 8 681 682
136 7 681 683
137 7 681 684
138 7 683 686
139 4 636 637
140 4 636 638
141 7 633 636
142 8 631 632
143 7 631 633
144 7 631 634
145 7 634 635
146 8 97 98
147 7 97 99
148 7 97 100
149 4 101 103
150 4 101 104
151 4 101 105
152 4 425 427
153 4 425 428
154 4 425 429
155 15 764 765
156 15 764 766
157 15 764 767
158 15 764 768
159 15 764 769
160 15 764 770
161 1 725 726
162 4 725 729
163 4 725 730
164 4 726 727
165 4 726 728
166 4 342 346
167 4 342 347
168 4 342 348
169 7 583 586
170 8 581 582
171 7 581 583
172 7 581 584
173 7 28 30
174 4 30 34
175 4 30 35
176 4 30 36
177 4 586 587
178 4 586 588
179 4 413 415
180 4 413 416
181 4 413 417
182 7 624 625
183 8 621 622
184 7 621 623
185 7 621 624
186 4 377 379
187 4 377 380
188 4 377 381
189 8 373 374
190 7 373 375
191 7 373 376
192 7 375 377
193 7 327 329
194 8 325 326
195 7 325 327
196 7 325 328
197 7 328 330
198 4 329 331
199 4 329 332
200 4 329 333
201 4 378 382
202 4 378 383
203 4 378 384
204 7 376 378
205 4 461 463
206 4 461 464
207 4 461 465
208 8 561 562
209 7 561 563
210 7 561 564
211 7 563 566
212 1 565 566
213 4 565 569
214 4 565 570
215 4 566 567
216 4 566 568
217 7 136 138
218 8 133 134
219 7 133 135
220 7 133 136
221 4 137 139
222 4 137 140
223 4 137 141
224 8 109 110
225 7 109 111
226 7 109 112
227 7 111 113
228 7 564 565
229 4 138 142
230 4 138 143
231 4 138 144
232 4 113 115
233 4 113 116
234 4 113 117
235 4 438 442
236 4 438 443
237 4 438 444
238 15 750 751
239 15 750 752
240 15 750 753
241 15 750 754
242 15 750 755
243 15 750 756
244 8 421 422
245 7 421 423
246 7 421 424
247 7 723 726
248 8 277 278
249 7 277 279
250 7 277 280
251 4 281 283
252 4 281 284
253 4 281 285
254 7 279 281
255 7 423 425
256 7 584 585
257 7 724 725
258 8 721 722
259 7 721 723
260 7 721 724
261 4 282 286
262 4 282 287
263 4 282 288
264 7 280 282
265 4 449 451
266 4 449 452
267 4 449 453
268 1 585 586
269 4 585 589
270 4 585 590
271 7 292 294
272 4 294 298
273 4 294 299
274 4 294 300
275 4 125 127
276 4 125 128
277 4 125 129
278 7 123 125
279 4 197 199
280 4 197 200
281 4 197 201
282 8 641 642
283 7 641 643
284 7 641 644
285 7 643 646
286 4 646 647
287 4 646 648
288 4 626 627
289 4 626 628
290 1 625 626
291 4 625 629
292 4 625 630
293 7 623 626
294 7 644 645
295 1 645 646
296 4 645 649
297 4 645 650
298 8 457 458
299 7 457 459
300 7 457 460
301 7 460 462
302 4 462 466
303 4 462 467
304 4 462 468
305 7 554 555
306 1 555 556
307 4 555 559
308 4 555 560
309 4 556 557
310 4 556 558
311 4 330 334
312 4 330 335
313 4 330 336
314 7 459 461
315 8 551 552
316 7 551 553
317 7 551 554
318 7 135 137
319 4 353 355
320 4 353 356
321 4 353 357
322 7 207 209
323 8 205 206
324 7 205 207
325 7 205 208
326 7 208 210
327 4 210 214
328 4 210 215
329 4 210 216
330 4 54 58
331 4 54 59
332 4 54 60
333 7 435 437
334 7 436 438
335 8 433 434
336 7 433 435
337 7 433 436
338 7 544 545
339 8 691 692
340 7 691 693
341 7 691 694
342 7 694 695
343 7 52 54
344 8 49 50
345 7 49 51
346 7 49 52
347 8 541 542
348 7 541 543
349 7 541 544
350 7 543 546
351 4 41 43
352 4 41 44
353 4 41 45
354 7 424 426
355 4 426 430
356 4 426 431
357 4 426 432
358 7 51 53
359 4 53 55
360 4 53 56
361 4 53 57
362 8 445 446
363 7 445 447
364 7 445 448
365 7 448 450
366 7 447 449
367 8 289 290
368 7 289 291
369 7 289 292
370 7 291 293
371 8 701 702
372 7 701 703
373 7 701 704
374 1 705 706
375 4 705 709
376 4 705 710
377 4 706 707
378 4 706 708
379 7 704 705
380 8 193 194
381 7 193 195
382 7 193 196
383 7 195 197
384 8 121 122
385 7 121 123
386 7 121 124
387 7 124 126
388 4 126 130
389 4 126 131
390 4 126 132
391 7 614 615
392 4 616 617
393 4 616 618
394 7 496 498
395 7 255 257
396 4 257 259
397 4 257 260
398 4 257 261
399 1 615 616
400 4 615 619
401 4 615 620
402 4 498 502
403 4 498 503
404 4 498 504
405 7 553 556
406 1 675 676
407 4 675 679
408 4 675 680
409 7 674 675
410 4 676 677
411 4 676 678
412 8 651 652
413 7 651 653
414 7 651 654
415 7 654 655
416 1 655 656
417 4 655 659
418 4 655 660
419 7 351 353
420 8 349 350
421 7 349 351
422 7 349 352
423 4 149 151
424 4 149 152
425 4 149 153
426 8 145 146
427 7 145 147
428 7 145 148
429 7 147 149
430 7 148 150
431 4 42 46
432 4 42 47
433 4 42 48
434 4 209 211
435 4 209 212
436 4 209 213
437 7 352 354
438 4 437 439
439 4 437 440
440 4 437 441
441 8 37 38
442 7 37 39
443 7 37 40
444 7 40 42
445 7 693 696
446 4 696 697
447 4 696 698
448 1 695 696
449 4 695 699
450 4 695 700
451 4 90 94
452 4 90 95
453 4 90 96
454 8 85 86
455 7 85 87
456 7 85 88
457 1 545 546
458 4 545 549
459 4 545 550
460 4 546 547
461 4 546 548
462 7 39 41
463 4 521 523
464 4 521 524
465 4 521 525
466 8 517 518
467 7 517 519
468 7 517 520
469 7 519 521
470 7 88 90
471 7 703 706
472 4 89 91
473 4 89 92
474 4 89 93
475 4 450 454
476 4 450 455
477 4 450 456
478 4 293 295
479 4 293 296
480 4 293 297
481 4 78 82
482 4 78 83
483 4 78 84
484 7 76 78
485 8 73 74
486 7 73 75
487 7 73 76
488 7 75 77
489 4 77 79
490 4 77 80
491 4 77 81
492 4 198 202
493 4 198 203
494 4 198 204
495 7 196 198
496 7 219 221
497 4 221 223
498 4 221 224
499 4 221 225
500 15 736 737
501 15 736 738
502 15 736 739
503 15 736 740
504 15 736 741
505 15 736 742
506 8 611 612
507 7 611 613
508 7 611 614
509 7 613 616
510 7 495 497
511 8 253 254
512 7 253 255
513 7 253 256
514 4 533 535
515 4 533 536
516 4 533 537
517 8 493 494
518 7 493 495
519 7 493 496
520 7 256 258
521 4 258 262
522 4 258 263
523 4 258 264
524 8 671 672
525 7 671 673
526 7 671 674
527 7 673 676
528 4 656 657
529 4 656 658
530 7 653 656
531 4 5 7
532 4 5 8
533 4 5 9
534 7 594 595
535 4 354 358
536 4 354 359
537 4 354 360
538 4 150 154
539 4 150 155
540 4 150 156
541 7 574 575
542 8 591 592
543 7 591 593
544 7 591 594
545 7 573 576
546 8 571 572
547 7 571 573
548 7 571 574
549 4 576 577
550 4 576 578
551 7 520 522
552 4 522 526
553 4 522 527
554 4 522 528
555 7 87 89
556 4 186 190
557 4 186 191
558 4 186 192
559 8 217 218
560 7 217 219
561 7 217 220
562 7 220 222
563 8 361 362
564 7 361 363
565 7 361 364
566 7 364 366
567 4 366 370
568 4 366 371
569 4 366 372
570 4 161 163
571 4 161 164
572 4 161 165
573 7 184 186
574 7 183 185
575 8 181 182
576 7 181 183
577 7 181 184
578 4 497 499
579 4 497 500
580 4 497 501
581 7 363 365
582 4 365 367
583 4 365 368
584 4 365 369
585 8 157 158
586 7 157 159
587 7 157 160
588 7 159 161
589 8 529 530
590 7 529 531
591 7 529 532
592 7 531 533
593 4 185 187
594 4 185 188
595 4 185 189
596 8 385 386
597 7 385 387
598 7 385 388
599 7 387 389
600 7 160 162
601 4 162 166
602 4 162 167
603 4 162 168
604 4 6 10
605 4 6 11
606 4 6 12
607 8 1 2
608 7 1 3
609 7 1 4
610 7 4 6
611 4 389 391
612 4 389 392
613 4 389 393
614 7 304 306
615 8 301 302
616 7 301 303
617 7 301 304
618 7 3 5
619 1 595 596
620 4 595 599
621 4 595 600
622 4 510 514
623 4 510 515
624 4 510 516
625 4 306 310
626 4 306 311
627 4 306 312
628 4 596 597
629 4 596 598
630 7 593 596
631 7 472 474
632 1 575 576
633 4 575 579
634 4 575 580
635 8 601 602
636 7 601 603
637 7 601 604
638 1 605 606
639 4 605 609
640 4 605 610
641 4 606 607
642 4 606 608
643 7 604 605
644 8 229 230
645 7 229 231
646 7 229 232
647 7 231 233
648 4 233 235
649 4 233 236
650 4 233 237
651 4 222 226
652 4 222 227
653 4 222 228
654 4 234 238
655 4 234 239
656 4 234 240
657 7 232 234
658 7 15 17
659 4 17 19
660 4 17 20
661 4 17 21
662 4 18 22
663 4 18 23
664 4 18 24
665 8 13 14
666 7 13 15
667 7 13 16
668 7 16 18
669 7 532 534
670 4 534 538
671 4 534 539
672 4 534 540
673 4 390 394
674 4 390 395
675 4 390 396
676 7 388 390
677 8 661 662
678 7 661 663
679 7 661 664
680 7 663 666
681 1 665 666
682 4 665 669
683 4 665 670
684 4 666 667
685 4 666 668
686 7 508 510
687 7 507 509
688 4 509 511
689 4 509 512
690 4 509 513
691 4 305 307
692 4 305 308
693 4 305 309
694 7 303 305
695 7 664 665
696 8 505 506
697 7 505 507
698 7 505 508
699 15 743 744
700 15 743 745
701 15 743 746
702 15 743 747
703 15 743 748
704 15 743 749
705 4 474 478
706 4 474 479
707 4 474 480
708 8 469 470
709 7 469 471
710 7 469 472
711 7 471 473
712 4 473 475
713 4 473 476
714 4 473 477
715 7 603 606

Angles

1 18 758 757 759
2 18 760 757 761
3 18 762 757 763
4 17 758 757 760
5 17 758 757 761
6 17 758 757 762
7 17 758 757 763
8 17 759 757 760
9 17 759 757 761
10 17 759 757 762
11 17 759 757 763
12 17 760 757 762
13 17 760 757 763
14 17 761 757 762
15 17 761 757 763
16 4 412 414 418
17 4 412 414 419
18 4 412 414 420
19 7 418 414 419
20 7 418 414 420
21 7 419 414 420
22 11 712 711 713
23 11 712 711 714
24 12 713 711 714
25 9 313 315 317
26 4 315 317 319
27 4 315 317 320
28 4 315 317 321
29 7 319 317 320
30 7 319 317 321
31 7 320 317 321
32 9 711 714 715
33 13 714 715 716
34 4 716 715 719
35 4 716 715 720
36 6 719 715 720
37 4 172 174 178
38 4 172 174 179
39 4 172 174 180
40 7 178 174 179
41 7 178 174 180
42 7 179 174 180
43 11 314 313 315
44 11 314 313 316
45 12 315 313 316
46 9 313 316 318
47 11 266 265 267
48 11 266 265 268
49 12 267 265 268
50 9 265 268 270
51 4 268 270 274
52 4 268 270 275
53 4 268 270 276
54 7 274 270 275
55 7 274 270 276
56 7 275 270 276
57 11 170 169 171
58 11 170 169 172
59 12 171 169 172
60 9 169 171 173
61 9 169 172 174
62 4 316 318 322
63 4 316 318 323
64 4 316 318 324
65 7 322 318 323
66 7 322 318 324
67 7 323 318 324
68 9 397 399 401
69 4 63 65 67
70 4 63 65 68
71 4 63 65 69
72 7 67 65 68
73 7 67 65 69
74 7 68 65 69
75 9 61 63 65
76 11 398 397 399
77 11 398 397 400
78 12 399 397 400
79 9 397 400 402
80 4 400 402 406
81 4 400 402 407
82 4 400 402 408
83 7 406 402 407
84 7 406 402 408
85 7 407 402 408
86 4 339 341 343
87 4 339 341 344
88 4 339 341 345
89 7 343 341 344
90 7 343 341 345
91 7 344 341 345
92 11 62 61 63
93 11 62 61 64
94 12 63 61 64
95 9 61 64 66
96 4 100 102 106
97 4 100 102 107
98 4 100 102 108
99 7 106 102 107
100 7 106 102 108
101 7 107 102 108
102 9 97 100 102
103 9 97 99 101
104 9 241 243 245
105 4 243 245 247
106 4 243 245 248
107 4 243 245 249
108 7 247 245 248
109 7 247 245 249
110 7 248 245 249
111 11 338 337 339
112 11 338 337 340
113 12 339 337 340
114 9 337 339 341
115 4 64 66 70
116 4 64 66 71
117 4 64 66 72
118 7 70 66 71
119 7 70 66 72
120 7 71 66 72
121 11 242 241 243
122 11 242 241 244
123 12 243 241 244
124 9 337 340 342
125 9 241 244 246
126 9 25 27 29
127 4 27 29 31
128 4 27 29 32
129 4 27 29 33
130 7 31 29 32
131 7 31 29 33
132 7 32 29 33
133 11 26 25 27
134 11 26 25 28
135 12 27 25 28
136 4 244 246 250
137 4 244 246 251
138 4 244 246 252
139 7 250 246 251
140 7 250 246 252
141 7 251 246 252
142 11 410 409 411
143 11 410 409 412
144 12 411 409 412
145 9 409 411 413
146 9 409 412 414
147 9 481 483 485
148 4 483 485 487
149 4 483 485 488
150 4 483 485 489
151 7 487 485 488
152 7 487 485 489
153 7 488 485 489
154 9 711 713 716
155 13 713 716 715
156 4 715 716 717
157 4 715 716 718
158 6 717 716 718
159 11 482 481 483
160 11 482 481 484
161 12 483 481 484
162 9 481 484 486
163 9 265 267 269
164 4 267 269 271
165 4 267 269 272
166 4 267 269 273
167 7 271 269 272
168 7 271 269 273
169 7 272 269 273
170 4 484 486 490
171 4 484 486 491
172 4 484 486 492
173 7 490 486 491
174 7 490 486 492
175 7 491 486 492
176 4 171 173 175
177 4 171 173 176
178 4 171 173 177
179 7 175 173 176
180 7 175 173 177
181 7 176 173 177
182 4 112 114 118
183 4 112 114 119
184 4 112 114 120
185 7 118 114 119
186 7 118 114 120
187 7 119 114 120
188 9 109 112 114
189 4 399 401 403
190 4 399 401 404
191 4 399 401 405
192 7 403 401 404
193 7 403 401 405
194 7 404 401 405
195 13 684 685 686
196 4 686 685 689
197 4 686 685 690
198 6 689 685 690
199 13 683 686 685
200 4 685 686 687
201 4 685 686 688
202 6 687 686 688
203 13 634 635 636
204 4 636 635 639
205 4 636 635 640
206 6 639 635 640
207 9 681 684 685
208 11 682 681 683
209 11 682 681 684
210 12 683 681 684
211 9 681 683 686
212 13 633 636 635
213 4 635 636 637
214 4 635 636 638
215 6 637 636 638
216 9 631 633 636
217 11 632 631 633
218 11 632 631 634
219 12 633 631 634
220 9 631 634 635
221 11 98 97 99
222 11 98 97 100
223 12 99 97 100
224 4 99 101 103
225 4 99 101 104
226 4 99 101 105
227 7 103 101 104
228 7 103 101 105
229 7 104 101 105
230 4 423 425 427
231 4 423 425 428
232 4 423 425 429
233 7 427 425 428
234 7 427 425 429
235 7 428 425 429
236 18 765 764 766
237 18 767 764 768
238 18 769 764 770
239 17 765 764 767
240 17 765 764 768
241 17 765 764 769
242 17 765 764 770
243 17 766 764 767
244 17 766 764 768
245 17 766 764 769
246 17 766 764 770
247 17 767 764 769
248 17 767 764 770
249 17 768 764 769
250 17 768 764 770
251 13 724 725 726
252 4 726 725 729
253 4 726 725 730
254 6 729 725 730
255 13 723 726 725
256 4 725 726 727
257 4 725 726 728
258 6 727 726 728
259 4 340 342 346
260 4 340 342 347
261 4 340 342 348
262 7 346 342 347
263 7 346 342 348
264 7 347 342 348
265 9 581 583 586
266 11 582 581 583
267 11 582 581 584
268 12 583 581 584
269 9 25 28 30
270 4 28 30 34
271 4 28 30 35
272 4 28 30 36
273 7 34 30 35
274 7 34 30 36
275 7 35 30 36
276 13 583 586 585
277 4 585 586 587
278 4 585 586 588
279 6 587 586 588
280 4 411 413 415
281 4 411 413 416
282 4 411 413 417
283 7 415 413 416
284 7 415 413 417
285 7 416 413 417
286 9 621 624 625
287 11 622 621 623
288 11 622 621 624
289 12 623 621 624
290 4 375 377 379
291 4 375 377 380
292 4 375 377 381
293 7 379 377 380
294 7 379 377 381
295 7 380 377 381
296 11 374 373 375
297 11 374 373 376
298 12 375 373 376
299 9 373 375 377
300 9 325 327 329
301 11 326 325 327
302 11 326 325 328
303 12 327 325 328
304 9 325 328 330
305 4 327 329 331
306 4 327 329 332
307 4 327 329 333
308 7 331 329 332
309 7 331 329 333
310 7 332 329 333
311 4 376 378 382
312 4 376 378 383
313 4 376 378 384
314 7 382 378 383
315 7 382 378 384
316 7 383 378 384
317 9 373 376 378
318 4 459 461 463
319 4 459 461 464
320 4 459 461 465
321 7 463 461 464
322 7 463 461 465
323 7 464 461 465
324 11 562 561 563
325 11 562 561 564
326 12 563 561 564
327 9 561 563 566
328 13 564 565 566
329 4 566 565 569
330 4 566 565 570
331 6 569 565 570
332 13 563 566 565
333 4 565 566 567
334 4 565 566 568
335 6 567 566 568
336 9 133 136 138
337 11 134 133 135
338 11 134 133 136
339 12 135 133 136
340 4 135 137 139
341 4 135 137 140
342 4 135 137 141
343 7 139 137 140
344 7 139 137 141
345 7 140 137 141
346 11 110 109 111
347 11 110 109 112
348 12 111 109 112
349 9 109 111 113
350 9 561 564 565
351 4 136 138 142
352 4 136 138 143
353 4 136 138 144
354 7 142 138 143
355 7 142 138 144
356 7 143 138 144
357 4 111 113 115
358 4 111 113 116
359 4 111 113 117
360 7 115 113 116
361 7 115 113 117
362 7 116 113 117
363 4 436 438 442
364 4 436 438 443
365 4 436 438 444
366 7 442 438 443
367 7 442 438 444
368 7 443 438 444
369 18 751 750 752
370 18 753 750 754
371 18 755 750 756
372 17 751 750 753
373 17 751 750 754
374 17 751 750 755
375 17 751 750 756
376 17 752 750 753
377 17 752 750 754
378 17 752 750 755
379 17 752 750 756
380 17 753 750 755
381 17 753 750 756
382 17 754 750 755
383 17 754 750 756
384 11 422 421 423
385 11 422 421 424
386 12 423 421 424
387 9 721 723 726
388 11 278 277 279
389 11 278 277 280
390 12 279 277 280
391 4 279 281 283
392 4 279 281 284
393 4 279 281 285
394 7 283 281 284
395 7 283 281 285
396 7 284 281 285
397 9 277 279 281
398 9 421 423 425
399 9 581 584 585
400 9 721 724 725
401 11 722 721 723
402 11 722 721 724
403 12 723 721 724
404 4 280 282 286
405 4 280 282 287
406 4 280 282 288
407 7 286 282 287
408 7 286 282 288
409 7 287 282 288
410 9 277 280 282
411 4 447 449 451
412 4 447 449 452
413 4 447 449 453
414 7 451 449 452
415 7 451 449 453
416 7 452 449 453
417 13 584 585 586
418 4 586 585 589
419 4 586 585 590
420 6 589 585 590
421 9 289 292 294
422 4 292 294 298
423 4 292 294 299
424 4 292 294 300
425 7 298 294 299
426 7 298 294 300
427 7 299 294 300
428 4 123 125 127
429 4 123 125 128
430 4 123 125 129
431 7 127 125 128
432 7 127 125 129
433 7 128 125 129
434 9 121 123 125
435 4 195 197 199
436 4 195 197 200
437 4 195 197 201
438 7 199 197 200
439 7 199 197 201
440 7 200 197 201
441 11 642 641 643
442 11 642 641 644
443 12 643 641 644
444 9 641 643 646
445 13 643 646 645
446 4 645 646 647
447 4 645 646 648
448 6 647 646 648
449 13 623 626 625
450 4 625 626 627
451 4 625 626 628
452 6 627 626 628
453 13 624 625 626
454 4 626 625 629
455 4 626 625 630
456 6 629 625 630
457 9 621 623 626
458 9 641 644 645
459 13 644 645 646
460 4 646 645 649
461 4 646 645 650
462 6 649 645 650
463 11 458 457 459
464 11 458 457 460
465 12 459 457 460
466 9 457 460 462
467 4 460 462 466
468 4 460 462 467
469 4 460 462 468
470 7 466 462 467
471 7 466 462 468
472 7 467 462 468
473 9 551 554 555
474 13 554 555 556
475 4 556 555 559
476 4 556 555 560
477 6 559 555 560
478 13 553 556 555
479 4 555 556 557
480 4 555 556 558
481 6 557 556 558
482 4 328 330 334
483 4 328 330 335
484 4 328 330 336
485 7 334 330 335
486 7 334 330 336
487 7 335 330 336
488 9 457 459 461
489 11 552 551 553
490 11 552 551 554
491 12 553 551 554
492 9 133 135 137
493 4 351 353 355
494 4 351 353 356
495 4 351 353 357
496 7 355 353 356
497 7 355 353 357
498 7 356 353 357
499 9 205 207 209
500 11 206 205 207
501 11 206 205 208
502 12 207 205 208
503 9 205 208 210
504 4 208 210 214
505 4 208 210 215
506 4 208 210 216
507 7 214 210 215
508 7 214 210 216
509 7 215 210 216
510 4 52 54 58
511 4 52 54 59
512 4 52 54 60
513 7 58 54 59
514 7 58 54 60
515 7 59 54 60
516 9 433 435 437
517 9 433 436 438
518 11 434 433 435
519 11 434 433 436
520 12 435 433 436
521 9 541 544 545
522 11 692 691 693
523 11 692 691 694
524 12 693 691 694
525 9 691 694 695
526 9 49 52 54
527 11 50 49 51
528 11 50 49 52
529 12 51 49 52
530 11 542 541 543
531 11 542 541 544
532 12 543 541 544
533 9 541 543 546
534 4 39 41 43
535 4 39 41 44
536 4 39 41 45
537 7 43 41 44
538 7 43 41 45
539 7 44 41 45
540 9 421 424 426
541 4 424 426 430
542 4 424 426 431
543 4 424 426 432
544 7 430 426 431
545 7 430 426 432
546 7 431 426 432
547 9 49 51 53
548 4 51 53 55
549 4 51 53 56
550 4 51 53 57
551 7 55 53 56
552 7 55 53 57
553 7 56 53 57
554 11 446 445 447
555 11 446 445 448
556 12 447 445 448
557 9 445 448 450
558 9 445 447 449
559 11 290 289 291
560 11 290 289 292
561 12 291 289 292
562 9 289 291 293
563 11 702 701 703
564 11 702 701 704
565 12 703 701 704
566 13 704 705 706
567 4 706 705 709
568 4 706 705 710
569 6 709 705 710
570 13 703 706 705
571 4 705 706 707
572 4 705 706 708
573 6 707 706 708
574 9 701 704 705
575 11 194 193 195
576 11 194 193 196
577 12 195 193 196
578 9 193 195 197
579 11 122 121 123
580 11 122 121 124
581 12 123 121 124
582 9 121 124 126
583 4 124 126 130
584 4 124 126 131
585 4 124 126 132
586 7 130 126 131
587 7 130 126 132
588 7 131 126 132
589 9 611 614 615
590 13 613 616 615
591 4 615 616 617
592 4 615 616 618
593 6 617 616 618
594 9 493 496 498
595 9 253 255 257
596 4 255 257 259
597 4 255 257 260
598 4 255 257 261
599 7 259 257 260
600 7 259 257 261
601 7 260 257 261
602 13 614 615 616
603 4 616 615 619
604 4 616 615 620
605 6 619 615 620
606 4 496 498 502
607 4 496 498 503
608 4 496 498 504
609 7 502 498 503
610 7 502 498 504
611 7 503 498 504
612 9 551 553 556
613 13 674 675 676
614 4 676 675 679
615 4 676 675 680
616 6 679 675 680
617 9 671 674 675
618 13 673 676 675
619 4 675 676 677
620 4 675 676 678
621 6 677 676 678
622 11 652 651 653
623 11 652 651 654
624 12 653 651 654
625 9 651 654 655
626 13 654 655 656
627 4 656 655 659
628 4 656 655 660
629 6 659 655 660
630 9 349 351 353
631 11 350 349 351
632 11 350 349 352
633 12 351 349 352
634 4 147 149 151
635 4 147 149 152
636 4 147 149 153
637 7 151 149 152
638 7 151 149 153
639 7 152 149 153
640 11 146 145 147
641 11 146 145 148
642 12 147 145 148
643 9 145 147 149
644 9 145 148 150
645 4 40 42 46
646 4 40 42 47
647 4 40 42 48
648 7 46 42 47
649 7 46 42 48
650 7 47 42 48
651 4 207 209 211
652 4 207 209 212
653 4 207 209 213
654 7 211 209 212
655 7 211 209 213
656 7 212 209 213
657 9 349 352 354
658 4 435 437 439
659 4 435 437 440
660 4 435 437 441
661 7 439 437 440
662 7 439 437 441
663 7 440 437 441
664 11 38 37 39
665 11 38 37 40
666 12 39 37 40
667 9 37 40 42
668 9 691 693 696
669 13 693 696 695
670 4 695 696 697
671 4 695 696 698
672 6 697 696 698
673 13 694 695 696
674 4 696 695 699
675 4 696 695 700
676 6 699 695 700
677 4 88 90 94
678 4 88 90 95
679 4 88 90 96
680 7 94 90 95
681 7 94 90 96
682 7 95 90 96
683 11 86 85 87
684 11 86 85 88
685 12 87 85 88
686 13 544 545 546
687 4 546 545 549
688 4 546 545 550
689 6 549 545 550
690 13 543 546 545
691 4 545 546 547
692 4 545 546 548
693 6 547 546 548
694 9 37 39 41
695 4 519 521 523
696 4 519 521 524
697 4 519 521 525
698 7 523 521 524
699 7 523 521 525
700 7 524 521 525
701 11 518 517 519
702 11 518 517 520
703 12 519 517 520
704 9 517 519 521
705 9 85 88 90
706 9 701 703 706
707 4 87 89 91
708 4 87 89 92
709 4 87 89 93
710 7 91 89 92
711 7 91 89 93
712 7 92 89 93
713 4 448 450 454
714 4 448 450 455
715 4 448 450 456
716 7 454 450 455
717 7 454 450 456
718 7 455 450 456
719 4 291 293 295
720 4 291 293 296
721 4 291 293 297
722 7 295 293 296
723 7 295 293 297
724 7 296 293 297
725 4 76 78 82
726 4 76 78 83
727 4 76 78 84
728 7 82 78 83
729 7 82 78 84
730 7 83 78 84
731 9 73 76 78
732 11 74 73 75
733 11 74 73 76
734 12 75 73 76
735 9 73 75 77
736 4 75 77 79
737 4 75 77 80
738 4 75 77 81
739 7 79 77 80
740 7 79 77 81
741 7 80 77 81
742 4 196 198 202
743 4 196 198 203
744 4 196 198 204
745 7 202 198 203
746 7 202 198 204
747 7 203 198 204
748 9 193 196 198
749 9 217 219 221
750 4 219 221 223
751 4 219 221 224
752 4 219 221 225
753 7 223 221 224
754 7 223 221 225
755 7 224 221 225
756 18 737 736 738
757 18 739 736 740
758 18 741 736 742
759 17 737 736 739
760 17 737 736 740
761 17 737 736 741
762 17 737 736 742
763 17 738 736 739
764 17 738 736 740
765 17 738 736 741
766 17 738 736 742
767 17 739 736 741
768 17 739 736 742
769 17 740 736 741
770 17 740 736 742
771 11 612 611 613
772 11 612 611 614
773 12 613 611 614
774 9 611 613 616
775 9 493 495 497
776 11 254 253 255
777 11 254 253 256
778 12 255 253 256
779 4 531 533 535
780 4 531 533 536
781 4 531 533 537
782 7 535 533 536
783 7 535 533 537
784 7 536 533 537
785 11 494 493 495
786 11 494 493 496
787 12 495 493 496
788 9 253 256 258
789 4 256 258 262
790 4 256 258 263
791 4 256 258 264
792 7 262 258 263
793 7 262 258 264
794 7 263 258 264
795 11 672 671 673
796 11 672 671 674
797 12 673 671 674
798 9 671 673 676
799 13 653 656 655
800 4 655 656 657
801 4 655 656 658
802 6 657 656 658
803 9 651 653 656
804 4 3 5 7
805 4 3 5 8
806 4 3 5 9
807 7 7 5 8
808 7 7 5 9
809 7 8 5 9
810 9 591 594 595
811 4 352 354 358
812 4 352 354 359
813 4 352 354 360
814 7 358 354 359
815 7 358 354 360
816 7 359 354 360
817 4 148 150 154
818 4 148 150 155
819 4 148 150 156
820 7 154 150 155
821 7 154 150 156
822 7 155 150 156
823 9 571 574 575
824 11 592 591 593
825 11 592 591 594
826 12 593 591 594
827 9 571 573 576
828 11 572 571 573
829 11 572 571 574
830 12 573 571 574
831 13 573 576 575
832 4 575 576 577
833 4 575 576 578
834 6 577 576 578
835 9 517 520 522
836 4 520 522 526
837 4 520 522 527
838 4 520 522 528
839 7 526 522 527
840 7 526 522 528
841 7 527 522 528
842 9 85 87 89
843 4 184 186 190
844 4 184 186 191
845 4 184 186 192
846 7 190 186 191
847 7 190 186 192
848 7 191 186 192
849 11 218 217 219
850 11 218 217 220
851 12 219 217 220
852 9 217 220 222
853 11 362 361 363
854 11 362 361 364
855 12 363 361 364
856 9 361 364 366
857 4 364 366 370
858 4 364 366 371
859 4 364 366 372
860 7 370 366 371
861 7 370 366 372
862 7 371 366 372
863 4 159 161 163
864 4 159 161 164
865 4 159 161 165
866 7 163 161 164
867 7 163 161 165
868 7 164 161 165
869 9 181 184 186
870 9 181 183 185
871 11 182 181 183
872 11 182 181 184
873 12 183 181 184
874 4 495 497 499
875 4 495 497 500
876 4 495 497 501
877 7 499 497 500
878 7 499 497 501
879 7 500 497 501
880 9 361 363 365
881 4 363 365 367
882 4 363 365 368
883 4 363 365 369
884 7 367 365 368
885 7 367 365 369
886 7 368 365 369
887 11 158 157 159
888 11 158 157 160
889 12 159 157 160
890 9 157 159 161
891 11 530 529 531
892 11 530 529 532
893 12 531 529 532
894 9 529 531 533
895 4 183 185 187
896 4 183 185 188
897 4 183 185 189
898 7 187 185 188
899 7 187 185 189
900 7 188 185 189
901 11 386 385 387
902 11 386 385 388
903 12 387 385 388
904 9 385 387 389
905 9 157 160 162
906 4 160 162 166
907 4 160 162 167
908 4 160 162 168
909 7 166 162 167
910 7 166 162 168
911 7 167 162 168
912 4 4 6 10
913 4 4 6 11
914 4 4 6 12
915 7 10 6 11
916 7 10 6 12
917 7 11 6 12
918 11 2 1 3
919 11 2 1 4
920 12 3 1 4
921 9 1 4 6
922 4 387 389 391
923 4 387 389 392
924 4 387 389 393
925 7 391 389 392
926 7 391 389 393
927 7 392 389 393
928 9 301 304 306
929 11 302 301 303
930 11 302 301 304
931 12 303 301 304
932 9 1 3 5
933 13 594 595 596
934 4 596 595 599
935 4 596 595 600
936 6 599 595 600
937 4 508 510 514
938 4 508 510 515
939 4 508 510 516
940 7 514 510 515
941 7 514 510 516
942 7 515 510 516
943 4 304 306 310
944 4 304 306 311
945 4 304 306 312
946 7 310 306 311
947 7 310 306 312
948 7 311 306 312
949 13 593 596 595
950 4 595 596 597
951 4 595 596 598
952 6 597 596 598
953 9 591 593 596
954 9 469 472 474
955 13 574 575 576
956 4 576 575 579
957 4 576 575 580
958 6 579 575 580
959 11 602 601 603
960 11 602 601 604
961 12 603 601 604
962 13 604 605 606
963 4 606 605 609
964 4 606 605 610
965 6 609 605 610
966 13 603 606 605
967 4 605 606 607
968 4 605 606 608
969 6 607 606 608
970 9 601 604 605
971 11 230 229 231
972 11 230 229 232
973 12 231 229 232
974 9 229 231 233
975 4 231 233 235
976 4 231 233 236
977 4 231 233 237
978 7 235 233 236
979 7 235 233 237
980 7 236 233 237
981 4 220 222 226
982 4 220 222 227
983 4 220 222 228
984 7 226 222 227
985 7 226 222 228
986 7 227 222 228
987 4 232 234 238
988 4 232 234 239
989 4 232 234 240
990 7 238 234 239
991 7 238 234 240
992 7 239 234 240
993 9 229 232 234
994 9 13 15 17
995 4 15 17 19
996 4 15 17 20
997 4 15 17 21
998 7 19 17 20
999 7 19 17 21
1000 7 20 17 21
1001 4 16 18 22
1002 4 16 18 23
1003 4 16 18 24
1004 7 22 18 23
1005 7 22 18 24
1006 7 23 18 24
1007 11 14 13 15
1008 11 14 13 16
1009 12 15 13 16
1010 9 13 16 18
1011 9 529 532 534
1012 4 532 534 538
1013 4 532 534 539
1014 4 532 534 540
1015 7 538 534 539
1016 7 538 534 540
1017 7 539 534 540
1018 4 388 390 394
1019 4 388 390 395
1020 4 388 390 396
1021 7 394 390 395
1022 7 394 390 396
1023 7 395 390 396
1024 9 385 388 390
1025 11 662 661 663
1026 11 662 661 664
1027 12 663 661 664
1028 9 661 663 666
1029 13 664 665 666
1030 4 666 665 669
1031 4 666 665 670
1032 6 669 665 670
1033 13 663 666 665
1034 4 665 666 667
1035 4 665 666 668
1036 6 667 666 668
1037 9 505 508 510
1038 9 505 507 509
1039 4 507 509 511
1040 4 507 509 512
1041 4 507 509 513
1042 7 511 509 512
1043 7 511 509 513
1044 7 512 509 513
1045 4 303 305 307
1046 4 303 305 308
1047 4 303 305 309
1048 7 307 305 308
1049 7 307 305 309
1050 7 308 305 309
1051 9 301 303 305
1052 9 661 664 665
1053 11 506 505 507
1054 11 506 505 508
1055 12 507 505 508
1056 18 744 743 745
1057 18 746 743 747
1058 18 748 743 749
1059 17 744 743 746
1060 17 744 743 747
1061 17 744 743 748
1062 17 744 743 749
1063 17 745 743 746
1064 17 745 743 747
1065 17 745 743 748
1066 17 745 743 749
1067 17 746 743 748
1068 17 746 743 749
1069 17 747 743 748
1070 17 747 743 749
1071 4 472 474 478
1072 4 472 474 479
1073 4 472 474 480
1074 7 478 474 479
1075 7 478 474 480
1076 7 479 474 480
1077 11 470 469 471
1078 11 470 469 472
1079 12 471 469 472
1080 9 469 471 473
1081 4 471 473 475
1082 4 471 473 476
1083 4 471 473 477
1084 7 475 473 476
1085 7 475 473 477
1086 7 476 473 477
1087 9 601 603 606

Dihedrals

1 8 712 711 713 716
2 8 712 711 714 715
3 6 313 315 317 319
4 6 313 315 317 320
5 6 313 315 317 321
6 7 711 714 715 716
7 8 314 313 315 317
8 8 314 313 316 318
9 6 313 316 318 322
10 6 313 316 318 323
11 6 313 316 318 324
12 8 266 265 267 269
13 8 266 265 268 270
14 6 265 268 270 274
15 6 265 268 270 275
16 6 265 268 270 276
17 8 170 169 171 173
18 8 170 169 172 174
19 6 169 171 173 175
20 6 169 171 173 176
21 6 169 171 173 177
22 6 169 172 174 178
23 6 169 172 174 179
24 6 169 172 174 180
25 6 397 399 401 403
26 6 397 399 401 404
27 6 397 399 401 405
28 6 61 63 65 67
29 6 61 63 65 68
30 6 61 63 65 69
31 8 398 397 399 401
32 8 398 397 400 402
33 6 397 400 402 406
34 6 397 400 402 407
35 6 397 400 402 408
36 8 62 61 63 65
37 8 62 61 64 66
38 6 61 64 66 70
39 6 61 64 66 71
40 6 61 64 66 72
41 6 97 100 102 106
42 6 97 100 102 107
43 6 97 100 102 108
44 6 97 99 101 103
45 6 97 99 101 104
46 6 97 99 101 105
47 6 241 243 245 247
48 6 241 243 245 248
49 6 241 243 245 249
50 8 338 337 339 341
51 8 338 337 340 342
52 6 337 339 341 343
53 6 337 339 341 344
54 6 337 339 341 345
55 8 242 241 243 245
56 8 242 241 244 246
57 6 337 340 342 346
58 6 337 340 342 347
59 6 337 340 342 348
60 6 241 244 246 250
61 6 241 244 246 251
62 6 241 244 246 252
63 6 25 27 29 31
64 6 25 27 29 32
65 6 25 27 29 33
66 8 26 25 27 29
67 8 26 25 28 30
68 8 410 409 411 413
69 8 410 409 412 414
70 6 409 411 413 415
71 6 409 411 413 416
72 6 409 411 413 417
73 6 409 412 414 418
74 6 409 412 414 419
75 6 409 412 414 420
76 6 481 483 485 487
77 6 481 483 485 488
78 6 481 483 485 489
79 5 711 713 716 715
80 7 713 716 715 714
81 8 482 481 483 485
82 8 482 481 484 486
83 6 481 484 486 490
84 6 481 484 486 491
85 6 481 484 486 492
86 6 265 267 269 271
87 6 265 267 269 272
88 6 265 267 269 273
89 6 109 112 114 118
90 6 109 112 114 119
91 6 109 112 114 120
92 7 683 686 685 684
93 7 681 684 685 686
94 8 682 681 683 686
95 8 682 681 684 685
96 5 681 683 686 685
97 7 633 636 635 634
98 5 631 633 636 635
99 8 632 631 633 636
100 8 632 631 634 635
101 7 631 634 635 636
102 8 98 97 99 101
103 8 98 97 100 102
104 7 723 726 725 724
105 5 581 583 586 585
106 8 582 581 583 586
107 8 582 581 584 585
108 6 25 28 30 34
109 6 25 28 30 35
110 6 25 28 30 36
111 7 583 586 585 584
112 7 621 624 625 626
113 8 622 621 623 626
114 8 622 621 624 625
115 8 374 373 375 377
116 8 374 373 376 378
117 6 373 375 377 379
118 6 373 375 377 380
119 6 373 375 377 381
120 6 325 327 329 331
121 6 325 327 329 332
122 6 325 327 329 333
123 8 326 325 327 329
124 8 326 325 328 330
125 6 325 328 330 334
126 6 325 328 330 335
127 6 325 328 330 336
128 6 373 376 378 382
129 6 373 376 378 383
130 6 373 376 378 384
131 8 562 561 563 566
132 8 562 561 564 565
133 5 561 563 566 565
134 7 563 566 565 564
135 6 133 136 138 142
136 6 133 136 138 143
137 6 133 136 138 144
138 8 134 133 135 137
139 8 134 133 136 138
140 8 110 109 111 113
141 8 110 109 112 114
142 6 109 111 113 115
143 6 109 111 113 116
144 6 109 111 113 117
145 7 561 564 565 566
146 8 422 421 423 425
147 8 422 421 424 426
148 5 721 723 726 725
149 8 278 277 279 281
150 8 278 277 280 282
151 6 277 279 281 283
152 6 277 279 281 284
153 6 277 279 281 285
154 6 421 423 425 427
155 6 421 423 425 428
156 6 421 423 425 429
157 7 581 584 585 586
158 7 721 724 725 726
159 8 722 721 723 726
160 8 722 721 724 725
161 6 277 280 282 286
162 6 277 280 282 287
163 6 277 280 282 288
164 6 289 292 294 298
165 6 289 292 294 299
166 6 289 292 294 300
167 6 121 123 125 127
168 6 121 123 125 128
169 6 121 123 125 129
170 8 642 641 643 646
171 8 642 641 644 645
172 5 641 643 646 645
173 7 643 646 645 644
174 7 623 626 625 624
175 5 621 623 626 625
176 7 641 644 645 646
177 8 458 457 459 461
178 8 458 457 460 462
179 6 457 460 462 466
180 6 457 460 462 467
181 6 457 460 462 468
182 7 551 554 555 556
183 7 553 556 555 554
184 6 457 459 461 463
185 6 457 459 461 464
186 6 457 459 461 465
187 8 552 551 553 556
188 8 552 551 554 555
189 6 133 135 137 139
190 6 133 135 137 140
191 6 133 135 137 141
192 6 205 207 209 211
193 6 205 207 209 212
194 6 205 207 209 213
195 8 206 205 207 209
196 8 206 205 208 210
197 6 205 208 210 214
198 6 205 208 210 215
199 6 205 208 210 216
200 6 433 435 437 439
201 6 433 435 437 440
202 6 433 435 437 441
203 6 433 436 438 442
204 6 433 436 438 443
205 6 433 436 438 444
206 8 434 433 435 437
207 8 434 433 436 438
208 7 541 544 545 546
209 8 692 691 693 696
210 8 692 691 694 695
211 7 691 694 695 696
212 6 49 52 54 58
213 6 49 52 54 59
214 6 49 52 54 60
215 8 50 49 51 53
216 8 50 49 52 54
217 8 542 541 543 546
218 8 542 541 544 545
219 5 541 543 546 545
220 6 421 424 426 430
221 6 421 424 426 431
222 6 421 424 426 432
223 6 49 51 53 55
224 6 49 51 53 56
225 6 49 51 53 57
226 8 446 445 447 449
227 8 446 445 448 450
228 6 445 448 450 454
229 6 445 448 450 455
230 6 445 448 450 456
231 6 445 447 449 451
232 6 445 447 449 452
233 6 445 447 449 453
234 8 290 289 291 293
235 8 290 289 292 294
236 6 289 291 293 295
237 6 289 291 293 296
238 6 289 291 293 297
239 8 702 701 703 706
240 8 702 701 704 705
241 7 703 706 705 704
242 7 701 704 705 706
243 8 194 193 195 197
244 8 194 193 196 198
245 6 193 195 197 199
246 6 193 195 197 200
247 6 193 195 197 201
248 8 122 121 123 125
249 8 122 121 124 126
250 6 121 124 126 130
251 6 121 124 126 131
252 6 121 124 126 132
253 7 611 614 615 616
254 7 613 616 615 614
255 6 493 496 498 502
256 6 493 496 498 503
257 6 493 496 498 504
258 6 253 255 257 259
259 6 253 255 257 260
260 6 253 255 257 261
261 5 551 553 556 555
262 7 671 674 675 676
263 7 673 676 675 674
264 8 652 651 653 656
265 8 652 651 654 655
266 7 651 654 655 656
267 6 349 351 353 355
268 6 349 351 353 356
269 6 349 351 353 357
270 8 350 349 351 353
271 8 350 349 352 354
272 8 146 145 147 149
273 8 146 145 148 150
274 6 145 147 149 151
275 6 145 147 149 152
276 6 145 147 149 153
277 6 145 148 150 154
278 6 145 148 150 155
279 6 145 148 150 156
280 6 349 352 354 358
281 6 349 352 354 359
282 6 349 352 354 360
283 8 38 37 39 41
284 8 38 37 40 42
285 6 37 40 42 46
286 6 37 40 42 47
287 6 37 40 42 48
288 5 691 693 696 695
289 7 693 696 695 694
290 8 86 85 87 89
291 8 86 85 88 90
292 7 543 546 545 544
293 6 37 39 41 43
294 6 37 39 41 44
295 6 37 39 41 45
296 8 518 517 519 521
297 8 518 517 520 522
298 6 517 519 521 523
299 6 517 519 521 524
300 6 517 519 521 525
301 6 85 88 90 94
302 6 85 88 90 95
303 6 85 88 90 96
304 5 701 703 706 705
305 6 73 76 78 82
306 6 73 76 78 83
307 6 73 76 78 84
308 8 74 73 75 77
309 8 74 73 76 78
310 6 73 75 77 79
311 6 73 75 77 80
312 6 73 75 77 81
313 6 193 196 198 202
314 6 193 196 198 203
315 6 193 196 198 204
316 6 217 219 221 223
317 6 217 219 221 224
318 6 217 219 221 225
319 8 612 611 613 616
320 8 612 611 614 615
321 5 611 613 616 615
322 6 493 495 497 499
323 6 493 495 497 500
324 6 493 495 497 501
325 8 254 253 255 257
326 8 254 253 256 258
327 8 494 493 495 497
328 8 494 493 496 498
329 6 253 256 258 262
330 6 253 256 258 263
331 6 253 256 258 264
332 8 672 671 673 676
333 8 672 671 674 675
334 5 671 673 676 675
335 7 653 656 655 654
336 5 651 653 656 655
337 7 591 594 595 596
338 7 571 574 575 576
339 8 592 591 593 596
340 8 592 591 594 595
341 5 571 573 576 575
342 8 572 571 573 576
343 8 572 571 574 575
344 7 573 576 575 574
345 6 517 520 522 526
346 6 517 520 522 527
347 6 517 520 522 528
348 6 85 87 89 91
349 6 85 87 89 92
350 6 85 87 89 93
351 8 218 217 219 221
352 8 218 217 220 222
353 6 217 220 222 226
354 6 217 220 222 227
355 6 217 220 222 228
356 8 362 361 363 365
357 8 362 361 364 366
358 6 361 364 366 370
359 6 361 364 366 371
360 6 361 364 366 372
361 6 181 184 186 190
362 6 181 184 186 191
363 6 181 184 186 192
364 6 181 183 185 187
365 6 181 183 185 188
366 6 181 183 185 189
367 8 182 181 183 185
368 8 182 181 184 186
369 6 361 363 365 367
370 6 361 363 365 368
371 6 361 363 365 369
372 8 158 157 159 161
373 8 158 157 160 162
374 6 157 159 161 163
375 6 157 159 161 164
376 6 157 159 161 165
377 8 530 529 531 533
378 8 530 529 532 534
379 6 529 531 533 535
380 6 529 531 533 536
381 6 529 531 533 537
382 8 386 385 387 389
383 8 386 385 388 390
384 6 385 387 389 391
385 6 385 387 389 392
386 6 385 387 389 393
387 6 157 160 162 166
388 6 157 160 162 167
389 6 157 160 162 168
390 8 2 1 3 5
391 8 2 1 4 6
392 6 1 4 6 10
393 6 1 4 6 11
394 6 1 4 6 12
395 6 301 304 306 310
396 6 301 304 306 311
397 6 301 304 306 312
398 8 302 301 303 305
399 8 302 301 304 306
400 6 1 3 5 7
401 6 1 3 5 8
402 6 1 3 5 9
403 7 593 596 595 594
404 5 591 593 596 595
405 6 469 472 474 478
406 6 469 472 474 479
407 6 469 472 474 480
408 8 602 601 603 606
409 8 602 601 604 605
410 7 603 606 605 604
411 7 601 604 605 606
412 8 230 229 231 233
413 8 230 229 232 234
414 6 229 231 233 235
415 6 229 231 233 236
416 6 229 231 233 237
417 6 229 232 234 238
418 6 229 232 234 239
419 6 229 232 234 240
420 6 13 15 17 19
421 6 13 15 17 20
422 6 13 15 17 21
423 8 14 13 15 17
424 8 14 13 16 18
425 6 13 16 18 22
426 6 13 16 18 23
427 6 13 16 18 24
428 6 529 532 534 538
429 6 529 532 534 539
430 6 529 532 534 540
431 6 385 388 390 394
432 6 385 388 390 395
433 6 385 388 390 396
434 8 662 661 663 666
435 8 662 661 664 665
436 5 661 663 666 665
437 7 663 666 665 664
438 6 505 508 510 514
439 6 505 508 510 515
440 6 505 508 510 516
441 6 505 507 509 511
442 6 505 507 509 512
443 6 505 507 509 513
444 6 301 303 305 307
445 6 301 303 305 308
446 6 301 303 305 309
447 7 661 664 665 666
448 8 506 505 507 509
449 8 506 505 508 510
450 8 470 469 471 473
451 8 470 469 472 474
452 6 469 471 473 475
453 6 469 471 473 476
454 6 469 471 473 477
455 5 601 603 606 605
