LAMMPS Description

770  atoms
715  bonds
1087  angles
455  dihedrals
0  impropers

31  atom types
17  bond types
18  angle types
9  dihedral types
2  improper types

0.0 20.000000 xlo xhi
0.0 20.000000 ylo yhi
0.0 20.000000 zlo zhi

Masses

1 12.011  # opls_135
2 12.011  # opls_136
3 12.011  # opls_137
4 12.011  # opls_138
5 12.011  # opls_141
6 12.011  # opls_142
7 12.011  # opls_145
8 12.011  # opls_146
9 12.011  # opls_209
10 12.011  # opls_212
11 1.008  # opls_140
12 1.008  # opls_139
13 1.008  # opls_143
14 1.008  # opls_148
15 1.008  # opls_154
16 1.008  # opls_160
17 1.008  # opls_210
18 15.999  # opls_154O
19 15.999  # opls_156
20 15.999  # opls_211
21 15.999  # opls_213
22 14.007  # opls_157
23 14.007  # opls_158
24 14.007  # opls_159
25 14.007  # opls_236
26 18.998  # opls_303
27 30.974  # opls_901
28 6.941  # opls_402
29 32.065  # opls_180
30 32.065  # opls_903
31 6.941  # Li

Atoms

1 1 9 +0.52 7.029 16.504 4.415
2 1 20 -0.50 6.203 17.325 4.705
3 1 19 -0.35 7.674 15.813 5.393
4 1 19 -0.35 7.320 16.264 3.108
5 1 1 +0.22 7.301 16.133 6.736
6 1 1 +0.22 6.592 17.039 2.152
7 1 11 +0.06 6.534 16.907 6.726
8 1 11 +0.06 6.911 15.241 7.227
9 1 11 +0.06 8.175 16.494 7.279
10 1 11 +0.06 6.907 16.763 1.145
11 1 11 +0.06 5.525 16.845 2.264
12 1 11 +0.06 6.788 18.098 2.316
13 2 9 +0.52 1.464 6.570 3.894
14 2 20 -0.50 2.340 5.801 4.179
15 2 19 -0.35 1.359 7.040 2.622
16 2 19 -0.35 0.575 6.970 4.843
17 2 1 +0.22 2.337 6.563 1.695
18 2 1 +0.22 0.766 6.422 6.150
19 2 11 +0.06 3.017 5.880 2.203
20 2 11 +0.06 1.839 6.041 0.878
21 2 11 +0.06 2.901 7.407 1.296
22 2 11 +0.06 -0.000 6.811 6.823
23 2 11 +0.06 0.689 5.336 6.105
24 2 11 +0.06 1.751 6.702 6.523
25 3 9 +0.52 14.860 0.932 14.120
26 3 20 -0.50 14.736 2.097 14.377
27 3 19 -0.35 14.718 -0.000 15.101
28 3 19 -0.35 15.140 0.542 12.847
29 3 1 +0.22 14.424 0.504 16.406
30 3 1 +0.22 15.270 1.592 11.886
31 3 11 +0.06 14.364 1.592 16.371
32 3 11 +0.06 13.471 0.099 16.746
33 3 11 +0.06 15.212 0.205 17.097
34 3 11 +0.06 15.494 1.164 10.907
35 3 11 +0.06 14.338 2.153 11.830
36 3 11 +0.06 16.079 2.260 12.182
37 4 9 +0.52 11.871 0.919 1.756
38 4 20 -0.50 12.030 0.198 0.810
39 4 19 -0.35 10.614 1.218 2.179
40 4 19 -0.35 12.948 1.438 2.405
41 4 1 +0.22 9.545 0.627 1.435
42 4 1 +0.22 14.229 1.068 1.887
43 4 11 +0.06 9.956 0.018 0.630
44 4 11 +0.06 8.946 -0.001 2.096
45 4 11 +0.06 8.918 1.412 1.014
46 4 11 +0.06 15.012 1.540 2.483
47 4 11 +0.06 14.342 -0.015 1.934
48 4 11 +0.06 14.313 1.398 0.852
49 5 9 +0.52 3.944 9.823 13.683
50 5 20 -0.50 4.059 8.899 14.440
51 5 19 -0.35 4.957 10.135 12.830
52 5 19 -0.35 2.800 10.560 13.680
53 5 1 +0.22 6.118 9.304 12.907
54 5 1 +0.22 1.793 10.157 14.611
55 5 11 +0.06 5.970 8.541 13.670
56 5 11 +0.06 6.287 8.826 11.942
57 5 11 +0.06 6.984 9.914 13.167
58 5 11 +0.06 0.928 10.816 14.518
59 5 11 +0.06 1.491 9.131 14.400
60 5 11 +0.06 2.188 10.219 15.625
61 6 9 +0.52 1.533 17.640 15.493
62 6 20 -0.50 1.768 18.380 16.408
63 6 19 -0.35 1.135 18.146 14.295
64 6 19 -0.35 1.665 16.296 15.653
65 6 1 +0.22 1.025 19.570 14.221
66 6 1 +0.22 2.088 15.858 16.947
67 6 11 +0.06 1.293 20.006 15.184
68 6 11 +0.06 1.698 19.947 13.451
69 6 11 +0.06 -0.001 19.843 13.972
70 6 11 +0.06 2.158 14.770 16.958
71 6 11 +0.06 3.064 16.286 17.176
72 6 11 +0.06 1.365 16.182 17.696
73 7 9 +0.52 13.040 5.193 5.654
74 7 20 -0.50 13.635 6.220 5.481
75 7 19 -0.35 13.652 4.003 5.410
76 7 19 -0.35 11.753 5.219 6.094
77 7 1 +0.22 15.004 4.076 4.951
78 7 1 +0.22 11.195 6.515 6.322
79 7 11 +0.06 15.307 5.120 4.878
80 7 11 +0.06 15.655 3.557 5.654
81 7 11 +0.06 15.080 3.606 3.970
82 7 11 +0.06 10.166 6.412 6.670
83 7 11 +0.06 11.783 7.037 7.078
84 7 11 +0.06 11.208 7.086 5.394
85 8 9 +0.52 6.604 17.613 17.437
86 8 20 -0.50 5.571 17.177 17.865
87 8 19 -0.35 7.167 17.063 16.328
88 8 19 -0.35 7.212 18.657 18.061
89 8 1 +0.22 6.456 15.970 15.741
90 8 1 +0.22 6.546 19.169 19.218
91 8 11 +0.06 5.553 15.772 16.318
92 8 11 +0.06 6.184 16.222 14.716
93 8 11 +0.06 7.089 15.082 15.741
94 8 11 +0.06 7.122 19.998 19.633
95 8 11 +0.06 5.553 19.521 18.941
96 8 11 +0.06 6.457 18.381 19.966
97 9 9 +0.52 2.346 15.010 6.418
98 9 20 -0.50 2.712 15.855 5.650
99 9 19 -0.35 2.932 14.903 7.641
100 9 19 -0.35 1.345 14.158 6.067
101 9 1 +0.22 3.974 15.841 7.920
102 9 1 +0.22 0.790 14.348 4.763
103 9 11 +0.06 4.112 16.498 7.062
104 9 11 +0.06 3.704 16.435 8.793
105 9 11 +0.06 4.902 15.304 8.120
106 9 11 +0.06 0.002 13.614 4.593
107 9 11 +0.06 0.373 15.352 4.687
108 9 11 +0.06 1.571 14.221 4.013
109 10 9 +0.52 15.526 6.923 12.601
110 10 20 -0.50 15.787 7.191 13.741
111 10 19 -0.35 16.523 6.610 11.731
112 10 19 -0.35 14.233 6.934 12.179
113 10 1 +0.22 17.849 6.625 12.265
114 10 1 +0.22 13.255 7.275 13.165
115 10 11 +0.06 17.813 6.898 13.320
116 10 11 +0.06 18.294 5.636 12.161
117 10 11 +0.06 18.451 7.353 11.721
118 10 11 +0.06 12.261 7.251 12.716
119 10 11 +0.06 13.299 6.558 13.985
120 10 11 +0.06 13.456 8.276 13.546
121 11 9 +0.52 9.068 1.909 14.935
122 11 20 -0.50 8.568 0.890 14.547
123 11 19 -0.35 8.602 3.107 14.490
124 11 19 -0.35 10.101 1.866 15.818
125 11 1 +0.22 7.515 3.052 13.564
126 11 1 +0.22 10.522 0.562 16.228
127 11 11 +0.06 7.248 2.012 13.377
128 11 11 +0.06 6.655 3.578 13.980
129 11 11 +0.06 7.811 3.525 12.627
130 11 11 +0.06 11.350 0.652 16.932
131 11 11 +0.06 9.691 0.046 16.710
132 11 11 +0.06 10.846 -0.006 15.356
133 12 9 +0.52 13.769 14.367 1.897
134 12 20 -0.50 13.032 13.981 2.762
135 12 19 -0.35 13.276 15.098 0.861
136 12 19 -0.35 15.096 14.073 1.952
137 12 1 +0.22 11.870 15.356 0.889
138 12 1 +0.22 15.520 13.301 3.078
139 12 11 +0.06 11.434 14.898 1.776
140 12 11 +0.06 11.699 16.432 0.914
141 12 11 +0.06 11.406 14.935 -0.003
142 12 11 +0.06 16.595 13.128 3.016
143 12 11 +0.06 15.292 13.841 3.997
144 12 11 +0.06 14.999 12.343 3.080
145 13 9 +0.52 17.139 1.907 7.545
146 13 20 -0.50 16.743 1.009 8.235
147 13 19 -0.35 16.954 1.863 6.198
148 13 19 -0.35 17.774 2.969 8.110
149 13 1 +0.22 16.277 0.708 5.697
150 13 1 +0.22 17.922 2.926 9.532
151 13 11 +0.06 16.024 0.046 6.525
152 13 11 +0.06 15.365 1.015 5.184
153 13 11 +0.06 16.927 0.181 4.997
154 13 11 +0.06 18.442 3.824 9.870
155 13 11 +0.06 16.939 2.879 9.999
156 13 11 +0.06 18.500 2.046 9.812
157 14 9 +0.52 16.701 6.538 15.946
158 14 20 -0.50 17.626 6.067 15.344
159 14 19 -0.35 15.505 5.892 15.970
160 14 19 -0.35 16.850 7.719 16.606
161 14 1 +0.22 15.444 4.659 15.248
162 14 1 +0.22 18.143 8.323 16.524
163 14 11 +0.06 16.413 4.457 14.792
164 14 11 +0.06 15.188 3.850 15.932
165 14 11 +0.06 14.684 4.730 14.470
166 14 11 +0.06 18.144 9.258 17.087
167 14 11 +0.06 18.888 7.647 16.944
168 14 11 +0.06 18.384 8.528 15.481
169 15 9 +0.52 2.787 13.114 10.101
170 15 20 -0.50 3.130 12.613 9.066
171 15 19 -0.35 1.632 13.830 10.160
172 15 19 -0.35 3.553 12.966 11.215
173 15 1 +0.22 0.895 13.931 8.939
174 15 1 +0.22 4.748 12.197 11.056
175 15 11 +0.06 1.419 13.390 8.151
176 15 11 +0.06 -0.097 13.500 9.077
177 15 11 +0.06 0.799 14.980 8.658
178 15 11 +0.06 5.277 12.146 12.009
179 15 11 +0.06 4.492 11.189 10.730
180 15 11 +0.06 5.388 12.668 10.311
181 16 9 +0.52 11.889 11.879 7.234
182 16 20 -0.50 12.782 11.276 7.761
183 16 19 -0.35 12.077 13.168 6.841
184 16 19 -0.35 10.687 11.275 7.031
185 16 1 +0.22 13.372 13.718 7.097
186 16 1 +0.22 10.584 9.920 7.477
187 16 11 +0.06 13.996 12.968 7.582
188 16 11 +0.06 13.831 14.019 6.155
189 16 11 +0.06 13.275 14.587 7.748
190 16 11 +0.06 9.584 9.542 7.263
191 16 11 +0.06 11.322 9.308 6.958
192 16 11 +0.06 10.766 9.876 8.551
193 17 9 +0.52 1.589 17.248 11.031
194 17 20 -0.50 1.749 16.258 10.373
195 17 19 -0.35 1.658 17.181 12.388
196 17 19 -0.35 1.338 18.438 10.421
197 17 1 +0.22 1.925 15.889 12.939
198 17 1 +0.22 1.284 18.409 8.992
199 17 11 +0.06 2.029 15.164 12.132
200 17 11 +0.06 2.849 15.925 13.516
201 17 11 +0.06 1.102 15.594 13.589
202 17 11 +0.06 1.078 19.412 8.616
203 17 11 +0.06 2.240 18.064 8.598
204 17 11 +0.06 0.493 17.732 8.671
205 18 9 +0.52 13.301 4.998 17.403
206 18 20 -0.50 13.318 6.182 17.600
207 18 19 -0.35 14.288 4.210 17.906
208 18 19 -0.35 12.293 4.445 16.676
209 18 1 +0.22 15.304 4.881 18.656
210 18 1 +0.22 11.301 5.352 16.189
211 18 11 +0.06 15.088 5.949 18.687
212 18 11 +0.06 15.326 4.486 19.672
213 18 11 +0.06 16.272 4.720 18.183
214 18 11 +0.06 10.549 4.799 15.624
215 18 11 +0.06 10.824 5.856 17.029
216 18 11 +0.06 11.770 6.091 15.540
217 19 9 +0.52 9.861 6.204 8.841
218 19 20 -0.50 9.711 5.083 8.438
219 19 19 -0.35 9.049 7.200 8.395
220 19 19 -0.35 10.842 6.477 9.742
221 19 1 +0.22 8.048 6.817 7.449
222 19 1 +0.22 11.644 5.367 10.151
223 19 11 +0.06 8.124 5.748 7.251
224 19 11 +0.06 7.060 7.042 7.854
225 19 11 +0.06 8.194 7.370 6.521
226 19 11 +0.06 12.392 5.704 10.870
227 19 11 +0.06 11.010 4.611 10.615
228 19 11 +0.06 12.144 4.939 9.282
229 20 9 +0.52 12.396 15.618 14.347
230 20 20 -0.50 12.406 16.703 13.833
231 20 19 -0.35 11.259 14.871 14.333
232 20 19 -0.35 13.519 15.137 14.943
233 20 1 +0.22 10.130 15.459 13.684
234 20 1 +0.22 14.663 15.994 14.907
235 20 11 +0.06 10.401 16.444 13.302
236 20 11 +0.06 9.814 14.824 12.856
237 20 11 +0.06 9.312 15.559 14.397
238 20 11 +0.06 15.499 15.507 15.412
239 20 11 +0.06 14.935 16.196 13.871
240 20 11 +0.06 14.432 16.932 15.412
241 21 9 +0.52 15.219 19.086 15.698
242 21 20 -0.50 14.428 19.824 15.180
243 21 19 -0.35 15.101 18.779 17.018
244 21 19 -0.35 16.235 18.555 14.965
245 21 1 +0.22 14.003 19.385 17.705
246 21 1 +0.22 16.278 18.934 13.587
247 21 11 +0.06 13.439 20.008 17.012
248 21 11 +0.06 13.353 18.607 18.107
249 21 11 +0.06 14.381 20.000 18.522
250 21 11 +0.06 17.128 18.451 13.103
251 21 11 +0.06 15.356 18.624 13.095
252 21 11 +0.06 16.384 20.016 13.510
253 22 9 +0.52 10.979 17.426 7.126
254 22 20 -0.50 9.901 17.781 6.734
255 22 19 -0.35 11.545 16.295 6.626
256 22 19 -0.35 11.634 18.156 8.069
257 22 1 +0.22 10.782 15.595 5.640
258 22 1 +0.22 10.960 19.328 8.533
259 22 11 +0.06 9.845 16.123 5.463
260 22 11 +0.06 11.350 15.542 4.711
261 22 11 +0.06 10.570 14.586 5.994
262 22 11 +0.06 11.576 19.829 9.281
263 22 11 +0.06 10.786 20.004 7.696
264 22 11 +0.06 10.006 19.048 8.978
265 23 9 +0.52 11.828 2.360 8.715
266 23 20 -0.50 11.647 1.184 8.866
267 23 19 -0.35 10.806 3.236 8.911
268 23 19 -0.35 13.055 2.818 8.348
269 23 1 +0.22 9.554 2.662 9.295
270 23 1 +0.22 14.066 1.823 8.165
271 23 11 +0.06 9.655 1.579 9.362
272 23 11 +0.06 9.254 3.060 10.264
273 23 11 +0.06 8.797 2.911 8.551
274 23 11 +0.06 15.001 2.303 7.874
275 23 11 +0.06 14.213 1.278 9.097
276 23 11 +0.06 13.756 1.129 7.383
277 24 9 +0.52 18.358 14.377 15.632
278 24 20 -0.50 17.703 15.375 15.507
279 24 19 -0.35 18.243 13.371 14.724
280 24 19 -0.35 19.215 14.253 16.680
281 24 1 +0.22 17.317 13.593 13.657
282 24 1 +0.22 19.268 15.362 17.581
283 24 11 +0.06 16.854 14.572 13.774
284 24 11 +0.06 17.845 13.552 12.704
285 24 11 +0.06 16.546 12.822 13.678
286 24 11 +0.06 19.984 15.150 18.377
287 24 11 +0.06 19.580 16.256 17.041
288 24 11 +0.06 18.281 15.525 18.016
289 25 9 +0.52 11.848 9.559 18.766
290 25 20 -0.50 12.164 9.918 19.867
291 25 19 -0.35 10.623 9.883 18.272
292 25 19 -0.35 12.714 8.829 18.014
293 25 1 +0.22 9.782 10.653 19.135
294 25 1 +0.22 13.976 8.537 18.618
295 25 11 +0.06 10.303 10.846 20.072
296 25 11 +0.06 9.537 11.600 18.654
297 25 11 +0.06 8.864 10.100 19.336
298 25 11 +0.06 14.583 7.951 17.927
299 25 11 +0.06 14.492 9.469 18.852
300 25 11 +0.06 13.819 7.969 19.534
301 26 9 +0.52 4.609 2.461 7.471
302 26 20 -0.50 5.269 3.455 7.349
303 26 19 -0.35 5.218 1.251 7.592
304 26 19 -0.35 3.251 2.544 7.487
305 26 1 +0.22 6.648 1.263 7.564
306 26 1 +0.22 2.703 3.857 7.353
307 26 11 +0.06 7.000 2.287 7.445
308 26 11 +0.06 7.033 0.852 8.497
309 26 11 +0.06 7.000 0.658 6.728
310 26 11 +0.06 1.613 3.801 7.380
311 26 11 +0.06 3.053 4.484 8.173
312 26 11 +0.06 3.020 4.289 6.404
313 27 9 +0.52 1.125 11.189 9.002
314 27 20 -0.50 -0.062 11.305 9.134
315 27 19 -0.35 1.925 11.091 10.098
316 27 19 -0.35 1.670 11.156 7.756
317 27 1 +0.22 1.261 11.135 11.363
318 27 1 +0.22 0.751 11.266 6.667
319 27 11 +0.06 0.188 11.244 11.208
320 27 11 +0.06 1.457 10.212 11.909
321 27 11 +0.06 1.633 11.983 11.939
322 27 11 +0.06 1.299 11.227 5.724
323 27 11 +0.06 0.040 10.441 6.706
324 27 11 +0.06 0.215 12.212 6.736
325 28 9 +0.52 14.544 14.577 19.119
326 28 20 -0.50 13.471 15.115 19.104
327 28 19 -0.35 15.680 15.325 19.129
328 28 19 -0.35 14.624 13.219 19.128
329 28 1 +0.22 15.496 16.743 19.119
330 28 1 +0.22 13.377 12.519 19.117
331 28 11 +0.06 14.431 16.972 19.105
332 28 11 +0.06 15.949 17.175 20.012
333 28 11 +0.06 15.970 17.165 18.232
334 28 11 +0.06 13.564 11.444 19.125
335 28 11 +0.06 12.798 12.792 19.999
336 28 11 +0.06 12.819 12.782 18.219
337 29 9 +0.52 15.368 9.976 14.010
338 29 20 -0.50 14.989 11.076 13.715
339 29 19 -0.35 14.813 9.327 15.068
340 29 19 -0.35 16.352 9.379 13.285
341 29 1 +0.22 13.786 10.034 15.768
342 29 1 +0.22 16.873 10.138 12.192
343 29 11 +0.06 13.631 11.007 15.303
344 29 11 +0.06 12.859 9.461 15.730
345 29 11 +0.06 14.084 10.172 16.808
346 29 11 +0.06 17.651 9.563 11.688
347 29 11 +0.06 16.072 10.360 11.487
348 29 11 +0.06 17.297 11.071 12.565
349 30 9 +0.52 18.950 12.165 8.080
350 30 20 -0.50 18.672 13.331 8.150
351 30 19 -0.35 18.925 11.531 6.877
352 30 19 -0.35 19.290 11.479 9.204
353 30 1 +0.22 18.556 12.334 5.753
354 30 1 +0.22 19.289 12.230 10.421
355 30 11 +0.06 18.354 13.353 6.084
356 30 11 +0.06 19.371 12.342 5.029
357 30 11 +0.06 17.662 11.919 5.288
358 30 11 +0.06 19.575 11.580 11.249
359 30 11 +0.06 20.000 13.052 10.343
360 30 11 +0.06 18.291 12.629 10.602
361 31 9 +0.52 10.925 18.567 11.518
362 31 20 -0.50 11.085 19.691 11.908
363 31 19 -0.35 9.690 18.151 11.129
364 31 19 -0.35 11.980 17.710 11.463
365 31 1 +0.22 8.644 19.122 11.221
366 31 1 +0.22 13.238 18.237 11.892
367 31 11 +0.06 9.050 20.059 11.603
368 31 11 +0.06 8.215 19.289 10.233
369 31 11 +0.06 7.870 18.759 11.897
370 31 11 +0.06 14.004 17.465 11.805
371 31 11 +0.06 13.509 19.087 11.267
372 31 11 +0.06 13.164 18.558 12.931
373 32 9 +0.52 7.092 6.254 10.399
374 32 20 -0.50 6.318 6.776 11.154
375 32 19 -0.35 6.629 5.502 9.364
376 32 19 -0.35 8.430 6.414 10.579
377 32 1 +0.22 5.208 5.392 9.257
378 32 1 +0.22 8.821 7.221 11.693
379 32 11 +0.06 4.737 5.956 10.061
380 32 11 +0.06 4.884 5.790 8.295
381 32 11 +0.06 4.918 4.343 9.331
382 32 11 +0.06 9.909 7.278 11.737
383 32 11 +0.06 8.410 8.224 11.578
384 32 11 +0.06 8.444 6.777 12.614
385 33 9 +0.52 10.479 12.686 11.337
386 33 20 -0.50 10.329 11.929 10.418
387 33 19 -0.35 9.724 12.551 12.460
388 33 19 -0.35 11.405 13.680 11.255
389 33 1 +0.22 8.778 11.478 12.453
390 33 1 +0.22 12.150 13.742 10.036
391 33 11 +0.06 8.842 10.943 11.506
392 33 11 +0.06 9.000 10.794 13.273
393 33 11 +0.06 7.772 11.880 12.578
394 33 11 +0.06 12.857 14.572 10.085
395 33 11 +0.06 12.696 12.810 9.895
396 33 11 +0.06 11.469 13.895 9.200
397 34 9 +0.52 7.862 11.233 7.615
398 34 20 -0.50 7.222 10.410 7.021
399 34 19 -0.35 8.310 10.970 8.872
400 34 19 -0.35 8.138 12.430 7.031
401 34 1 +0.22 7.970 9.686 9.402
402 34 1 +0.22 7.625 12.616 5.710
403 34 11 +0.06 7.388 9.131 8.667
404 34 11 +0.06 8.882 9.135 9.634
405 34 11 +0.06 7.382 9.812 10.311
406 34 11 +0.06 7.907 13.605 5.345
407 34 11 +0.06 8.039 11.855 5.048
408 34 11 +0.06 6.538 12.532 5.725
409 35 9 +0.52 13.193 12.421 12.581
410 35 20 -0.50 13.361 12.553 13.761
411 35 19 -0.35 13.883 13.199 11.704
412 35 19 -0.35 12.311 11.495 12.119
413 35 1 +0.22 14.787 14.144 12.283
414 35 1 +0.22 11.632 10.725 13.115
415 35 11 +0.06 14.753 14.062 13.369
416 35 11 +0.06 15.799 13.939 11.934
417 35 11 +0.06 14.498 15.152 11.985
418 35 11 +0.06 10.955 10.019 12.631
419 35 11 +0.06 12.361 10.177 13.711
420 35 11 +0.06 11.060 11.390 13.762
421 36 9 +0.52 10.964 3.484 4.196
422 36 20 -0.50 10.277 3.259 5.154
423 36 19 -0.35 12.064 2.722 3.953
424 36 19 -0.35 10.641 4.501 3.353
425 36 1 +0.22 12.322 1.677 4.894
426 36 1 +0.22 9.468 5.246 3.689
427 36 11 +0.06 11.554 1.685 5.667
428 36 11 +0.06 12.311 0.715 4.381
429 36 11 +0.06 13.299 1.833 5.351
430 36 11 +0.06 9.309 6.030 2.947
431 36 11 +0.06 8.605 4.580 3.703
432 36 11 +0.06 9.593 5.698 4.673
433 37 9 +0.52 6.471 3.008 18.389
434 37 20 -0.50 6.876 1.916 18.679
435 37 19 -0.35 5.176 3.172 18.005
436 37 19 -0.35 7.305 4.080 18.443
437 37 1 +0.22 4.375 1.988 17.979
438 37 1 +0.22 8.647 3.810 18.857
439 37 11 +0.06 4.979 1.133 18.285
440 37 11 +0.06 3.534 2.102 18.663
441 37 11 +0.06 4.001 1.824 16.968
442 37 11 +0.06 9.220 4.738 18.862
443 37 11 +0.06 8.640 3.382 19.859
444 37 11 +0.06 9.107 3.105 18.164
445 38 9 +0.52 3.925 19.034 12.563
446 38 20 -0.50 4.771 19.885 12.539
447 38 19 -0.35 3.323 18.641 11.408
448 38 19 -0.35 3.569 18.462 13.744
449 38 1 +0.22 3.763 19.298 10.217
450 38 1 +0.22 4.257 18.940 14.904
451 38 11 +0.06 4.535 20.026 10.467
452 38 11 +0.06 4.169 18.561 9.524
453 38 11 +0.06 2.920 19.808 9.751
454 38 11 +0.06 3.891 18.413 15.786
455 38 11 +0.06 5.326 18.761 14.792
456 38 11 +0.06 4.076 20.008 15.019
457 39 9 +0.52 8.763 14.375 2.697
458 39 20 -0.50 8.581 14.589 1.531
459 39 19 -0.35 9.356 15.318 3.477
460 39 19 -0.35 8.375 13.189 3.240
461 39 1 +0.22 9.729 16.531 2.819
462 39 1 +0.22 7.760 12.261 2.343
463 39 11 +0.06 9.456 16.472 1.765
464 39 11 +0.06 9.210 17.371 3.282
465 39 11 +0.06 10.806 16.677 2.907
466 39 11 +0.06 7.493 11.353 2.885
467 39 11 +0.06 6.861 12.707 1.917
468 39 11 +0.06 8.457 12.013 1.542
469 40 9 +0.52 17.675 9.731 7.091
470 40 20 -0.50 18.139 9.300 8.110
471 40 19 -0.35 16.789 10.763 7.130
472 40 19 -0.35 18.034 9.188 5.896
473 40 1 +0.22 16.473 11.267 8.430
474 40 1 +0.22 18.969 8.109 5.955
475 40 11 +0.06 17.026 10.706 9.183
476 40 11 +0.06 16.748 12.321 8.488
477 40 11 +0.06 15.403 11.161 8.611
478 40 11 +0.06 19.181 7.756 4.944
479 40 11 +0.06 19.893 8.452 6.420
480 40 11 +0.06 18.548 7.293 6.543
481 41 9 +0.52 5.715 9.750 17.117
482 41 20 -0.50 5.851 8.570 16.948
483 41 19 -0.35 6.754 10.595 16.879
484 41 19 -0.35 4.522 10.243 17.546
485 41 1 +0.22 7.967 9.985 16.430
486 41 1 +0.22 3.490 9.279 17.769
487 41 11 +0.06 7.828 8.907 16.359
488 41 11 +0.06 8.233 10.383 15.450
489 41 11 +0.06 8.767 10.202 17.139
490 41 11 +0.06 2.586 9.786 18.109
491 41 11 +0.06 3.281 8.748 16.841
492 41 11 +0.06 3.814 8.568 18.529
493 42 9 +0.52 4.113 12.292 4.275
494 42 20 -0.50 3.585 13.369 4.241
495 42 19 -0.35 4.327 11.603 3.122
496 42 19 -0.35 4.497 11.760 5.467
497 42 1 +0.22 3.890 12.241 1.920
498 42 1 +0.22 4.230 12.558 6.623
499 42 11 +0.06 3.445 13.206 2.162
500 42 11 +0.06 4.742 12.390 1.256
501 42 11 +0.06 3.149 11.614 1.424
502 42 11 +0.06 4.579 12.034 7.514
503 42 11 +0.06 4.751 13.511 6.536
504 42 11 +0.06 3.158 12.735 6.704
505 43 9 +0.52 15.986 16.873 9.368
506 43 20 -0.50 15.276 16.533 10.274
507 43 19 -0.35 17.320 16.608 9.413
508 43 19 -0.35 15.458 17.524 8.297
509 43 1 +0.22 17.783 15.921 10.578
510 43 1 +0.22 14.048 17.758 8.339
511 43 11 +0.06 16.942 15.728 11.245
512 43 11 +0.06 18.238 14.975 10.285
513 43 11 +0.06 18.521 16.535 11.093
514 43 11 +0.06 13.739 18.282 7.434
515 43 11 +0.06 13.522 16.805 8.402
516 43 11 +0.06 13.805 18.365 9.210
517 44 9 +0.52 10.633 15.442 16.490
518 44 20 -0.50 11.663 15.374 17.103
519 44 19 -0.35 10.077 16.656 16.227
520 44 19 -0.35 10.022 14.306 16.059
521 44 1 +0.22 10.792 17.792 16.720
522 44 1 +0.22 10.680 13.079 16.382
523 44 11 +0.06 11.691 17.459 17.239
524 44 11 +0.06 11.071 18.436 15.886
525 44 11 +0.06 10.158 18.348 17.411
526 44 11 +0.06 10.103 12.242 15.988
527 44 11 +0.06 11.676 13.072 15.940
528 44 11 +0.06 10.763 12.985 17.465
529 45 9 +0.52 16.653 7.492 1.809
530 45 20 -0.50 15.517 7.132 1.672
531 45 19 -0.35 16.950 8.819 1.822
532 45 19 -0.35 17.645 6.572 1.951
533 45 1 +0.22 15.843 9.710 1.666
534 45 1 +0.22 17.237 5.202 1.925
535 45 11 +0.06 14.924 9.133 1.560
536 45 11 +0.06 15.768 10.355 2.542
537 45 11 +0.06 15.992 10.322 0.776
538 45 11 +0.06 18.110 4.559 2.047
539 45 11 +0.06 16.534 5.015 2.737
540 45 11 +0.06 16.757 4.983 0.971
541 46 9 +0.52 0.991 7.307 13.172
542 46 20 -0.50 -0.004 7.969 13.283
543 46 19 -0.35 2.289 7.795 12.847
544 46 19 -0.35 1.081 5.896 13.343
545 46 2 +0.22 3.181 6.685 12.817
546 46 2 +0.22 2.434 5.512 13.124
547 46 11 +0.06 3.530 6.583 11.790
548 46 11 +0.06 3.898 6.829 13.625
549 46 11 +0.06 2.448 4.882 12.234
550 46 11 +0.06 2.816 5.128 14.070
551 47 9 +0.52 10.225 10.824 4.633
552 47 20 -0.50 9.389 10.122 5.131
553 47 19 -0.35 10.078 12.206 4.319
554 47 19 -0.35 11.537 10.424 4.253
555 47 2 +0.22 11.299 12.659 3.745
556 47 2 +0.22 12.201 11.557 3.704
557 47 11 +0.06 11.085 12.935 2.712
558 47 11 +0.06 11.722 13.393 4.429
559 47 11 +0.06 12.392 11.339 2.653
560 47 11 +0.06 13.030 11.797 4.370
561 48 9 +0.52 6.974 3.149 16.111
562 48 20 -0.50 7.208 1.972 16.106
563 48 19 -0.35 5.693 3.749 15.948
564 48 19 -0.35 7.929 4.192 16.281
565 48 2 +0.22 5.856 5.161 16.017
566 48 2 +0.22 7.239 5.435 16.223
567 48 11 +0.06 5.593 5.563 15.039
568 48 11 +0.06 5.327 5.502 16.907
569 48 11 +0.06 7.596 5.959 15.337
570 48 11 +0.06 7.331 5.899 17.205
571 49 9 +0.52 5.335 6.770 4.605
572 49 20 -0.50 4.985 5.634 4.775
573 49 19 -0.35 6.677 7.219 4.455
574 49 19 -0.35 4.479 7.904 4.519
575 49 2 +0.22 6.652 8.631 4.276
576 49 2 +0.22 5.293 9.055 4.315
577 49 11 +0.06 7.150 9.073 5.139
578 49 11 +0.06 7.021 8.833 3.270
579 49 11 +0.06 5.180 9.687 5.195
580 49 11 +0.06 5.051 9.447 3.327
581 50 9 +0.52 16.116 13.175 17.204
582 50 20 -0.50 15.580 14.249 17.214
583 50 19 -0.35 17.520 12.940 17.172
584 50 19 -0.35 15.459 11.912 17.223
585 50 2 +0.22 17.731 11.532 17.171
586 50 2 +0.22 16.457 10.896 17.202
587 50 11 +0.06 18.192 11.278 16.216
588 50 11 +0.06 18.236 11.283 18.104
589 50 11 +0.06 16.346 10.356 16.262
590 50 11 +0.06 16.390 10.361 18.150
591 51 9 +0.52 6.655 14.461 19.346
592 51 20 -0.50 5.614 13.955 19.662
593 51 19 -0.35 6.836 15.440 18.329
594 51 19 -0.35 7.928 14.187 19.924
595 51 2 +0.22 8.219 15.772 18.278
596 51 2 +0.22 8.894 14.997 19.264
597 51 11 +0.06 8.591 15.447 17.306
598 51 11 +0.06 8.310 16.817 18.574
599 51 11 +0.06 9.569 14.324 18.735
600 51 11 +0.06 9.288 15.694 20.003
601 52 9 +0.52 4.838 9.800 8.731
602 52 20 -0.50 5.736 10.531 9.046
603 52 19 -0.35 4.943 8.402 8.486
604 52 19 -0.35 3.479 10.180 8.537
605 52 2 +0.22 3.650 7.917 8.140
606 52 2 +0.22 2.745 9.016 8.172
607 52 11 +0.06 3.702 7.574 7.107
608 52 11 +0.06 3.345 7.228 8.928
609 52 11 +0.06 2.390 9.167 7.152
610 52 11 +0.06 2.033 8.821 8.974
611 53 9 +0.52 6.839 3.778 5.337
612 53 20 -0.50 6.518 4.700 6.036
613 53 19 -0.35 6.031 3.165 4.337
614 53 19 -0.35 8.094 3.106 5.361
615 53 2 +0.22 6.787 2.115 3.744
616 53 2 +0.22 8.062 2.078 4.377
617 53 11 +0.06 6.282 1.180 3.988
618 53 11 +0.06 6.954 2.389 2.703
619 53 11 +0.06 8.130 1.127 4.905
620 53 11 +0.06 8.802 2.336 3.620
621 54 9 +0.52 6.556 2.680 10.934
622 54 20 -0.50 6.569 3.877 10.846
623 54 19 -0.35 5.415 1.842 10.783
624 54 19 -0.35 7.679 1.849 11.209
625 54 2 +0.22 5.833 0.494 10.964
626 54 2 +0.22 7.232 0.498 11.227
627 54 11 +0.06 5.339 0.123 11.862
628 54 11 +0.06 5.688 -0.017 10.012
629 54 11 +0.06 7.367 0.129 12.244
630 54 11 +0.06 7.716 -0.011 10.394
631 55 9 +0.52 14.614 3.650 0.722
632 55 20 -0.50 15.662 3.171 0.386
633 55 19 -0.35 13.860 4.611 -0.010
634 55 19 -0.35 13.906 3.357 1.922
635 55 2 +0.22 12.686 4.911 0.738
636 55 2 +0.22 12.715 4.136 1.932
637 55 11 +0.06 12.754 5.958 1.034
638 55 11 +0.06 11.835 4.564 0.152
639 55 11 +0.06 12.796 4.834 2.765
640 55 11 +0.06 11.877 3.441 1.883
641 56 9 +0.52 10.015 7.899 17.111
642 56 20 -0.50 9.976 7.770 18.304
643 56 19 -0.35 9.207 7.205 16.167
644 56 19 -0.35 10.877 8.775 16.392
645 56 2 +0.22 9.569 7.651 14.865
646 56 2 +0.22 10.602 8.622 15.004
647 56 11 +0.06 10.001 6.798 14.342
648 56 11 +0.06 8.702 8.164 14.449
649 56 11 +0.06 11.497 8.205 14.544
650 56 11 +0.06 10.199 9.571 14.650
651 57 9 +0.52 12.158 2.878 14.867
652 57 20 -0.50 12.305 2.371 15.944
653 57 19 -0.35 11.561 2.266 13.728
654 57 19 -0.35 12.550 4.197 14.502
655 57 2 +0.22 11.584 3.207 12.660
656 57 2 +0.22 12.195 4.401 13.139
657 57 11 +0.06 12.237 2.800 11.888
658 57 11 +0.06 10.548 3.450 12.425
659 57 11 +0.06 13.123 4.531 12.582
660 57 11 +0.06 11.434 5.181 13.119
661 58 9 +0.52 19.212 1.798 19.593
662 58 20 -0.50 20.004 0.994 20.001
663 58 19 -0.35 19.254 3.203 19.819
664 58 19 -0.35 18.065 1.514 18.799
665 58 2 +0.22 18.134 3.788 19.164
666 58 2 +0.22 17.399 2.744 18.533
667 58 11 +0.06 17.492 4.207 19.939
668 58 11 +0.06 18.523 4.428 18.373
669 58 11 +0.06 16.427 2.694 19.025
670 58 11 +0.06 17.458 2.915 17.458
671 59 9 +0.52 4.570 15.756 10.904
672 59 20 -0.50 3.618 15.082 10.620
673 59 19 -0.35 5.540 16.260 9.992
674 59 19 -0.35 4.927 16.191 12.212
675 59 2 +0.22 6.496 17.008 10.736
676 59 2 +0.22 6.118 16.965 12.108
677 59 11 +0.06 7.449 16.484 10.650
678 59 11 +0.06 6.414 18.045 10.413
679 59 11 +0.06 6.900 16.422 12.639
680 59 11 +0.06 5.865 17.984 12.402
681 60 9 +0.52 17.200 16.023 2.632
682 60 20 -0.50 16.152 15.642 3.075
683 60 19 -0.35 18.492 15.627 3.082
684 60 19 -0.35 17.371 16.949 1.564
685 60 2 +0.22 19.461 16.308 2.292
686 60 2 +0.22 18.768 17.126 1.354
687 60 11 +0.06 20.005 16.977 2.959
688 60 11 +0.06 19.999 15.552 1.722
689 60 11 +0.06 19.001 18.162 1.599
690 60 11 +0.06 18.995 16.736 0.362
691 61 9 +0.52 4.614 3.651 2.726
692 61 20 -0.50 5.415 4.421 2.274
693 61 19 -0.35 4.761 2.237 2.800
694 61 19 -0.35 3.348 3.991 3.283
695 61 2 +0.22 3.587 1.703 3.403
696 61 2 +0.22 2.713 2.787 3.701
697 61 11 +0.06 3.091 1.090 2.650
698 61 11 +0.06 3.886 1.262 4.354
699 61 11 +0.06 1.825 2.662 3.083
700 61 11 +0.06 2.620 2.834 4.786
701 62 9 +0.52 5.489 12.108 14.577
702 62 20 -0.50 6.343 11.294 14.793
703 62 19 -0.35 5.692 13.415 14.049
704 62 19 -0.35 4.093 11.938 14.804
705 62 2 +0.22 4.423 14.052 13.950
706 62 2 +0.22 3.435 13.140 14.417
707 62 11 +0.06 4.433 14.895 14.642
708 62 11 +0.06 4.230 14.219 12.891
709 62 11 +0.06 3.000 13.572 15.318
710 62 11 +0.06 2.798 12.896 13.567
711 63 9 +0.52 15.251 4.857 9.107
712 63 20 -0.50 14.982 3.771 9.542
713 63 19 -0.35 14.620 6.082 9.466
714 63 19 -0.35 16.257 5.146 8.142
715 63 2 +0.22 15.236 7.128 8.723
716 63 2 +0.22 16.247 6.550 7.904
717 63 11 +0.06 14.478 7.536 8.055
718 63 11 +0.06 15.737 7.778 9.440
719 63 11 +0.06 15.944 6.698 6.868
720 63 11 +0.06 17.203 6.940 8.253
721 64 9 +0.52 3.394 16.483 3.389
722 64 20 -0.50 4.172 15.573 3.467
723 64 19 -0.35 3.707 17.823 3.024
724 64 19 -0.35 1.995 16.412 3.646
725 64 2 +0.22 2.502 18.581 3.056
726 64 2 +0.22 1.444 17.709 3.440
727 64 11 +0.06 2.610 19.322 3.848
728 64 11 +0.06 2.298 18.900 2.034
729 64 11 +0.06 1.076 18.058 4.405
730 64 11 +0.06 0.764 17.636 2.591
731 65 31 1.0 9.277 4.920 13.456
732 66 31 1.0 12.112 19.307 3.812
733 67 31 1.0 11.887 5.338 19.052
734 68 31 1.0 2.173 3.019 9.937
735 69 31 1.0 7.582 12.520 16.148
736 70 27 +1.34 7.871 13.758 9.722
737 70 26 -0.39 7.562 12.364 10.422
738 70 26 -0.39 8.179 15.152 9.023
739 70 26 -0.39 6.866 13.390 8.546
740 70 26 -0.39 8.875 14.126 10.899
741 70 26 -0.39 9.064 13.088 8.913
742 70 26 -0.39 6.678 14.429 10.532
743 71 27 +1.34 14.186 8.970 4.639
744 71 26 -0.39 14.576 8.153 5.945
745 71 26 -0.39 13.796 9.788 3.332
746 71 26 -0.39 15.427 9.936 4.872
747 71 26 -0.39 12.945 8.005 4.405
748 71 26 -0.39 13.272 9.933 5.513
749 71 26 -0.39 15.100 8.007 3.764
750 72 27 +1.34 18.880 3.905 5.474
751 72 26 -0.39 18.728 5.225 4.601
752 72 26 -0.39 19.032 2.585 6.347
753 72 26 -0.39 17.760 3.196 4.596
754 72 26 -0.39 20.000 4.614 6.352
755 72 26 -0.39 17.762 4.436 6.472
756 72 26 -0.39 19.998 3.374 4.476
757 73 27 +1.34 12.860 9.292 10.141
758 73 26 -0.39 12.119 10.697 10.078
759 73 26 -0.39 13.602 7.887 10.204
760 73 26 -0.39 11.454 8.551 10.163
761 73 26 -0.39 14.267 10.033 10.119
762 73 26 -0.39 12.850 9.358 11.730
763 73 26 -0.39 12.871 9.226 8.552
764 74 27 +1.34 14.263 17.500 3.563
765 74 26 -0.39 14.278 18.527 4.777
766 74 26 -0.39 14.248 16.473 2.350
767 74 26 -0.39 15.799 17.803 3.287
768 74 26 -0.39 12.727 17.196 3.839
769 74 26 -0.39 13.853 18.675 2.574
770 74 26 -0.39 14.673 16.325 4.553

Bonds

1 8 1 2
2 7 1 3
3 7 1 4
4 7 3 5
5 7 4 6
6 4 5 7
7 4 5 8
8 4 5 9
9 4 6 10
10 4 6 11
11 4 6 12
12 8 13 14
13 7 13 15
14 7 13 16
15 7 15 17
16 7 16 18
17 4 17 19
18 4 17 20
19 4 17 21
20 4 18 22
21 4 18 23
22 4 18 24
23 8 25 26
24 7 25 27
25 7 25 28
26 7 27 29
27 7 28 30
28 4 29 31
29 4 29 32
30 4 29 33
31 4 30 34
32 4 30 35
33 4 30 36
34 8 37 38
35 7 37 39
36 7 37 40
37 7 39 41
38 7 40 42
39 4 41 43
40 4 41 44
41 4 41 45
42 4 42 46
43 4 42 47
44 4 42 48
45 8 49 50
46 7 49 51
47 7 49 52
48 7 51 53
49 7 52 54
50 4 53 55
51 4 53 56
52 4 53 57
53 4 54 58
54 4 54 59
55 4 54 60
56 8 61 62
57 7 61 63
58 7 61 64
59 7 63 65
60 7 64 66
61 4 65 67
62 4 65 68
63 4 65 69
64 4 66 70
65 4 66 71
66 4 66 72
67 8 73 74
68 7 73 75
69 7 73 76
70 7 75 77
71 7 76 78
72 4 77 79
73 4 77 80
74 4 77 81
75 4 78 82
76 4 78 83
77 4 78 84
78 8 85 86
79 7 85 87
80 7 85 88
81 7 87 89
82 7 88 90
83 4 89 91
84 4 89 92
85 4 89 93
86 4 90 94
87 4 90 95
88 4 90 96
89 8 97 98
90 7 97 99
91 7 97 100
92 7 99 101
93 7 100 102
94 4 101 103
95 4 101 104
96 4 101 105
97 4 102 106
98 4 102 107
99 4 102 108
100 8 109 110
101 7 109 111
102 7 109 112
103 7 111 113
104 7 112 114
105 4 113 115
106 4 113 116
107 4 113 117
108 4 114 118
109 4 114 119
110 4 114 120
111 8 121 122
112 7 121 123
113 7 121 124
114 7 123 125
115 7 124 126
116 4 125 127
117 4 125 128
118 4 125 129
119 4 126 130
120 4 126 131
121 4 126 132
122 8 133 134
123 7 133 135
124 7 133 136
125 7 135 137
126 7 136 138
127 4 137 139
128 4 137 140
129 4 137 141
130 4 138 142
131 4 138 143
132 4 138 144
133 8 145 146
134 7 145 147
135 7 145 148
136 7 147 149
137 7 148 150
138 4 149 151
139 4 149 152
140 4 149 153
141 4 150 154
142 4 150 155
143 4 150 156
144 8 157 158
145 7 157 159
146 7 157 160
147 7 159 161
148 7 160 162
149 4 161 163
150 4 161 164
151 4 161 165
152 4 162 166
153 4 162 167
154 4 162 168
155 8 169 170
156 7 169 171
157 7 169 172
158 7 171 173
159 7 172 174
160 4 173 175
161 4 173 176
162 4 173 177
163 4 174 178
164 4 174 179
165 4 174 180
166 8 181 182
167 7 181 183
168 7 181 184
169 7 183 185
170 7 184 186
171 4 185 187
172 4 185 188
173 4 185 189
174 4 186 190
175 4 186 191
176 4 186 192
177 8 193 194
178 7 193 195
179 7 193 196
180 7 195 197
181 7 196 198
182 4 197 199
183 4 197 200
184 4 197 201
185 4 198 202
186 4 198 203
187 4 198 204
188 8 205 206
189 7 205 207
190 7 205 208
191 7 207 209
192 7 208 210
193 4 209 211
194 4 209 212
195 4 209 213
196 4 210 214
197 4 210 215
198 4 210 216
199 8 217 218
200 7 217 219
201 7 217 220
202 7 219 221
203 7 220 222
204 4 221 223
205 4 221 224
206 4 221 225
207 4 222 226
208 4 222 227
209 4 222 228
210 8 229 230
211 7 229 231
212 7 229 232
213 7 231 233
214 7 232 234
215 4 233 235
216 4 233 236
217 4 233 237
218 4 234 238
219 4 234 239
220 4 234 240
221 8 241 242
222 7 241 243
223 7 241 244
224 7 243 245
225 7 244 246
226 4 245 247
227 4 245 248
228 4 245 249
229 4 246 250
230 4 246 251
231 4 246 252
232 8 253 254
233 7 253 255
234 7 253 256
235 7 255 257
236 7 256 258
237 4 257 259
238 4 257 260
239 4 257 261
240 4 258 262
241 4 258 263
242 4 258 264
243 8 265 266
244 7 265 267
245 7 265 268
246 7 267 269
247 7 268 270
248 4 269 271
249 4 269 272
250 4 269 273
251 4 270 274
252 4 270 275
253 4 270 276
254 8 277 278
255 7 277 279
256 7 277 280
257 7 279 281
258 7 280 282
259 4 281 283
260 4 281 284
261 4 281 285
262 4 282 286
263 4 282 287
264 4 282 288
265 8 289 290
266 7 289 291
267 7 289 292
268 7 291 293
269 7 292 294
270 4 293 295
271 4 293 296
272 4 293 297
273 4 294 298
274 4 294 299
275 4 294 300
276 8 301 302
277 7 301 303
278 7 301 304
279 7 303 305
280 7 304 306
281 4 305 307
282 4 305 308
283 4 305 309
284 4 306 310
285 4 306 311
286 4 306 312
287 8 313 314
288 7 313 315
289 7 313 316
290 7 315 317
291 7 316 318
292 4 317 319
293 4 317 320
294 4 317 321
295 4 318 322
296 4 318 323
297 4 318 324
298 8 325 326
299 7 325 327
300 7 325 328
301 7 327 329
302 7 328 330
303 4 329 331
304 4 329 332
305 4 329 333
306 4 330 334
307 4 330 335
308 4 330 336
309 8 337 338
310 7 337 339
311 7 337 340
312 7 339 341
313 7 340 342
314 4 341 343
315 4 341 344
316 4 341 345
317 4 342 346
318 4 342 347
319 4 342 348
320 8 349 350
321 7 349 351
322 7 349 352
323 7 351 353
324 7 352 354
325 4 353 355
326 4 353 356
327 4 353 357
328 4 354 358
329 4 354 359
330 4 354 360
331 8 361 362
332 7 361 363
333 7 361 364
334 7 363 365
335 7 364 366
336 4 365 367
337 4 365 368
338 4 365 369
339 4 366 370
340 4 366 371
341 4 366 372
342 8 373 374
343 7 373 375
344 7 373 376
345 7 375 377
346 7 376 378
347 4 377 379
348 4 377 380
349 4 377 381
350 4 378 382
351 4 378 383
352 4 378 384
353 8 385 386
354 7 385 387
355 7 385 388
356 7 387 389
357 7 388 390
358 4 389 391
359 4 389 392
360 4 389 393
361 4 390 394
362 4 390 395
363 4 390 396
364 8 397 398
365 7 397 399
366 7 397 400
367 7 399 401
368 7 400 402
369 4 401 403
370 4 401 404
371 4 401 405
372 4 402 406
373 4 402 407
374 4 402 408
375 8 409 410
376 7 409 411
377 7 409 412
378 7 411 413
379 7 412 414
380 4 413 415
381 4 413 416
382 4 413 417
383 4 414 418
384 4 414 419
385 4 414 420
386 8 421 422
387 7 421 423
388 7 421 424
389 7 423 425
390 7 424 426
391 4 425 427
392 4 425 428
393 4 425 429
394 4 426 430
395 4 426 431
396 4 426 432
397 8 433 434
398 7 433 435
399 7 433 436
400 7 435 437
401 7 436 438
402 4 437 439
403 4 437 440
404 4 437 441
405 4 438 442
406 4 438 443
407 4 438 444
408 8 445 446
409 7 445 447
410 7 445 448
411 7 447 449
412 7 448 450
413 4 449 451
414 4 449 452
415 4 449 453
416 4 450 454
417 4 450 455
418 4 450 456
419 8 457 458
420 7 457 459
421 7 457 460
422 7 459 461
423 7 460 462
424 4 461 463
425 4 461 464
426 4 461 465
427 4 462 466
428 4 462 467
429 4 462 468
430 8 469 470
431 7 469 471
432 7 469 472
433 7 471 473
434 7 472 474
435 4 473 475
436 4 473 476
437 4 473 477
438 4 474 478
439 4 474 479
440 4 474 480
441 8 481 482
442 7 481 483
443 7 481 484
444 7 483 485
445 7 484 486
446 4 485 487
447 4 485 488
448 4 485 489
449 4 486 490
450 4 486 491
451 4 486 492
452 8 493 494
453 7 493 495
454 7 493 496
455 7 495 497
456 7 496 498
457 4 497 499
458 4 497 500
459 4 497 501
460 4 498 502
461 4 498 503
462 4 498 504
463 8 505 506
464 7 505 507
465 7 505 508
466 7 507 509
467 7 508 510
468 4 509 511
469 4 509 512
470 4 509 513
471 4 510 514
472 4 510 515
473 4 510 516
474 8 517 518
475 7 517 519
476 7 517 520
477 7 519 521
478 7 520 522
479 4 521 523
480 4 521 524
481 4 521 525
482 4 522 526
483 4 522 527
484 4 522 528
485 8 529 530
486 7 529 531
487 7 529 532
488 7 531 533
489 7 532 534
490 4 533 535
491 4 533 536
492 4 533 537
493 4 534 538
494 4 534 539
495 4 534 540
496 8 541 542
497 7 541 543
498 7 541 544
499 7 543 546
500 7 544 545
501 1 545 546
502 4 546 547
503 4 546 548
504 4 545 549
505 4 545 550
506 8 551 552
507 7 551 553
508 7 551 554
509 7 553 556
510 7 554 555
511 1 555 556
512 4 556 557
513 4 556 558
514 4 555 559
515 4 555 560
516 8 561 562
517 7 561 563
518 7 561 564
519 7 563 566
520 7 564 565
521 1 565 566
522 4 566 567
523 4 566 568
524 4 565 569
525 4 565 570
526 8 571 572
527 7 571 573
528 7 571 574
529 7 573 576
530 7 574 575
531 1 575 576
532 4 576 577
533 4 576 578
534 4 575 579
535 4 575 580
536 8 581 582
537 7 581 583
538 7 581 584
539 7 583 586
540 7 584 585
541 1 585 586
542 4 586 587
543 4 586 588
544 4 585 589
545 4 585 590
546 8 591 592
547 7 591 593
548 7 591 594
549 7 593 596
550 7 594 595
551 1 595 596
552 4 596 597
553 4 596 598
554 4 595 599
555 4 595 600
556 8 601 602
557 7 601 603
558 7 601 604
559 7 603 606
560 7 604 605
561 1 605 606
562 4 606 607
563 4 606 608
564 4 605 609
565 4 605 610
566 8 611 612
567 7 611 613
568 7 611 614
569 7 613 616
570 7 614 615
571 1 615 616
572 4 616 617
573 4 616 618
574 4 615 619
575 4 615 620
576 8 621 622
577 7 621 623
578 7 621 624
579 7 623 626
580 7 624 625
581 1 625 626
582 4 626 627
583 4 626 628
584 4 625 629
585 4 625 630
586 8 631 632
587 7 631 633
588 7 631 634
589 7 633 636
590 7 634 635
591 1 635 636
592 4 636 637
593 4 636 638
594 4 635 639
595 4 635 640
596 8 641 642
597 7 641 643
598 7 641 644
599 7 643 646
600 7 644 645
601 1 645 646
602 4 646 647
603 4 646 648
604 4 645 649
605 4 645 650
606 8 651 652
607 7 651 653
608 7 651 654
609 7 653 656
610 7 654 655
611 1 655 656
612 4 656 657
613 4 656 658
614 4 655 659
615 4 655 660
616 8 661 662
617 7 661 663
618 7 661 664
619 7 663 666
620 7 664 665
621 1 665 666
622 4 666 667
623 4 666 668
624 4 665 669
625 4 665 670
626 8 671 672
627 7 671 673
628 7 671 674
629 7 673 676
630 7 674 675
631 1 675 676
632 4 676 677
633 4 676 678
634 4 675 679
635 4 675 680
636 8 681 682
637 7 681 683
638 7 681 684
639 7 683 686
640 7 684 685
641 1 685 686
642 4 686 687
643 4 686 688
644 4 685 689
645 4 685 690
646 8 691 692
647 7 691 693
648 7 691 694
649 7 693 696
650 7 694 695
651 1 695 696
652 4 696 697
653 4 696 698
654 4 695 699
655 4 695 700
656 8 701 702
657 7 701 703
658 7 701 704
659 7 703 706
660 7 704 705
661 1 705 706
662 4 706 707
663 4 706 708
664 4 705 709
665 4 705 710
666 8 711 712
667 7 711 713
668 7 711 714
669 7 713 716
670 7 714 715
671 1 715 716
672 4 716 717
673 4 716 718
674 4 715 719
675 4 715 720
676 8 721 722
677 7 721 723
678 7 721 724
679 7 723 726
680 7 724 725
681 1 725 726
682 4 726 727
683 4 726 728
684 4 725 729
685 4 725 730
686 15 736 737
687 15 736 738
688 15 736 739
689 15 736 740
690 15 736 741
691 15 736 742
692 15 743 744
693 15 743 745
694 15 743 746
695 15 743 747
696 15 743 748
697 15 743 749
698 15 750 751
699 15 750 752
700 15 750 753
701 15 750 754
702 15 750 755
703 15 750 756
704 15 757 758
705 15 757 759
706 15 757 760
707 15 757 761
708 15 757 762
709 15 757 763
710 15 764 765
711 15 764 766
712 15 764 767
713 15 764 768
714 15 764 769
715 15 764 770

Angles

1 11 2 1 3
2 11 2 1 4
3 12 3 1 4
4 9 1 3 5
5 9 1 4 6
6 4 3 5 7
7 4 3 5 8
8 4 3 5 9
9 4 4 6 10
10 4 4 6 11
11 4 4 6 12
12 7 7 5 8
13 7 7 5 9
14 7 8 5 9
15 7 10 6 11
16 7 10 6 12
17 7 11 6 12
18 11 14 13 15
19 11 14 13 16
20 12 15 13 16
21 9 13 15 17
22 9 13 16 18
23 4 15 17 19
24 4 15 17 20
25 4 15 17 21
26 4 16 18 22
27 4 16 18 23
28 4 16 18 24
29 7 19 17 20
30 7 19 17 21
31 7 20 17 21
32 7 22 18 23
33 7 22 18 24
34 7 23 18 24
35 11 26 25 27
36 11 26 25 28
37 12 27 25 28
38 9 25 27 29
39 9 25 28 30
40 4 27 29 31
41 4 27 29 32
42 4 27 29 33
43 4 28 30 34
44 4 28 30 35
45 4 28 30 36
46 7 31 29 32
47 7 31 29 33
48 7 32 29 33
49 7 34 30 35
50 7 34 30 36
51 7 35 30 36
52 11 38 37 39
53 11 38 37 40
54 12 39 37 40
55 9 37 39 41
56 9 37 40 42
57 4 39 41 43
58 4 39 41 44
59 4 39 41 45
60 4 40 42 46
61 4 40 42 47
62 4 40 42 48
63 7 43 41 44
64 7 43 41 45
65 7 44 41 45
66 7 46 42 47
67 7 46 42 48
68 7 47 42 48
69 11 50 49 51
70 11 50 49 52
71 12 51 49 52
72 9 49 51 53
73 9 49 52 54
74 4 51 53 55
75 4 51 53 56
76 4 51 53 57
77 4 52 54 58
78 4 52 54 59
79 4 52 54 60
80 7 55 53 56
81 7 55 53 57
82 7 56 53 57
83 7 58 54 59
84 7 58 54 60
85 7 59 54 60
86 11 62 61 63
87 11 62 61 64
88 12 63 61 64
89 9 61 63 65
90 9 61 64 66
91 4 63 65 67
92 4 63 65 68
93 4 63 65 69
94 4 64 66 70
95 4 64 66 71
96 4 64 66 72
97 7 67 65 68
98 7 67 65 69
99 7 68 65 69
100 7 70 66 71
101 7 70 66 72
102 7 71 66 72
103 11 74 73 75
104 11 74 73 76
105 12 75 73 76
106 9 73 75 77
107 9 73 76 78
108 4 75 77 79
109 4 75 77 80
110 4 75 77 81
111 4 76 78 82
112 4 76 78 83
113 4 76 78 84
114 7 79 77 80
115 7 79 77 81
116 7 80 77 81
117 7 82 78 83
118 7 82 78 84
119 7 83 78 84
120 11 86 85 87
121 11 86 85 88
122 12 87 85 88
123 9 85 87 89
124 9 85 88 90
125 4 87 89 91
126 4 87 89 92
127 4 87 89 93
128 4 88 90 94
129 4 88 90 95
130 4 88 90 96
131 7 91 89 92
132 7 91 89 93
133 7 92 89 93
134 7 94 90 95
135 7 94 90 96
136 7 95 90 96
137 11 98 97 99
138 11 98 97 100
139 12 99 97 100
140 9 97 99 101
141 9 97 100 102
142 4 99 101 103
143 4 99 101 104
144 4 99 101 105
145 4 100 102 106
146 4 100 102 107
147 4 100 102 108
148 7 103 101 104
149 7 103 101 105
150 7 104 101 105
151 7 106 102 107
152 7 106 102 108
153 7 107 102 108
154 11 110 109 111
155 11 110 109 112
156 12 111 109 112
157 9 109 111 113
158 9 109 112 114
159 4 111 113 115
160 4 111 113 116
161 4 111 113 117
162 4 112 114 118
163 4 112 114 119
164 4 112 114 120
165 7 115 113 116
166 7 115 113 117
167 7 116 113 117
168 7 118 114 119
169 7 118 114 120
170 7 119 114 120
171 11 122 121 123
172 11 122 121 124
173 12 123 121 124
174 9 121 123 125
175 9 121 124 126
176 4 123 125 127
177 4 123 125 128
178 4 123 125 129
179 4 124 126 130
180 4 124 126 131
181 4 124 126 132
182 7 127 125 128
183 7 127 125 129
184 7 128 125 129
185 7 130 126 131
186 7 130 126 132
187 7 131 126 132
188 11 134 133 135
189 11 134 133 136
190 12 135 133 136
191 9 133 135 137
192 9 133 136 138
193 4 135 137 139
194 4 135 137 140
195 4 135 137 141
196 4 136 138 142
197 4 136 138 143
198 4 136 138 144
199 7 139 137 140
200 7 139 137 141
201 7 140 137 141
202 7 142 138 143
203 7 142 138 144
204 7 143 138 144
205 11 146 145 147
206 11 146 145 148
207 12 147 145 148
208 9 145 147 149
209 9 145 148 150
210 4 147 149 151
211 4 147 149 152
212 4 147 149 153
213 4 148 150 154
214 4 148 150 155
215 4 148 150 156
216 7 151 149 152
217 7 151 149 153
218 7 152 149 153
219 7 154 150 155
220 7 154 150 156
221 7 155 150 156
222 11 158 157 159
223 11 158 157 160
224 12 159 157 160
225 9 157 159 161
226 9 157 160 162
227 4 159 161 163
228 4 159 161 164
229 4 159 161 165
230 4 160 162 166
231 4 160 162 167
232 4 160 162 168
233 7 163 161 164
234 7 163 161 165
235 7 164 161 165
236 7 166 162 167
237 7 166 162 168
238 7 167 162 168
239 11 170 169 171
240 11 170 169 172
241 12 171 169 172
242 9 169 171 173
243 9 169 172 174
244 4 171 173 175
245 4 171 173 176
246 4 171 173 177
247 4 172 174 178
248 4 172 174 179
249 4 172 174 180
250 7 175 173 176
251 7 175 173 177
252 7 176 173 177
253 7 178 174 179
254 7 178 174 180
255 7 179 174 180
256 11 182 181 183
257 11 182 181 184
258 12 183 181 184
259 9 181 183 185
260 9 181 184 186
261 4 183 185 187
262 4 183 185 188
263 4 183 185 189
264 4 184 186 190
265 4 184 186 191
266 4 184 186 192
267 7 187 185 188
268 7 187 185 189
269 7 188 185 189
270 7 190 186 191
271 7 190 186 192
272 7 191 186 192
273 11 194 193 195
274 11 194 193 196
275 12 195 193 196
276 9 193 195 197
277 9 193 196 198
278 4 195 197 199
279 4 195 197 200
280 4 195 197 201
281 4 196 198 202
282 4 196 198 203
283 4 196 198 204
284 7 199 197 200
285 7 199 197 201
286 7 200 197 201
287 7 202 198 203
288 7 202 198 204
289 7 203 198 204
290 11 206 205 207
291 11 206 205 208
292 12 207 205 208
293 9 205 207 209
294 9 205 208 210
295 4 207 209 211
296 4 207 209 212
297 4 207 209 213
298 4 208 210 214
299 4 208 210 215
300 4 208 210 216
301 7 211 209 212
302 7 211 209 213
303 7 212 209 213
304 7 214 210 215
305 7 214 210 216
306 7 215 210 216
307 11 218 217 219
308 11 218 217 220
309 12 219 217 220
310 9 217 219 221
311 9 217 220 222
312 4 219 221 223
313 4 219 221 224
314 4 219 221 225
315 4 220 222 226
316 4 220 222 227
317 4 220 222 228
318 7 223 221 224
319 7 223 221 225
320 7 224 221 225
321 7 226 222 227
322 7 226 222 228
323 7 227 222 228
324 11 230 229 231
325 11 230 229 232
326 12 231 229 232
327 9 229 231 233
328 9 229 232 234
329 4 231 233 235
330 4 231 233 236
331 4 231 233 237
332 4 232 234 238
333 4 232 234 239
334 4 232 234 240
335 7 235 233 236
336 7 235 233 237
337 7 236 233 237
338 7 238 234 239
339 7 238 234 240
340 7 239 234 240
341 11 242 241 243
342 11 242 241 244
343 12 243 241 244
344 9 241 243 245
345 9 241 244 246
346 4 243 245 247
347 4 243 245 248
348 4 243 245 249
349 4 244 246 250
350 4 244 246 251
351 4 244 246 252
352 7 247 245 248
353 7 247 245 249
354 7 248 245 249
355 7 250 246 251
356 7 250 246 252
357 7 251 246 252
358 11 254 253 255
359 11 254 253 256
360 12 255 253 256
361 9 253 255 257
362 9 253 256 258
363 4 255 257 259
364 4 255 257 260
365 4 255 257 261
366 4 256 258 262
367 4 256 258 263
368 4 256 258 264
369 7 259 257 260
370 7 259 257 261
371 7 260 257 261
372 7 262 258 263
373 7 262 258 264
374 7 263 258 264
375 11 266 265 267
376 11 266 265 268
377 12 267 265 268
378 9 265 267 269
379 9 265 268 270
380 4 267 269 271
381 4 267 269 272
382 4 267 269 273
383 4 268 270 274
384 4 268 270 275
385 4 268 270 276
386 7 271 269 272
387 7 271 269 273
388 7 272 269 273
389 7 274 270 275
390 7 274 270 276
391 7 275 270 276
392 11 278 277 279
393 11 278 277 280
394 12 279 277 280
395 9 277 279 281
396 9 277 280 282
397 4 279 281 283
398 4 279 281 284
399 4 279 281 285
400 4 280 282 286
401 4 280 282 287
402 4 280 282 288
403 7 283 281 284
404 7 283 281 285
405 7 284 281 285
406 7 286 282 287
407 7 286 282 288
408 7 287 282 288
409 11 290 289 291
410 11 290 289 292
411 12 291 289 292
412 9 289 291 293
413 9 289 292 294
414 4 291 293 295
415 4 291 293 296
416 4 291 293 297
417 4 292 294 298
418 4 292 294 299
419 4 292 294 300
420 7 295 293 296
421 7 295 293 297
422 7 296 293 297
423 7 298 294 299
424 7 298 294 300
425 7 299 294 300
426 11 302 301 303
427 11 302 301 304
428 12 303 301 304
429 9 301 303 305
430 9 301 304 306
431 4 303 305 307
432 4 303 305 308
433 4 303 305 309
434 4 304 306 310
435 4 304 306 311
436 4 304 306 312
437 7 307 305 308
438 7 307 305 309
439 7 308 305 309
440 7 310 306 311
441 7 310 306 312
442 7 311 306 312
443 11 314 313 315
444 11 314 313 316
445 12 315 313 316
446 9 313 315 317
447 9 313 316 318
448 4 315 317 319
449 4 315 317 320
450 4 315 317 321
451 4 316 318 322
452 4 316 318 323
453 4 316 318 324
454 7 319 317 320
455 7 319 317 321
456 7 320 317 321
457 7 322 318 323
458 7 322 318 324
459 7 323 318 324
460 11 326 325 327
461 11 326 325 328
462 12 327 325 328
463 9 325 327 329
464 9 325 328 330
465 4 327 329 331
466 4 327 329 332
467 4 327 329 333
468 4 328 330 334
469 4 328 330 335
470 4 328 330 336
471 7 331 329 332
472 7 331 329 333
473 7 332 329 333
474 7 334 330 335
475 7 334 330 336
476 7 335 330 336
477 11 338 337 339
478 11 338 337 340
479 12 339 337 340
480 9 337 339 341
481 9 337 340 342
482 4 339 341 343
483 4 339 341 344
484 4 339 341 345
485 4 340 342 346
486 4 340 342 347
487 4 340 342 348
488 7 343 341 344
489 7 343 341 345
490 7 344 341 345
491 7 346 342 347
492 7 346 342 348
493 7 347 342 348
494 11 350 349 351
495 11 350 349 352
496 12 351 349 352
497 9 349 351 353
498 9 349 352 354
499 4 351 353 355
500 4 351 353 356
501 4 351 353 357
502 4 352 354 358
503 4 352 354 359
504 4 352 354 360
505 7 355 353 356
506 7 355 353 357
507 7 356 353 357
508 7 358 354 359
509 7 358 354 360
510 7 359 354 360
511 11 362 361 363
512 11 362 361 364
513 12 363 361 364
514 9 361 363 365
515 9 361 364 366
516 4 363 365 367
517 4 363 365 368
518 4 363 365 369
519 4 364 366 370
520 4 364 366 371
521 4 364 366 372
522 7 367 365 368
523 7 367 365 369
524 7 368 365 369
525 7 370 366 371
526 7 370 366 372
527 7 371 366 372
528 11 374 373 375
529 11 374 373 376
530 12 375 373 376
531 9 373 375 377
532 9 373 376 378
533 4 375 377 379
534 4 375 377 380
535 4 375 377 381
536 4 376 378 382
537 4 376 378 383
538 4 376 378 384
539 7 379 377 380
540 7 379 377 381
541 7 380 377 381
542 7 382 378 383
543 7 382 378 384
544 7 383 378 384
545 11 386 385 387
546 11 386 385 388
547 12 387 385 388
548 9 385 387 389
549 9 385 388 390
550 4 387 389 391
551 4 387 389 392
552 4 387 389 393
553 4 388 390 394
554 4 388 390 395
555 4 388 390 396
556 7 391 389 392
557 7 391 389 393
558 7 392 389 393
559 7 394 390 395
560 7 394 390 396
561 7 395 390 396
562 11 398 397 399
563 11 398 397 400
564 12 399 397 400
565 9 397 399 401
566 9 397 400 402
567 4 399 401 403
568 4 399 401 404
569 4 399 401 405
570 4 400 402 406
571 4 400 402 407
572 4 400 402 408
573 7 403 401 404
574 7 403 401 405
575 7 404 401 405
576 7 406 402 407
577 7 406 402 408
578 7 407 402 408
579 11 410 409 411
580 11 410 409 412
581 12 411 409 412
582 9 409 411 413
583 9 409 412 414
584 4 411 413 415
585 4 411 413 416
586 4 411 413 417
587 4 412 414 418
588 4 412 414 419
589 4 412 414 420
590 7 415 413 416
591 7 415 413 417
592 7 416 413 417
593 7 418 414 419
594 7 418 414 420
595 7 419 414 420
596 11 422 421 423
597 11 422 421 424
598 12 423 421 424
599 9 421 423 425
600 9 421 424 426
601 4 423 425 427
602 4 423 425 428
603 4 423 425 429
604 4 424 426 430
605 4 424 426 431
606 4 424 426 432
607 7 427 425 428
608 7 427 425 429
609 7 428 425 429
610 7 430 426 431
611 7 430 426 432
612 7 431 426 432
613 11 434 433 435
614 11 434 433 436
615 12 435 433 436
616 9 433 435 437
617 9 433 436 438
618 4 435 437 439
619 4 435 437 440
620 4 435 437 441
621 4 436 438 442
622 4 436 438 443
623 4 436 438 444
624 7 439 437 440
625 7 439 437 441
626 7 440 437 441
627 7 442 438 443
628 7 442 438 444
629 7 443 438 444
630 11 446 445 447
631 11 446 445 448
632 12 447 445 448
633 9 445 447 449
634 9 445 448 450
635 4 447 449 451
636 4 447 449 452
637 4 447 449 453
638 4 448 450 454
639 4 448 450 455
640 4 448 450 456
641 7 451 449 452
642 7 451 449 453
643 7 452 449 453
644 7 454 450 455
645 7 454 450 456
646 7 455 450 456
647 11 458 457 459
648 11 458 457 460
649 12 459 457 460
650 9 457 459 461
651 9 457 460 462
652 4 459 461 463
653 4 459 461 464
654 4 459 461 465
655 4 460 462 466
656 4 460 462 467
657 4 460 462 468
658 7 463 461 464
659 7 463 461 465
660 7 464 461 465
661 7 466 462 467
662 7 466 462 468
663 7 467 462 468
664 11 470 469 471
665 11 470 469 472
666 12 471 469 472
667 9 469 471 473
668 9 469 472 474
669 4 471 473 475
670 4 471 473 476
671 4 471 473 477
672 4 472 474 478
673 4 472 474 479
674 4 472 474 480
675 7 475 473 476
676 7 475 473 477
677 7 476 473 477
678 7 478 474 479
679 7 478 474 480
680 7 479 474 480
681 11 482 481 483
682 11 482 481 484
683 12 483 481 484
684 9 481 483 485
685 9 481 484 486
686 4 483 485 487
687 4 483 485 488
688 4 483 485 489
689 4 484 486 490
690 4 484 486 491
691 4 484 486 492
692 7 487 485 488
693 7 487 485 489
694 7 488 485 489
695 7 490 486 491
696 7 490 486 492
697 7 491 486 492
698 11 494 493 495
699 11 494 493 496
700 12 495 493 496
701 9 493 495 497
702 9 493 496 498
703 4 495 497 499
704 4 495 497 500
705 4 495 497 501
706 4 496 498 502
707 4 496 498 503
708 4 496 498 504
709 7 499 497 500
710 7 499 497 501
711 7 500 497 501
712 7 502 498 503
713 7 502 498 504
714 7 503 498 504
715 11 506 505 507
716 11 506 505 508
717 12 507 505 508
718 9 505 507 509
719 9 505 508 510
720 4 507 509 511
721 4 507 509 512
722 4 507 509 513
723 4 508 510 514
724 4 508 510 515
725 4 508 510 516
726 7 511 509 512
727 7 511 509 513
728 7 512 509 513
729 7 514 510 515
730 7 514 510 516
731 7 515 510 516
732 11 518 517 519
733 11 518 517 520
734 12 519 517 520
735 9 517 519 521
736 9 517 520 522
737 4 519 521 523
738 4 519 521 524
739 4 519 521 525
740 4 520 522 526
741 4 520 522 527
742 4 520 522 528
743 7 523 521 524
744 7 523 521 525
745 7 524 521 525
746 7 526 522 527
747 7 526 522 528
748 7 527 522 528
749 11 530 529 531
750 11 530 529 532
751 12 531 529 532
752 9 529 531 533
753 9 529 532 534
754 4 531 533 535
755 4 531 533 536
756 4 531 533 537
757 4 532 534 538
758 4 532 534 539
759 4 532 534 540
760 7 535 533 536
761 7 535 533 537
762 7 536 533 537
763 7 538 534 539
764 7 538 534 540
765 7 539 534 540
766 11 542 541 543
767 11 542 541 544
768 12 543 541 544
769 9 541 543 546
770 9 541 544 545
771 13 543 546 545
772 13 544 545 546
773 4 545 546 547
774 4 545 546 548
775 4 546 545 549
776 4 546 545 550
777 6 547 546 548
778 6 549 545 550
779 11 552 551 553
780 11 552 551 554
781 12 553 551 554
782 9 551 553 556
783 9 551 554 555
784 13 553 556 555
785 13 554 555 556
786 4 555 556 557
787 4 555 556 558
788 4 556 555 559
789 4 556 555 560
790 6 557 556 558
791 6 559 555 560
792 11 562 561 563
793 11 562 561 564
794 12 563 561 564
795 9 561 563 566
796 9 561 564 565
797 13 563 566 565
798 13 564 565 566
799 4 565 566 567
800 4 565 566 568
801 4 566 565 569
802 4 566 565 570
803 6 567 566 568
804 6 569 565 570
805 11 572 571 573
806 11 572 571 574
807 12 573 571 574
808 9 571 573 576
809 9 571 574 575
810 13 573 576 575
811 13 574 575 576
812 4 575 576 577
813 4 575 576 578
814 4 576 575 579
815 4 576 575 580
816 6 577 576 578
817 6 579 575 580
818 11 582 581 583
819 11 582 581 584
820 12 583 581 584
821 9 581 583 586
822 9 581 584 585
823 13 583 586 585
824 13 584 585 586
825 4 585 586 587
826 4 585 586 588
827 4 586 585 589
828 4 586 585 590
829 6 587 586 588
830 6 589 585 590
831 11 592 591 593
832 11 592 591 594
833 12 593 591 594
834 9 591 593 596
835 9 591 594 595
836 13 593 596 595
837 13 594 595 596
838 4 595 596 597
839 4 595 596 598
840 4 596 595 599
841 4 596 595 600
842 6 597 596 598
843 6 599 595 600
844 11 602 601 603
845 11 602 601 604
846 12 603 601 604
847 9 601 603 606
848 9 601 604 605
849 13 603 606 605
850 13 604 605 606
851 4 605 606 607
852 4 605 606 608
853 4 606 605 609
854 4 606 605 610
855 6 607 606 608
856 6 609 605 610
857 11 612 611 613
858 11 612 611 614
859 12 613 611 614
860 9 611 613 616
861 9 611 614 615
862 13 613 616 615
863 13 614 615 616
864 4 615 616 617
865 4 615 616 618
866 4 616 615 619
867 4 616 615 620
868 6 617 616 618
869 6 619 615 620
870 11 622 621 623
871 11 622 621 624
872 12 623 621 624
873 9 621 623 626
874 9 621 624 625
875 13 623 626 625
876 13 624 625 626
877 4 625 626 627
878 4 625 626 628
879 4 626 625 629
880 4 626 625 630
881 6 627 626 628
882 6 629 625 630
883 11 632 631 633
884 11 632 631 634
885 12 633 631 634
886 9 631 633 636
887 9 631 634 635
888 13 633 636 635
889 13 634 635 636
890 4 635 636 637
891 4 635 636 638
892 4 636 635 639
893 4 636 635 640
894 6 637 636 638
895 6 639 635 640
896 11 642 641 643
897 11 642 641 644
898 12 643 641 644
899 9 641 643 646
900 9 641 644 645
901 13 643 646 645
902 13 644 645 646
903 4 645 646 647
904 4 645 646 648
905 4 646 645 649
906 4 646 645 650
907 6 647 646 648
908 6 649 645 650
909 11 652 651 653
910 11 652 651 654
911 12 653 651 654
912 9 651 653 656
913 9 651 654 655
914 13 653 656 655
915 13 654 655 656
916 4 655 656 657
917 4 655 656 658
918 4 656 655 659
919 4 656 655 660
920 6 657 656 658
921 6 659 655 660
922 11 662 661 663
923 11 662 661 664
924 12 663 661 664
925 9 661 663 666
926 9 661 664 665
927 13 663 666 665
928 13 664 665 666
929 4 665 666 667
930 4 665 666 668
931 4 666 665 669
932 4 666 665 670
933 6 667 666 668
934 6 669 665 670
935 11 672 671 673
936 11 672 671 674
937 12 673 671 674
938 9 671 673 676
939 9 671 674 675
940 13 673 676 675
941 13 674 675 676
942 4 675 676 677
943 4 675 676 678
944 4 676 675 679
945 4 676 675 680
946 6 677 676 678
947 6 679 675 680
948 11 682 681 683
949 11 682 681 684
950 12 683 681 684
951 9 681 683 686
952 9 681 684 685
953 13 683 686 685
954 13 684 685 686
955 4 685 686 687
956 4 685 686 688
957 4 686 685 689
958 4 686 685 690
959 6 687 686 688
960 6 689 685 690
961 11 692 691 693
962 11 692 691 694
963 12 693 691 694
964 9 691 693 696
965 9 691 694 695
966 13 693 696 695
967 13 694 695 696
968 4 695 696 697
969 4 695 696 698
970 4 696 695 699
971 4 696 695 700
972 6 697 696 698
973 6 699 695 700
974 11 702 701 703
975 11 702 701 704
976 12 703 701 704
977 9 701 703 706
978 9 701 704 705
979 13 703 706 705
980 13 704 705 706
981 4 705 706 707
982 4 705 706 708
983 4 706 705 709
984 4 706 705 710
985 6 707 706 708
986 6 709 705 710
987 11 712 711 713
988 11 712 711 714
989 12 713 711 714
990 9 711 713 716
991 9 711 714 715
992 13 713 716 715
993 13 714 715 716
994 4 715 716 717
995 4 715 716 718
996 4 716 715 719
997 4 716 715 720
998 6 717 716 718
999 6 719 715 720
1000 11 722 721 723
1001 11 722 721 724
1002 12 723 721 724
1003 9 721 723 726
1004 9 721 724 725
1005 13 723 726 725
1006 13 724 725 726
1007 4 725 726 727
1008 4 725 726 728
1009 4 726 725 729
1010 4 726 725 730
1011 6 727 726 728
1012 6 729 725 730
1013 18 737 736 738
1014 18 739 736 740
1015 18 741 736 742
1016 17 737 736 739
1017 17 737 736 740
1018 17 737 736 741
1019 17 737 736 742
1020 17 738 736 739
1021 17 738 736 740
1022 17 738 736 741
1023 17 738 736 742
1024 17 739 736 741
1025 17 739 736 742
1026 17 740 736 741
1027 17 740 736 742
1028 18 744 743 745
1029 18 746 743 747
1030 18 748 743 749
1031 17 744 743 746
1032 17 744 743 747
1033 17 744 743 748
1034 17 744 743 749
1035 17 745 743 746
1036 17 745 743 747
1037 17 745 743 748
1038 17 745 743 749
1039 17 746 743 748
1040 17 746 743 749
1041 17 747 743 748
1042 17 747 743 749
1043 18 751 750 752
1044 18 753 750 754
1045 18 755 750 756
1046 17 751 750 753
1047 17 751 750 754
1048 17 751 750 755
1049 17 751 750 756
1050 17 752 750 753
1051 17 752 750 754
1052 17 752 750 755
1053 17 752 750 756
1054 17 753 750 755
1055 17 753 750 756
1056 17 754 750 755
1057 17 754 750 756
1058 18 758 757 759
1059 18 760 757 761
1060 18 762 757 763
1061 17 758 757 760
1062 17 758 757 761
1063 17 758 757 762
1064 17 758 757 763
1065 17 759 757 760
1066 17 759 757 761
1067 17 759 757 762
1068 17 759 757 763
1069 17 760 757 762
1070 17 760 757 763
1071 17 761 757 762
1072 17 761 757 763
1073 18 765 764 766
1074 18 767 764 768
1075 18 769 764 770
1076 17 765 764 767
1077 17 765 764 768
1078 17 765 764 769
1079 17 765 764 770
1080 17 766 764 767
1081 17 766 764 768
1082 17 766 764 769
1083 17 766 764 770
1084 17 767 764 769
1085 17 767 764 770
1086 17 768 764 769
1087 17 768 764 770

Dihedrals

1 8 2 1 3 5
2 8 2 1 4 6
3 6 1 3 5 7
4 6 1 3 5 8
5 6 1 3 5 9
6 6 1 4 6 10
7 6 1 4 6 11
8 6 1 4 6 12
9 8 14 13 15 17
10 8 14 13 16 18
11 6 13 15 17 19
12 6 13 15 17 20
13 6 13 15 17 21
14 6 13 16 18 22
15 6 13 16 18 23
16 6 13 16 18 24
17 8 26 25 27 29
18 8 26 25 28 30
19 6 25 27 29 31
20 6 25 27 29 32
21 6 25 27 29 33
22 6 25 28 30 34
23 6 25 28 30 35
24 6 25 28 30 36
25 8 38 37 39 41
26 8 38 37 40 42
27 6 37 39 41 43
28 6 37 39 41 44
29 6 37 39 41 45
30 6 37 40 42 46
31 6 37 40 42 47
32 6 37 40 42 48
33 8 50 49 51 53
34 8 50 49 52 54
35 6 49 51 53 55
36 6 49 51 53 56
37 6 49 51 53 57
38 6 49 52 54 58
39 6 49 52 54 59
40 6 49 52 54 60
41 8 62 61 63 65
42 8 62 61 64 66
43 6 61 63 65 67
44 6 61 63 65 68
45 6 61 63 65 69
46 6 61 64 66 70
47 6 61 64 66 71
48 6 61 64 66 72
49 8 74 73 75 77
50 8 74 73 76 78
51 6 73 75 77 79
52 6 73 75 77 80
53 6 73 75 77 81
54 6 73 76 78 82
55 6 73 76 78 83
56 6 73 76 78 84
57 8 86 85 87 89
58 8 86 85 88 90
59 6 85 87 89 91
60 6 85 87 89 92
61 6 85 87 89 93
62 6 85 88 90 94
63 6 85 88 90 95
64 6 85 88 90 96
65 8 98 97 99 101
66 8 98 97 100 102
67 6 97 99 101 103
68 6 97 99 101 104
69 6 97 99 101 105
70 6 97 100 102 106
71 6 97 100 102 107
72 6 97 100 102 108
73 8 110 109 111 113
74 8 110 109 112 114
75 6 109 111 113 115
76 6 109 111 113 116
77 6 109 111 113 117
78 6 109 112 114 118
79 6 109 112 114 119
80 6 109 112 114 120
81 8 122 121 123 125
82 8 122 121 124 126
83 6 121 123 125 127
84 6 121 123 125 128
85 6 121 123 125 129
86 6 121 124 126 130
87 6 121 124 126 131
88 6 121 124 126 132
89 8 134 133 135 137
90 8 134 133 136 138
91 6 133 135 137 139
92 6 133 135 137 140
93 6 133 135 137 141
94 6 133 136 138 142
95 6 133 136 138 143
96 6 133 136 138 144
97 8 146 145 147 149
98 8 146 145 148 150
99 6 145 147 149 151
100 6 145 147 149 152
101 6 145 147 149 153
102 6 145 148 150 154
103 6 145 148 150 155
104 6 145 148 150 156
105 8 158 157 159 161
106 8 158 157 160 162
107 6 157 159 161 163
108 6 157 159 161 164
109 6 157 159 161 165
110 6 157 160 162 166
111 6 157 160 162 167
112 6 157 160 162 168
113 8 170 169 171 173
114 8 170 169 172 174
115 6 169 171 173 175
116 6 169 171 173 176
117 6 169 171 173 177
118 6 169 172 174 178
119 6 169 172 174 179
120 6 169 172 174 180
121 8 182 181 183 185
122 8 182 181 184 186
123 6 181 183 185 187
124 6 181 183 185 188
125 6 181 183 185 189
126 6 181 184 186 190
127 6 181 184 186 191
128 6 181 184 186 192
129 8 194 193 195 197
130 8 194 193 196 198
131 6 193 195 197 199
132 6 193 195 197 200
133 6 193 195 197 201
134 6 193 196 198 202
135 6 193 196 198 203
136 6 193 196 198 204
137 8 206 205 207 209
138 8 206 205 208 210
139 6 205 207 209 211
140 6 205 207 209 212
141 6 205 207 209 213
142 6 205 208 210 214
143 6 205 208 210 215
144 6 205 208 210 216
145 8 218 217 219 221
146 8 218 217 220 222
147 6 217 219 221 223
148 6 217 219 221 224
149 6 217 219 221 225
150 6 217 220 222 226
151 6 217 220 222 227
152 6 217 220 222 228
153 8 230 229 231 233
154 8 230 229 232 234
155 6 229 231 233 235
156 6 229 231 233 236
157 6 229 231 233 237
158 6 229 232 234 238
159 6 229 232 234 239
160 6 229 232 234 240
161 8 242 241 243 245
162 8 242 241 244 246
163 6 241 243 245 247
164 6 241 243 245 248
165 6 241 243 245 249
166 6 241 244 246 250
167 6 241 244 246 251
168 6 241 244 246 252
169 8 254 253 255 257
170 8 254 253 256 258
171 6 253 255 257 259
172 6 253 255 257 260
173 6 253 255 257 261
174 6 253 256 258 262
175 6 253 256 258 263
176 6 253 256 258 264
177 8 266 265 267 269
178 8 266 265 268 270
179 6 265 267 269 271
180 6 265 267 269 272
181 6 265 267 269 273
182 6 265 268 270 274
183 6 265 268 270 275
184 6 265 268 270 276
185 8 278 277 279 281
186 8 278 277 280 282
187 6 277 279 281 283
188 6 277 279 281 284
189 6 277 279 281 285
190 6 277 280 282 286
191 6 277 280 282 287
192 6 277 280 282 288
193 8 290 289 291 293
194 8 290 289 292 294
195 6 289 291 293 295
196 6 289 291 293 296
197 6 289 291 293 297
198 6 289 292 294 298
199 6 289 292 294 299
200 6 289 292 294 300
201 8 302 301 303 305
202 8 302 301 304 306
203 6 301 303 305 307
204 6 301 303 305 308
205 6 301 303 305 309
206 6 301 304 306 310
207 6 301 304 306 311
208 6 301 304 306 312
209 8 314 313 315 317
210 8 314 313 316 318
211 6 313 315 317 319
212 6 313 315 317 320
213 6 313 315 317 321
214 6 313 316 318 322
215 6 313 316 318 323
216 6 313 316 318 324
217 8 326 325 327 329
218 8 326 325 328 330
219 6 325 327 329 331
220 6 325 327 329 332
221 6 325 327 329 333
222 6 325 328 330 334
223 6 325 328 330 335
224 6 325 328 330 336
225 8 338 337 339 341
226 8 338 337 340 342
227 6 337 339 341 343
228 6 337 339 341 344
229 6 337 339 341 345
230 6 337 340 342 346
231 6 337 340 342 347
232 6 337 340 342 348
233 8 350 349 351 353
234 8 350 349 352 354
235 6 349 351 353 355
236 6 349 351 353 356
237 6 349 351 353 357
238 6 349 352 354 358
239 6 349 352 354 359
240 6 349 352 354 360
241 8 362 361 363 365
242 8 362 361 364 366
243 6 361 363 365 367
244 6 361 363 365 368
245 6 361 363 365 369
246 6 361 364 366 370
247 6 361 364 366 371
248 6 361 364 366 372
249 8 374 373 375 377
250 8 374 373 376 378
251 6 373 375 377 379
252 6 373 375 377 380
253 6 373 375 377 381
254 6 373 376 378 382
255 6 373 376 378 383
256 6 373 376 378 384
257 8 386 385 387 389
258 8 386 385 388 390
259 6 385 387 389 391
260 6 385 387 389 392
261 6 385 387 389 393
262 6 385 388 390 394
263 6 385 388 390 395
264 6 385 388 390 396
265 8 398 397 399 401
266 8 398 397 400 402
267 6 397 399 401 403
268 6 397 399 401 404
269 6 397 399 401 405
270 6 397 400 402 406
271 6 397 400 402 407
272 6 397 400 402 408
273 8 410 409 411 413
274 8 410 409 412 414
275 6 409 411 413 415
276 6 409 411 413 416
277 6 409 411 413 417
278 6 409 412 414 418
279 6 409 412 414 419
280 6 409 412 414 420
281 8 422 421 423 425
282 8 422 421 424 426
283 6 421 423 425 427
284 6 421 423 425 428
285 6 421 423 425 429
286 6 421 424 426 430
287 6 421 424 426 431
288 6 421 424 426 432
289 8 434 433 435 437
290 8 434 433 436 438
291 6 433 435 437 439
292 6 433 435 437 440
293 6 433 435 437 441
294 6 433 436 438 442
295 6 433 436 438 443
296 6 433 436 438 444
297 8 446 445 447 449
298 8 446 445 448 450
299 6 445 447 449 451
300 6 445 447 449 452
301 6 445 447 449 453
302 6 445 448 450 454
303 6 445 448 450 455
304 6 445 448 450 456
305 8 458 457 459 461
306 8 458 457 460 462
307 6 457 459 461 463
308 6 457 459 461 464
309 6 457 459 461 465
310 6 457 460 462 466
311 6 457 460 462 467
312 6 457 460 462 468
313 8 470 469 471 473
314 8 470 469 472 474
315 6 469 471 473 475
316 6 469 471 473 476
317 6 469 471 473 477
318 6 469 472 474 478
319 6 469 472 474 479
320 6 469 472 474 480
321 8 482 481 483 485
322 8 482 481 484 486
323 6 481 483 485 487
324 6 481 483 485 488
325 6 481 483 485 489
326 6 481 484 486 490
327 6 481 484 486 491
328 6 481 484 486 492
329 8 494 493 495 497
330 8 494 493 496 498
331 6 493 495 497 499
332 6 493 495 497 500
333 6 493 495 497 501
334 6 493 496 498 502
335 6 493 496 498 503
336 6 493 496 498 504
337 8 506 505 507 509
338 8 506 505 508 510
339 6 505 507 509 511
340 6 505 507 509 512
341 6 505 507 509 513
342 6 505 508 510 514
343 6 505 508 510 515
344 6 505 508 510 516
345 8 518 517 519 521
346 8 518 517 520 522
347 6 517 519 521 523
348 6 517 519 521 524
349 6 517 519 521 525
350 6 517 520 522 526
351 6 517 520 522 527
352 6 517 520 522 528
353 8 530 529 531 533
354 8 530 529 532 534
355 6 529 531 533 535
356 6 529 531 533 536
357 6 529 531 533 537
358 6 529 532 534 538
359 6 529 532 534 539
360 6 529 532 534 540
361 8 542 541 543 546
362 8 542 541 544 545
363 5 541 543 546 545
364 7 543 546 545 544
365 7 541 544 545 546
366 8 552 551 553 556
367 8 552 551 554 555
368 5 551 553 556 555
369 7 553 556 555 554
370 7 551 554 555 556
371 8 562 561 563 566
372 8 562 561 564 565
373 5 561 563 566 565
374 7 563 566 565 564
375 7 561 564 565 566
376 8 572 571 573 576
377 8 572 571 574 575
378 5 571 573 576 575
379 7 573 576 575 574
380 7 571 574 575 576
381 8 582 581 583 586
382 8 582 581 584 585
383 5 581 583 586 585
384 7 583 586 585 584
385 7 581 584 585 586
386 8 592 591 593 596
387 8 592 591 594 595
388 5 591 593 596 595
389 7 593 596 595 594
390 7 591 594 595 596
391 8 602 601 603 606
392 8 602 601 604 605
393 5 601 603 606 605
394 7 603 606 605 604
395 7 601 604 605 606
396 8 612 611 613 616
397 8 612 611 614 615
398 5 611 613 616 615
399 7 613 616 615 614
400 7 611 614 615 616
401 8 622 621 623 626
402 8 622 621 624 625
403 5 621 623 626 625
404 7 623 626 625 624
405 7 621 624 625 626
406 8 632 631 633 636
407 8 632 631 634 635
408 5 631 633 636 635
409 7 633 636 635 634
410 7 631 634 635 636
411 8 642 641 643 646
412 8 642 641 644 645
413 5 641 643 646 645
414 7 643 646 645 644
415 7 641 644 645 646
416 8 652 651 653 656
417 8 652 651 654 655
418 5 651 653 656 655
419 7 653 656 655 654
420 7 651 654 655 656
421 8 662 661 663 666
422 8 662 661 664 665
423 5 661 663 666 665
424 7 663 666 665 664
425 7 661 664 665 666
426 8 672 671 673 676
427 8 672 671 674 675
428 5 671 673 676 675
429 7 673 676 675 674
430 7 671 674 675 676
431 8 682 681 683 686
432 8 682 681 684 685
433 5 681 683 686 685
434 7 683 686 685 684
435 7 681 684 685 686
436 8 692 691 693 696
437 8 692 691 694 695
438 5 691 693 696 695
439 7 693 696 695 694
440 7 691 694 695 696
441 8 702 701 703 706
442 8 702 701 704 705
443 5 701 703 706 705
444 7 703 706 705 704
445 7 701 704 705 706
446 8 712 711 713 716
447 8 712 711 714 715
448 5 711 713 716 715
449 7 713 716 715 714
450 7 711 714 715 716
451 8 722 721 723 726
452 8 722 721 724 725
453 5 721 723 726 725
454 7 723 726 725 724
455 7 721 724 725 726

