LAMMPS data file via write_data, version 23 Jun 2022, timestep = 100000

260 atoms
31 atom types
240 bonds
17 bond types
375 angles
18 angle types
130 dihedrals
9 dihedral types
0 impropers
2 improper types

7.90008621912973 22.099913780870615 xlo xhi
7.90008621912973 22.099913780870615 ylo yhi
7.90008621912973 22.099913780870615 zlo zhi

Masses

1 12.011
2 12.011
3 12.011
4 12.011
5 12.011
6 12.011
7 12.011
8 12.011
9 12.011
10 12.011
11 1.008
12 1.008
13 1.008
14 1.008
15 1.008
16 1.008
17 1.008
18 15.999
19 15.999
20 15.999
21 15.999
22 14.007
23 14.007
24 14.007
25 14.007
26 18.998
27 30.974
28 6.941
29 32.065
30 32.065
31 6.941

Pair Coeffs # lj/cut/coul/long/gpu

1 0.066 3.5
2 0.066 3.5
3 0.066 3.5
4 0.066 3.5
5 0.07 3.55
6 0.07 3.55
7 0.07 3.55
8 0.07 3.55
9 0.105 3.75
10 0.105 3.75
11 0.03 2.5
12 0.03 2.5
13 0.03 2.5
14 0.03 2.42
15 0.03 2.5
16 0.03 2.5
17 0.03 2.5
18 0.17 3
19 0.17 3
20 0.17 2.96
21 0.17 3
22 0.17 3.25
23 0.17 3.25
24 0.17 3.25
25 0.17 3.25
26 0.255 2.95
27 0.2 3.7
28 0.0025 1.506
29 0.25 3.55
30 0.25 3.55
31 0.00034 2.126

Bond Coeffs # harmonic

1 268 1.529
2 414 1.33
3 320 1.4
4 340 1.09
5 340 1.08
6 340 1.08
7 320 1.41
8 570 1.229
9 320 1.36
10 300 1.47
11 440 1.27
12 350 1.34
13 340 0.96
14 340 1.01
15 420 1.56
16 200 1.81
17 300 1.43

Angle Coeffs # harmonic

1 50 109.5
2 80 120
3 60 120
4 37.5 110.7
5 40 120
6 33 106.4
7 33 107.8
8 35 120
9 60 109.5
10 60 124
11 80 123
12 80 120.4
13 50 109.5
14 50 109.5
15 50 109.5
16 50 120
17 80 90
18 80 180

Dihedral Coeffs # opls

1 0 0 0.278 0
2 0 0 0 0
3 0 0 0.278 0
4 0 0 0.278 0
5 0.5 -0.5 0.5 0
6 0 0 0 0
7 0 0 0 0
8 0 0 0 0
9 0 0 0 0

Improper Coeffs # harmonic

1 10 0
2 10 0

Atoms # full

246 28 26 -0.39 11.805822100211197 15.089860570698068 12.811237202680655 0 0 0
192 18 20 -0.5 13.823637280272989 11.174899148910248 11.716407308553372 0 0 0
250 29 26 -0.39 13.35293424579223 9.253571519398028 14.066541099652952 0 0 0
224 24 31 1 12.809016668959288 11.716652172369468 12.898567944220922 -1 0 0
247 29 27 1.34 11.901634826029603 8.907269073436767 13.742292946822545 0 0 0
249 29 26 -0.39 11.542213467272052 9.185798679062355 15.269377560096352 0 0 0
248 29 26 -0.39 12.284926713905506 8.744192819966184 12.235789934907938 0 0 0
253 29 26 -0.39 11.658494032501325 10.427867656548862 13.513076802896622 0 0 0
244 28 26 -0.39 11.777590845047934 13.008452142076639 12.151284059862459 0 0 0
251 29 26 -0.39 10.370968458298208 8.614839079347304 13.519840376196811 0 0 0
242 28 26 -0.39 13.006137103591374 14.476756750954262 11.08010036348142 0 0 0
240 28 27 1.34 11.5038566484763 14.375005933862424 11.480317146504847 0 0 0
223 23 31 1 12.259280875429614 10.346062165115757 16.950545504775803 0 0 0
191 18 9 0.52 14.03644892598816 10.905548442516727 10.536562718628657 0 0 0
241 28 26 -0.39 10.018601480507947 14.331421722946498 11.88097995255016 0 0 0
152 14 20 -0.5 11.398194642424818 9.880301795534535 18.327275266931906 0 0 0
193 18 19 -0.35 13.034552002872877 11.070115140513247 9.570307615385882 0 0 0
194 18 19 -0.35 15.293855523229226 11.259127093464567 10.089618845508516 0 0 0
243 28 26 -0.39 11.314116634080301 15.691300029626259 10.71371982230983 0 0 0
245 28 26 -0.39 11.171726049071172 13.570156500553935 10.18976924262725 0 0 0
142 13 20 -0.5 13.803348360963277 9.83213908177831 16.994778940238138 0 0 0
131 12 9 0.52 20.523109043930805 13.925873987906801 17.37615710920648 0 0 0
239 27 26 -0.39 13.542468337597622 12.765984364984996 14.07861553502978 0 0 0
62 6 20 -0.5 11.658404147569932 11.781753108543766 16.444355583994785 0 0 0
139 12 11 0.06 17.855730112566658 14.210803347088687 16.878181783512776 0 0 0
140 12 11 0.06 18.064030089911896 12.922970827420539 15.678721209636663 0 0 0
135 12 2 0.22 18.618429208827738 13.545934446077391 16.383726299530327 0 0 0
134 12 19 -0.35 19.356110439971225 13.250305761063576 17.51681698170234 0 0 0
136 12 2 0.22 19.500162127955157 14.506670529311645 15.524652744316057 0 0 0
50 5 20 -0.5 12.148755537130905 17.153982834492542 14.798708523172916 0 0 0
221 21 31 1 12.965981033926202 16.196714903490836 13.674302912007983 -1 0 0
234 27 26 -0.39 15.18177285415734 13.735204972751827 12.982339457023388 0 0 0
133 12 19 -0.35 20.754987364883938 14.609800745221158 16.140550068579184 0 0 0
137 12 11 0.06 19.63393416972859 14.18050226738006 14.50839261464309 0 0 0
38 4 20 -0.5 13.506368879412753 17.30051592684799 12.432367710985483 0 0 0
236 27 26 -0.39 13.916231331783525 14.887908263915772 14.397822625724814 0 0 0
237 27 26 -0.39 15.622967070081407 12.29564195426587 14.543113432377414 0 0 0
233 27 27 1.34 14.774155940963638 13.601480544106094 14.480880576051025 0 0 0
132 12 20 -0.5 21.154543912281937 14.225692616181101 18.352099889966702 0 0 0
235 27 26 -0.39 14.434568408912845 13.410968586737722 15.96087264642441 0 0 0
238 27 26 -0.39 16.038067868494974 14.414189129090701 14.881875316769204 0 0 0
40 4 19 -0.35 15.001019722958745 17.518073169491792 10.745482641190291 0 0 0
138 12 11 0.06 19.01946499712733 15.421797624685865 15.298540428109938 0 0 0
42 4 1 0.22 14.76601072051638 16.972494038132613 9.446434649981844 0 0 0
47 4 11 0.06 14.752784621496787 15.929939312578174 9.611159397016976 0 0 0
48 4 11 0.06 13.835584056950264 17.26582745707923 8.922897155263138 0 0 0
37 4 9 0.52 13.727862514790957 17.79018174642026 11.325432698055545 0 0 0
39 4 19 -0.35 12.880838102951989 18.74358537392566 10.739855644599112 0 0 0
44 4 11 0.06 10.973510183622809 19.578037730124517 10.781178559220177 0 0 0
41 4 1 0.22 11.635187192965672 18.960187652378238 11.374280721673912 0 0 0
45 4 11 0.06 11.807948967539918 19.629545286245918 12.253469999020965 0 0 0
143 13 19 -0.35 15.964090787986237 9.439826053167424 16.528580776691395 0 0 0
141 13 9 0.52 14.943164511581156 10.072785765508215 17.22726403857885 0 0 0
146 13 2 0.22 17.153010868709295 9.906384932491962 17.14105742449732 0 0 0
79 7 11 0.06 16.757284084506935 10.856479101761552 12.736327698744072 0 0 0
77 7 1 0.22 16.690412443212907 9.786480405598644 12.845044263246908 0 0 0
81 7 11 0.06 15.632984743945574 9.654593480237605 12.92866527744307 0 0 0
43 4 11 0.06 10.911986891873465 18.20385319997933 11.711322170408643 0 0 0
49 5 9 0.52 11.38801510150146 17.695152171058663 15.611572520166469 0 0 0
24 2 11 0.06 13.687712518542693 16.788921536263217 18.21942939801809 0 -1 -1
66 6 1 0.22 9.674590656890198 12.926237178972894 14.891163009478099 0 0 0
61 6 9 0.52 11.258163724697802 12.931576888937554 16.48565576237148 0 0 0
64 6 19 -0.35 10.767319117109672 13.58978142352007 15.336166967282884 0 0 0
63 6 19 -0.35 11.487019356970933 13.723763198251998 17.640461028837684 0 0 0
53 5 1 0.22 9.10569627374685 16.829754187166277 15.819647055759553 0 0 0
51 5 19 -0.35 10.453944997449144 16.9132393986947 16.372871718793185 0 0 0
56 5 11 0.06 8.976982074422956 15.966921447488634 15.159276173442777 0 0 0
7 1 11 0.06 16.217638445341137 16.384351775664705 13.03961707955522 -1 0 0
5 1 1 0.22 17.328469588321198 16.285587197574035 13.01608385456801 -1 0 0
9 1 11 0.06 17.71705096843038 16.628705867375306 14.00422449481465 -1 0 0
13 2 9 0.52 14.223390955293347 14.84658922428336 20.183537030860556 0 -1 -1
65 6 1 0.22 10.438181985281481 14.551355746855489 18.065845768123896 0 0 0
69 6 11 0.06 10.031468207908205 14.12507024308529 19.018135692959586 0 0 0
80 7 11 0.06 17.127796390061327 9.464221163902483 13.780561927521155 0 0 0
52 5 19 -0.35 11.659600988674363 19.027032186801602 16.060264221319382 0 0 0
54 5 1 0.22 10.565670161347379 19.899317460198034 16.091924919123475 0 0 0
59 5 11 0.06 10.255942415630146 20.08153388729668 15.078008591357861 0 0 0
3 1 19 -0.35 17.880118681683115 17.118743394693094 11.953732074976028 -1 0 0
8 1 11 0.06 17.543158231397523 15.18381715555283 12.86183488237111 -1 0 0
1 1 9 0.52 19.209003273823388 16.826303028308022 11.54348076448168 -1 0 0
60 5 11 0.06 10.780167095968652 20.86070246956823 16.482639281119578 0 0 0
58 5 11 0.06 9.75746661717371 19.466292641695553 16.659760612845734 0 0 0
57 5 11 0.06 8.426453418184545 16.82150922688815 16.693359175010087 0 0 0
99 9 19 -0.35 18.873295694696907 18.027796894721195 19.797599475104843 -1 0 -1
101 9 1 0.22 17.499444127133888 17.690986941138704 19.640191461002566 -1 0 -1
104 9 11 0.06 16.970244509652296 17.806340402658368 20.578587267811656 -1 0 -1
151 14 9 0.52 10.201695308934987 9.773044363377862 18.550312613784673 0 0 0
154 14 19 -0.35 9.320101242161853 10.722478204911331 17.92866844402095 0 0 0
4 1 19 -0.35 19.911098815656164 15.94644490696114 12.357118386668784 -1 0 0
100 9 19 -0.35 19.105476723866108 19.91246799336123 21.2729187915939 -1 0 -1
162 15 20 -0.5 17.01871834295381 18.292128646506338 15.81148536654226 0 -1 0
46 4 11 0.06 15.626603504279526 17.24163608177123 8.821105272833844 0 0 0
144 13 19 -0.35 15.385187671941555 10.750583760464385 18.345345368811557 0 0 0
145 13 2 0.22 16.72325331708601 10.70998769046855 18.351968015598253 0 0 0
2 1 20 -0.5 19.599461295959728 17.059067668737384 10.38557389254509 -1 0 0
87 8 19 -0.35 17.7223110764915 14.072035120624111 9.933320954812288 -1 0 0
89 8 1 0.22 18.06690921052062 13.085659387692841 10.858604923951688 -1 0 0
97 9 9 0.52 19.169980629890716 18.557330336751885 21.03162011012923 -1 0 -1
92 8 11 0.06 17.354566155081585 13.127940372851041 11.661441589727797 -1 0 0
22 2 11 0.06 14.738630778302536 16.015026448453888 17.108196855856544 0 -1 -1
18 2 1 0.22 14.124931588712593 15.87145962097949 17.97061043134638 0 -1 -1
23 2 11 0.06 13.398711719689569 15.110083537209652 17.80132444514126 0 -1 -1
16 2 19 -0.35 14.848798559452433 15.44246554656339 19.11525191270485 0 -1 -1
91 8 11 0.06 17.88498064947376 12.124548110295184 10.469332454641904 -1 0 0
161 15 9 0.52 15.95917156289537 18.91983040782676 15.66192271021956 0 -1 0
171 16 9 0.52 13.466908042053351 19.400402362402623 20.161967336264 0 -1 0
68 6 11 0.06 10.71944219452429 15.556425806604276 18.35377107008144 0 0 0
149 13 11 0.06 16.933009064120533 11.797499653656292 18.347571714134403 0 0 0
93 8 11 0.06 19.058446214190653 13.028905881252648 11.256310193095047 -1 0 0
164 15 19 -0.35 15.835555817145632 20.23723018532292 16.213102586591265 0 -1 0
103 9 11 0.06 17.11810046412636 18.490414577593825 19.021064393152116 -1 0 -1
150 13 11 0.06 17.195898580116182 10.284257897492832 19.230990720348732 0 0 0
107 9 11 0.06 21.161781420749357 20.205751753420056 20.7215783072062 -1 0 -1
125 11 2 0.22 19.954673349626603 19.59874992179835 16.02238373474476 -1 -1 0
111 10 19 -0.35 9.54249106606876 9.801946421531024 9.76586222816538 0 0 0
113 10 1 0.22 9.742402237440825 10.6278613336646 10.892897380232062 0 0 0
117 10 11 0.06 10.823301014594316 10.836628194474097 10.997036161995638 0 0 0
67 6 11 0.06 9.570486370052562 14.614500481184287 17.345380650450025 0 0 0
153 14 19 -0.35 9.586639703092592 8.627918516124117 19.12435150531171 0 0 0
102 9 1 0.22 20.12333535495009 20.70018897997375 20.62881198325693 -1 0 -1
148 13 11 0.06 17.8837146850518 10.379773983748715 16.49527001009154 0 0 0
116 10 11 0.06 9.253978468603226 10.192821018284999 11.736268824507771 0 0 0
129 11 11 0.06 19.60881702922444 18.99546166915974 16.800176324619876 -1 -1 0
225 25 31 1 8.444042102054789 8.548861315898321 13.70734069302657 0 0 0
163 15 19 -0.35 15.02915034228543 18.477117404691494 14.730859396305227 0 -1 0
14 2 20 -0.5 14.881743614083653 14.403483347873795 21.115980980306386 0 -1 -1
258 30 26 -0.39 19.2875708964445 11.689220181969693 13.339051170678522 -1 0 0
105 9 11 0.06 17.26484043586417 16.70257093140331 19.174585616564574 -1 0 -1
166 15 2 0.22 14.507021779235222 19.706521784175617 14.229187319877363 0 -1 0
168 15 11 0.06 13.73464737048928 18.965049597144105 14.450084088559354 0 -1 0
173 16 19 -0.35 13.723670026666316 19.760404086254127 18.79264479090739 0 -1 0
177 16 11 0.06 13.763698922305801 21.87057247647742 18.289134136489093 0 -1 0
75 7 19 -0.35 17.268626752370416 9.13098019193715 11.663124732114735 0 0 0
259 30 26 -0.39 19.910418054019075 9.45528904944668 13.108919606803807 -1 0 0
26 3 20 -0.5 9.907274482471166 19.40064068066951 19.19161013806464 4 4 0
25 3 9 0.52 9.246127904684773 18.638831128999158 19.958754592817908 4 4 0
167 15 11 0.06 14.047994752559088 20.264829737465224 13.39909306053858 0 -1 0
70 6 11 0.06 9.694511241398477 12.805467479544806 13.84399053159903 0 0 0
207 19 11 0.06 15.173185888039596 20.401014495689548 8.774810369577459 0 -1 0
15 2 19 -0.35 12.828822810610735 14.610018875036218 20.120028858698824 0 -1 -1
212 20 20 -0.5 19.738209125083472 10.331881158993088 20.11988384271418 -1 0 0
176 16 2 0.22 13.135051393182199 21.101667796335306 18.650956209572435 0 -1 0
72 6 11 0.06 8.870625670012366 13.520409035954184 15.16143744565198 0 0 0
219 20 11 0.06 18.611731193426362 8.421179360038803 9.281049102229147 -1 0 1
82 7 11 0.06 18.13043807730502 19.47739342225815 13.328221999835268 0 -1 0
175 16 2 0.22 12.529054934766204 21.474363111853716 19.9696522716733 0 -1 0
226 26 27 1.34 21.995437652819053 20.42074301256888 11.643036032609956 -1 -1 0
78 7 1 0.22 17.634479633178955 19.902936800485623 12.420759233536845 0 -1 0
220 20 11 0.06 18.617103785652183 10.092508018257211 9.77701933192785 -1 0 1
86 8 20 -0.5 19.265882138174863 15.043813764401822 8.682657309262009 -1 0 0
130 11 11 0.06 19.57808025244341 19.020714415844015 15.180581169001577 -1 -1 0
254 30 27 1.34 20.572165513376774 10.861088394704892 13.353190383735322 -1 0 0
71 6 11 0.06 9.55975160176339 11.878792937778622 15.184479554246487 0 0 0
165 15 2 0.22 14.749041818925074 20.718573217287435 15.388383037049046 0 -1 0
174 16 19 -0.35 12.778036614076584 20.3447207236144 20.845800198877434 0 -1 0
189 17 11 0.06 7.972147883388275 12.703319566074889 21.168292591416378 0 0 -1
127 11 11 0.06 18.988695801068925 21.448422416215053 16.892189711600434 -1 -1 0
210 19 11 0.06 14.421743656071168 8.286320780855672 7.902537585242195 0 0 0
215 20 2 0.22 19.016719116323365 9.399051995282598 9.063018099139757 -1 0 1
147 13 11 0.06 17.662708894455086 9.042687909547665 17.64477115668427 0 0 0
126 11 2 0.22 19.19247353439649 20.95764157369828 15.878370347567564 -1 -1 0
222 22 31 1 19.98095074672922 16.534463505771512 8.787575255626129 -1 0 0
260 30 26 -0.39 21.355401986330474 12.197659378002339 13.569040629413932 -1 0 0
256 30 26 -0.39 20.352188795198852 10.775113793227657 14.899604088118872 -1 0 0
90 8 1 0.22 17.749138841344177 13.55874270929152 20.751894841778668 -1 0 -1
95 8 11 0.06 17.211018184430735 14.491343435995775 20.834201091719812 -1 0 -1
96 8 11 0.06 17.140605634933817 12.738409363318869 20.32192942608658 -1 0 -1
179 16 11 0.06 11.471748422240388 21.446321422312803 19.77762489816537 0 -1 0
83 7 11 0.06 16.9044664571143 19.218545690245673 11.986820792247142 0 -1 0
94 8 11 0.06 18.5247882866857 13.819754003858137 19.984679721981564 -1 0 -1
170 15 11 0.06 13.826332769153044 21.29583818242465 15.585741258154869 0 -1 0
6 1 1 0.22 21.3977994497873 15.958675002415855 12.191780486468582 -1 0 0
34 3 11 0.06 21.32518355657024 16.730620306016394 18.654972336229072 3 4 -1
229 26 26 -0.39 9.046954494110828 19.974256499500626 12.444205494431236 0 -1 0
208 19 11 0.06 16.78471220194152 20.753620769021413 8.355020488867542 0 -1 0
74 7 20 -0.5 15.80791856776797 21.755236514469775 10.949225163790146 0 -1 0
115 10 11 0.06 9.326106288340876 11.637532332936672 10.709631603611832 0 0 0
120 10 11 0.06 12.4806768419544 8.250582847890637 9.57587715727006 0 0 0
227 26 26 -0.39 8.657083996329654 20.922975811646364 10.457925937877535 0 -1 0
85 8 9 0.52 18.44570035056051 14.15134767717971 8.73270725442645 -1 0 0
188 17 11 0.06 8.154305874622125 12.215096612259364 9.246089684210993 0 0 0
28 3 19 -0.35 22.07184014498756 18.343183437048854 19.649274659747622 3 4 -1
178 16 11 0.06 12.27809004936864 21.090227012145828 17.97810270025963 0 -1 0
124 11 19 -0.35 21.323528473637126 20.01448409703025 16.025363906273405 -1 -1 0
217 20 11 0.06 21.135938057430383 10.314642040441212 9.238237445886387 -1 0 1
230 26 26 -0.39 20.685841615643984 20.72202835871666 10.8266785982016 -1 -1 0
76 7 19 -0.35 17.02811169092153 21.13716834208324 12.808307854759057 0 -1 0
216 20 2 0.22 20.598396774890833 9.411187372595343 8.963857372228501 -1 0 1
20 2 11 0.06 12.592618943202542 15.084479729170292 7.956711383367352 0 -1 0
157 14 11 0.06 8.248849246780068 9.129052630827434 20.274402757590455 0 0 0
172 16 20 -0.5 13.87343347211872 18.29833146572675 20.5968802134567 0 -1 0
27 3 19 -0.35 9.790523968034753 18.06961297606349 21.10853562871311 4 4 0
257 30 26 -0.39 21.914493132267285 10.110555420315801 13.461845247436795 -1 0 0
29 3 1 0.22 9.580664707636975 18.963455657224245 8.022703742960719 4 4 0
186 17 2 0.22 22.059366074481748 13.21467044721242 8.97621165569089 -1 0 0
12 1 11 0.06 21.73227043846753 16.63806185036272 11.39674284834636 -1 0 0
218 20 11 0.06 21.008534958936757 8.717125275843367 9.713468547604851 -1 0 1
31 3 11 0.06 9.93506845023425 19.889961612860297 7.974151610193702 4 4 0
159 14 11 0.06 21.368030802229008 10.6516991823088 17.954072150356403 -1 0 0
228 26 26 -0.39 21.1715746251174 19.81567501241875 12.802545759520566 -1 -1 0
255 30 26 -0.39 20.82302697448876 11.03510997168889 11.812464650262092 -1 0 0
10 1 11 0.06 21.737294507712093 14.916544355914679 12.068272615701229 -1 0 0
206 19 2 0.22 15.807952230253647 20.819582387526864 8.002713525485817 0 -1 0
158 14 11 0.06 21.653195246948112 8.41138904834517 18.725024690981233 -1 0 0
119 10 11 0.06 11.677748534991023 21.122903355617108 8.70922955843115 0 -1 0
19 2 11 0.06 12.229395939937508 16.396712717537955 20.988904836092722 0 -1 -1
35 3 11 0.06 8.832146757084772 16.403389153070638 19.27371126804241 4 4 -1
84 7 11 0.06 18.464215617901484 20.053387244532388 11.66831428839188 0 -1 0
209 19 11 0.06 15.949512937596968 8.648977426243068 8.39285026222313 0 0 0
17 2 1 0.22 12.165507452280977 15.300510296369875 21.215547023589966 0 -1 -1
55 5 11 0.06 8.8224170068721 17.734789131452352 15.326718970469635 0 0 0
11 1 11 0.06 21.94414686857757 16.14923928063817 13.116606845696857 -1 0 0
160 14 11 0.06 8.070832773956871 11.31280769113328 19.27539847348922 0 0 0
181 17 9 0.52 8.171733467031515 15.417401940894887 8.737990360682089 0 0 0
108 9 11 0.06 19.908776705686353 20.81830037357461 19.506432366009292 -1 0 -1
33 3 11 0.06 8.51492045859035 19.20657750789447 8.170503299469292 4 4 0
118 10 11 0.06 10.869496826631329 21.914341858287266 10.016792739162987 0 -1 0
32 3 11 0.06 10.042277452288651 18.50340782917699 8.930756362210765 4 4 0
203 19 19 -0.35 16.41276247485833 20.345212244871306 20.97544878323625 0 -1 -1
183 17 19 -0.35 21.85145798932716 14.479875596193962 9.579612350830782 -1 0 0
232 26 26 -0.39 22.020279506183794 21.769305389667856 12.369623142071319 -1 -1 0
202 19 20 -0.5 17.637418140169146 21.64712663711692 19.43605771069846 0 -1 -1
197 18 11 0.06 13.018398820952214 11.717865447744455 22.023828358151462 0 0 -1
195 18 2 0.22 15.079075054699825 11.924356498000384 8.812569719696167 0 0 0
184 17 19 -0.35 8.67459516997929 14.766099464084025 21.74168863328589 0 0 -1
213 20 19 -0.35 21.028878421109834 9.92362987487189 21.98993614153997 -1 0 0
169 15 11 0.06 15.44767271129438 21.503631214292795 15.055851651367721 0 -1 0
121 11 9 0.52 21.36947636596588 21.421907151591977 15.793226708127673 -1 -1 0
106 9 11 0.06 20.226076553330085 21.715249622892205 20.924808825226908 -1 0 -1
190 17 11 0.06 9.43360404935466 13.292198166967259 21.870021059067415 0 0 -1
252 29 26 -0.39 12.185567507062498 21.624582858535597 14.031870471893578 0 -1 0
114 10 1 0.22 11.545409354010546 22.093019775398957 9.192011617288793 0 -1 0
211 20 9 0.52 19.8145428842633 10.14885195323047 21.30960138222651 -1 0 0
109 10 9 0.52 10.472389379486422 10.001352878281665 8.713688686385844 0 0 0
182 17 20 -0.5 21.618194382136515 16.35815481395311 8.603182662526642 -1 0 0
21 2 11 0.06 11.089857393347385 14.992254737936308 21.24924838032342 0 -1 -1
185 17 2 0.22 8.34298869514589 13.4888930985155 21.81469755854429 0 0 -1
30 3 1 0.22 22.073212077114075 16.92983591132594 19.487093805453153 3 4 -1
180 16 11 0.06 12.801132161640274 8.237764347690028 20.381985993756743 0 0 0
205 19 2 0.22 15.437461508515423 8.060737498932228 21.928055346689423 0 0 -1
123 11 19 -0.35 20.12525435509125 22.042098924295512 15.997872231081978 -1 -1 0
73 7 9 0.52 16.739901107528507 21.991372736170405 11.706019889372678 0 -1 0
199 18 11 0.06 15.554479656338732 12.621648678565343 9.4753005016835 0 0 0
214 20 19 -0.35 18.62842968002476 9.807078393117866 21.96618701224977 -1 0 0
155 14 2 0.22 8.088432940962313 10.55285703716688 18.509401894257184 0 0 0
187 17 11 0.06 21.007752783576475 13.179784269839882 9.046230827239171 -1 0 0
204 19 19 -0.35 15.932990449441562 8.495755798415706 20.676861171079306 0 0 -1
200 18 11 0.06 15.581966559529647 12.088314975261845 22.030494213323763 0 0 -1
112 10 19 -0.35 11.276431687162425 8.936901945499974 8.246338307899974 0 0 0
196 18 2 0.22 13.598026465631655 12.052599531839135 8.703968990880071 0 0 0
231 26 26 -0.39 22.00879806003762 19.0671792794529 10.923719990362248 -1 -1 0
156 14 2 0.22 8.21830107134326 9.06010553338573 19.184663722878195 0 0 0
122 11 20 -0.5 8.01636439818636 21.994516072358067 15.111500558583174 0 -1 0
110 10 20 -0.5 10.119635906232105 10.808843743620397 22.009541833590447 0 0 -1
98 9 20 -0.5 19.657976426925046 17.83538004544308 21.921573812056298 -1 0 -1
198 18 11 0.06 13.22626526470683 13.062341589055995 8.80577457708225 0 0 0
36 3 11 0.06 21.621161136411406 16.386262195598857 20.29117589585915 3 4 -1
128 11 11 0.06 18.189509834040038 20.66139439478113 15.587243452169444 -1 -1 0
201 19 9 0.52 16.6986420722948 21.575120383801828 20.18844395306762 0 -1 -1
88 8 19 -0.35 18.324375999320324 13.154953236300837 21.975178916570627 -1 0 -1

Velocities

246 -0.007122785765622528 0.004938873898024628 -0.0002944752325235668
192 0.001756470497267185 0.005001737833657414 -0.002000417599723873
250 0.006259405670489402 0.003914883708783081 -0.0031258213877326754
224 0.012102813494113926 0.00023965335359868193 0.006743799160798741
247 -0.0006585175812829085 0.0037026396180204024 0.00018303381610910622
249 -0.0018885367164170593 -0.009965473511133117 -0.0037633254324083427
248 0.004865242013506036 0.0003916023171461171 0.006097730799006952
253 0.0007135829458150547 0.0016565761839584757 0.0017102811467430768
244 0.007629175431872381 0.004830742337813564 0.007154117494736387
251 -0.003226199958372096 -0.0007406016278234034 -0.0002921174134098671
242 0.0011113223951963727 -0.0005487162526830283 -0.0030356652248904148
240 0.002449377786778111 -0.0018243659837747833 0.0024608176614362106
223 0.006248808371088781 -0.003299277102913965 -0.007720479285501071
191 -0.00641192565465977 -0.0011350017108525412 -0.0010222245465966004
241 -0.0012809208627575833 0.00203038256149847 -0.0030582604146307452
152 -0.0025964193450751303 0.003821357157479207 0.004821106902532847
193 0.001757178289186366 0.0031431353897982636 0.008102625276542713
194 -0.005153615435617082 -0.00041032658820520457 -0.004805040551647274
243 -0.0030887964272717883 0.0016980935505064812 0.000749873327781994
245 0.007728274785417872 -0.0028761783374559803 0.004850336395024816
142 0.0029381143316314176 -0.00013183562804769993 0.007321885670121007
131 0.004549297990330308 -0.0019221284051856114 0.0003175273147078559
239 0.00012627364065827373 0.001980363008726667 -0.00591109067245195
62 -0.0018291150914032139 0.002231598130401158 -0.004576552031889649
139 -0.015297447116923555 -0.005606082692184923 -0.004957987397091938
140 0.005280097953054806 0.023532204187045574 0.027679262165803253
135 -0.005749856888386331 -0.005278073753127185 0.0005936152217666382
134 -0.0025433432843755804 -0.007384829760759523 0.0018706313909744596
136 0.00781866316294047 -0.0008526107714394775 0.005877814539804491
50 -0.005329828193242528 0.002358357575350861 -0.0020859599656378406
221 -0.00913638754403881 -0.012881335260277382 0.006768320115545347
234 0.0009900070063705597 0.005758302430718714 -0.004886905963409627
133 0.0058048792945249285 -0.009440775526082674 -0.0006926203917596675
137 0.020502230208079637 -0.0021852007208712815 -0.00958969499064061
38 -0.005373984486659455 -0.00626353409273733 0.00034622025036423596
236 -0.0007923415228156885 -0.0029864847630000067 0.004453659764466563
237 0.00020736813169829684 -0.0054117380536012815 0.003791708756148552
233 0.00023348832130008025 0.0021525663490881536 0.0012229124385288038
132 0.0003618954291215206 -0.005205422627325934 -0.00038938773031557103
235 -0.001564519704967074 -0.005080412507298982 -0.0018236093308174625
238 -0.0012235875869614568 0.002723738118917889 -0.007279105047529038
40 0.001453966782499382 -0.0031210002919066266 -0.007436698177556409
138 0.013736624845875536 -0.01922933338878105 0.010893547839120448
42 -0.007961391731427687 -0.0012406589458228258 0.005693296821731242
47 0.013444411514071275 -0.028847634258054162 0.02111404930580287
48 0.024921599495753972 -0.0176208280156449 0.006600110099544639
37 -0.001511870242978693 -0.0011823717353646006 -0.0021671018610079653
39 0.0007675796938488364 0.001267866559784034 -0.0009630587597158669
44 -0.0011844619761471312 0.005600241060910942 0.004488857998903942
41 -0.011017328547448977 0.001749682250947308 -0.01187234820653676
45 0.020085541488673718 0.008899889440893384 0.0006158110763495491
143 -0.0029024549613050183 0.004171091424337686 -0.0021871172316425317
141 0.0028264527538516392 0.0035374980617386186 0.005060948959844457
146 0.0022589799293843377 -0.0006086981488305865 -0.0001421572080562982
79 0.013802357936175152 -0.0010682062428593135 -3.39604786695618e-05
77 0.0029394273284840482 -0.0017739664373907168 0.00737920933358986
81 0.002972747656031734 -0.008034382661749549 0.023978533516378468
43 0.010821131332792923 0.008763144069970849 -0.0041569869923585275
49 0.0016005109902186634 -0.007668921663666942 -0.00026015442997686186
24 0.020359191928843997 -0.007617296327092667 -0.00818508483199203
66 0.004898570638358232 0.00838426878901333 0.003135494939559824
61 -0.005348914561998361 0.006882663022357868 -0.0015787105086939165
64 -0.001463316646076136 0.002091661824157806 -0.0021267692421122223
63 0.0031211680045179304 0.0025456615320441156 -0.008173131754469355
53 0.006093634358928198 0.006254081637001896 0.0018855840554820357
51 0.0063145241814250835 0.0030299629587080506 0.001885265627582887
56 -0.01977783689432884 0.02083617532855671 0.0025363124011840155
7 -0.005126376020333969 0.006519765342770414 0.006058151199614495
5 0.0006357978298305321 -0.004018208374208113 -0.0033187744059647983
9 -0.004517402474564435 -0.009599546179237174 0.002161627830493346
13 -0.0032971314024059445 -0.0020847306615708193 -0.005108307616465223
65 0.0020395862183451934 -0.005134063970127444 0.0012083260017655352
69 -0.020589600453316776 -0.024160767460059247 -0.007485560342881773
80 -0.012862328289594323 0.007761196666411701 0.015434424779036272
52 -0.003686732888101631 0.0011723521023744852 -0.0031262978954939096
54 -0.0031091780990687877 -0.0020680112763580252 -0.0007631438718405052
59 -0.014735545425454596 0.008222647004954663 -0.0027589820967280285
3 -0.00037520230061727396 0.002567691181899235 -0.0014439105219627205
8 -0.026819439352171463 0.03496747213792513 -0.008169812238845655
1 0.0006891795708694253 -0.007472324823428244 8.721358772076329e-05
60 0.018798437713470496 -0.0008688683137576884 -0.0035628732194987957
58 -0.02839249897060856 -0.001557849917666725 0.010527409399405753
57 -0.01952562382328848 0.006457702274880847 -0.0013089819688171449
99 -0.004173365455765437 -0.01065696396664125 0.00041034131568229453
101 -0.0024928271317321005 0.00022438731384313997 0.005192182022878728
104 0.012999788310302213 0.013132600392910448 0.026466246569267708
151 0.005701634265656641 -0.0028048583855529927 0.012738840634726582
154 -0.0032797718121697745 0.0023646435809828647 0.0062620976452281065
4 0.0016189673171886443 -0.002260113581900087 -0.002266636198262712
100 -0.0002591957563969111 -0.0011918325701075732 0.0005754104531614539
162 0.011023737243147173 -0.0022328040976576017 -0.0012913962227451491
46 0.00224054546582013 0.0019214231315174092 0.005652262640340354
144 0.009371790229477796 0.001218884130849134 -0.0010944882400471527
145 -0.006734599829526819 -0.00045679691391785403 0.005334026630309923
2 0.0007445115990319793 -0.004448720331214768 -0.004384139779106086
87 0.004832250345364609 0.0017001441440781795 -0.003995820028091578
89 -0.0015382008446149622 0.00017425150116948153 -0.0018711661049255939
97 -0.0021539814512258368 -0.008317081877861605 0.005119636933669657
92 -0.0026175617944938644 0.03774645361661135 0.01660876323851228
22 0.020568717514555426 -0.01914558740452417 0.030127939454223412
18 -0.0007174600022398624 0.0024064216483063124 -0.003061694586886495
23 -0.015059771133760839 -0.015422867833632708 -0.015885020349274803
16 -0.0007248223395916443 -0.001320771815865213 0.00017644883059401758
91 0.0039142926769183 -0.010754210702069758 0.010252547722326677
161 0.010036789484350236 -0.004044844560334628 0.00041109140359654793
171 -0.0023836202508191904 0.00908220979553953 0.002603346526724898
68 -0.015008740125452438 -0.001984321063410736 -0.003341563432062531
149 0.005927950034511696 -0.01303623601506771 0.0025656312792196457
93 -0.030062237014006482 -0.00472350060514853 0.002366833819753283
164 0.005769367467565872 -0.003307608885803209 0.0004144829597954583
103 -0.004961011434498171 0.0006474423693869564 -0.006853329719192069
150 0.009743420468448094 0.01950724953243771 -0.002290757908321187
107 0.004511908689189467 0.01729408573697831 -0.030368221488734914
125 -0.0017236426727565797 0.003306679873902771 0.006940133778990084
111 -0.002484388261396277 -0.00270710295357755 -0.010050544622709032
113 -0.006486239893502189 0.0090956772504792 0.0053998355206988065
117 0.012624981852036529 -0.03289940939255205 0.0036164119523106066
67 -0.0011027419248071503 -0.02228471113719451 -0.017223381504280537
153 -0.001032771381696421 0.0027118501234096475 0.002251767301541928
102 -0.0063592010845274554 0.0027178788258022768 -0.0015151913119592169
148 -0.009297043195179634 0.024715764428249732 0.00973576583621482
116 -0.001291621961765109 -0.0294523211993403 0.01738600837160342
129 0.00842267564134205 -0.0259017012829004 -0.032081421619350826
225 -0.0035857604383280266 -0.0011744377647545693 0.0037326333475174627
163 -0.006279109264443361 0.0014408197199283585 -0.007257720700961413
14 0.0018489801626210742 -0.001977753878951168 0.0006791251293260067
258 -0.005439093267969985 0.0007306386451650325 -0.0004236633036029443
105 -0.006691481864866049 -0.039418976964794065 0.010059859481232024
166 -0.001933504147269576 -0.0011556715785775971 9.881321234555335e-05
168 0.004071938134623293 0.011559564234174771 0.012973291447877155
173 0.00038082207466471615 -0.0001411270071284692 -0.005062135294772448
177 0.004611913373249154 -0.015741798839733766 -0.010046853419354965
75 0.002016577818687252 0.004337985972159384 0.0031267625197488125
259 -0.003154784229477067 0.0048647220504228796 -0.007907247634886315
26 0.00442872370983436 0.005088206045706588 0.0006979025967715934
25 0.0067938952297328225 0.002141687472432841 -0.012995409353860597
167 0.0242247618326268 0.002814074267120223 0.00571974829070282
70 0.004009086616012235 0.021889733753685033 -0.017741276013337293
207 -0.015832469524435528 0.006095701043397507 0.01338077932398245
15 -0.0016359554921236915 -0.002583914345763725 0.001996281068706646
212 -0.0012682884397851445 0.006142101048012668 -0.0024749503825691756
176 -0.0014703133466794248 -0.0002200633972724176 0.00202393158169903
72 0.0019173181678175631 -0.004113902896671504 0.0034093424276601014
219 -0.00574378587131179 1.4659342224776935e-05 -0.019299507617670977
82 -0.004019208622968646 0.0025736053264483823 0.008943828819935528
175 -0.0017887979875845733 -0.0015389347152635208 0.003566013559029566
226 0.0013840322228588441 0.0026293311406152165 0.0002604775875046395
78 -0.00342572605796596 -0.0004597537114262194 0.007118309634353657
220 -0.006067561232875776 -0.013487767664322458 -0.030869382247253902
86 -0.0034507559583696495 0.008073466702665505 -0.007497634086480334
130 0.0016939417270292463 -0.00897336260956053 0.025851106602665173
254 0.0004435607946419366 0.0005041066579331938 -8.15799636779728e-05
71 0.03304823065921084 5.782682912160064e-05 -0.00334536088718397
165 0.00031520921395393557 -0.00517608340248527 0.005086589944756791
174 -0.003140431155891269 -0.004446930432299443 -0.005676054997918058
189 0.012700423612289536 -0.013330387924282842 0.00235390057427182
127 -0.0197221275474603 -0.012067884010057806 0.0030001838711621685
210 -0.012381129850733844 -0.004157176860028643 -0.003689011643723618
215 -0.005897062266221245 -0.0002928605541610412 0.0005301011237104985
147 -0.020160372910303773 0.017036749934125954 -0.0161335090620093
126 -0.0029615908712163287 0.0011663245173552158 0.00042924052929242836
222 -0.0021770375125641805 0.0024774434102167843 -0.007414489650094625
260 0.0009170402541504516 0.0006220717762740453 0.00449554259854411
256 -0.0016915645301109994 0.004575560376920327 0.0017785356106504464
90 -0.0037190187717415692 -0.0005388662956234441 0.002646504233587018
95 0.0002962429041306415 -0.02354078358850558 -0.004273076859665225
96 -0.011542508199712696 -0.015340634856166704 -0.0036807686528299278
179 0.003882936583143289 0.014375440432580508 0.025473713638840653
83 0.0012878214967570745 -0.016352844423726524 0.009767527332549729
94 -0.018642429107566996 0.005246846687858379 -0.005061716006865837
170 -0.026447236947066986 -0.0013158912800603183 -0.016913467746025028
6 -0.0006774003723897349 0.00017035793491406757 0.003807901350420531
34 0.010796135075419983 -0.013678255362083565 -0.007041329808513825
229 0.003939671294579899 -0.002643158230161075 0.007096530599350265
208 -0.008446254510584405 -0.008105025420022017 0.033324441337050446
74 -0.009043892862300763 0.004704693006513746 -0.002366467495179905
115 0.0175926533759432 0.00554132368078263 -0.001964381839841531
120 0.019315681160556333 0.022154431442893564 0.002017034831974528
227 0.0014238941735038838 0.00369444313042884 0.0036588868551028437
85 -0.006681659861803948 0.002584550436881914 0.0033208821780845443
188 -0.007339705504904197 -0.0006552797385969458 -0.023814328758305033
28 0.0036816052243286313 -0.0006665420036016653 0.0003268600376812508
178 0.0407157734672357 0.009640032134109555 -0.0002063830158658955
124 -0.0017713382632226014 -0.0034066020328727686 0.001093898498580701
217 0.010770655802201415 0.012354515199371325 0.019774749162306787
230 -0.001858114329507547 -0.0014213662487508228 -0.005010731271520908
76 0.004611983918945624 -0.0022777352054605777 0.00890998528294715
216 0.0024350924598658366 -0.0015645292561341706 -0.005908869323168699
20 0.022848200326184575 -0.003477323019551904 -0.03356535747504489
157 0.014710424446468454 0.004294406193887093 -0.021623047393785382
172 -0.0016903399672652227 -0.005249352922624066 -0.0018970230782491223
27 0.007435903923854271 0.0021619536502630898 0.0013218054478638195
257 0.0007171112789126298 -0.002718362944024364 -0.0004805079129693284
29 0.012119260739656754 -0.0018558737311228015 -0.0019324804310072682
186 -0.0058363937108731785 -0.0012744478360515396 -0.0036593461591523644
12 -0.018428822381303677 -0.02404424049807837 0.021190326465295596
218 0.0006189562281793477 -0.01095123351232631 0.0057029376858680585
31 0.02511650493514447 -0.004158015314710632 -0.0039802318133977665
159 0.0014448935028502745 0.010592782721682351 0.005410056520904376
228 0.00540485163684157 0.004201773097196549 -0.0023958560513192197
255 0.0013897294752900596 0.0028697517425606152 -0.00022595343549942684
10 0.002218203220561989 -0.005693626973944373 -0.011065443341729254
206 0.0013174074420592642 0.0008558349616023256 -0.0025718650967211498
158 -0.01631502533375187 -0.006836825953558834 -0.01344961983098131
119 0.01086620607122577 0.003270930871112186 -0.005102395082062739
19 0.008473783741689256 -0.01026645593284685 -0.008534345839204432
35 0.012869894115934302 0.0028458507976426824 0.011072909177723595
84 -0.023230564653017524 -0.009443443555185189 0.011104249914643975
209 -0.008504897607886303 0.023877742200334295 -0.02548163175346935
17 0.004501256016372742 -0.006962234508347845 -0.002085491603262836
55 -0.012364801036737101 0.0026971831340045034 0.01204247607712364
11 0.008197611971646816 0.0038936968607681086 0.018689418761386842
160 -0.01994792531064981 -0.008399007624043749 0.022997015460965126
181 0.00048239889482315913 -0.0015305678376982324 -0.007842259346201958
108 -0.021080729544500125 -0.013739470591832725 0.028583185680274677
33 -0.0033272865332493297 0.01902697111491945 0.019466008890661614
118 0.008593296979060949 -0.0014479120596758497 0.023037655908224965
32 -0.023570803804204843 -0.02425052711115643 -0.0009442146040281445
203 -0.0048112491519054406 0.0023392346340373772 0.0021795401575335255
183 -0.004538543472537626 -0.005378482110944532 -0.0022585537310956566
232 0.0004107512220651984 -0.0007627829800871789 -0.0006602892284370515
202 -0.0006841755110880005 -0.003462017952288978 -0.0004216619841700847
197 -0.0008643178645260497 0.015445712011011536 0.023346344585465355
195 -0.013715918845005665 -0.0060428554649577864 0.00038682441705692114
184 0.0012776946340700586 0.008242611407401047 0.003067573170751521
213 0.0005673932534502557 0.0022327013275452562 0.00870535153836307
169 0.02085314158399326 0.01128582044157006 0.012661476149168759
121 -0.004786352909241113 0.007394332347144572 -0.0038759150702525943
106 0.011006653972917838 0.01482585396632661 -0.009653633676359354
190 0.007569968577837181 0.009212055723964238 0.022305709277984254
252 0.0014451496263765647 0.00021827657384283506 -0.006240547653860526
114 -0.0034909286549012794 0.004892494566384054 -0.00417308504865067
211 0.0038093667701313556 -0.004457523721384601 0.0023811145856636688
109 0.0020953205870812455 -0.005703255703679388 0.0042227384210822
182 0.006249024749706115 -0.0016745331058423216 -0.0075862559421595345
21 -0.00342909526877376 0.012662149544548716 0.016264763566388615
185 -0.006173060498477471 0.0018649373596740378 -0.006798650309114274
30 -2.669405489523197e-05 -0.0002693665956201152 0.0010891768207491506
180 0.004505954853983992 0.0051486262071931705 0.006837064156902535
205 -0.0001888990871601299 -0.0009376054975323367 -0.00040323297669809524
123 0.0002410994995969953 0.003334092561541689 0.0006555946850072776
73 -0.005345586764416191 0.0026254332362465114 9.49041885934293e-05
199 -0.005693022774358704 -0.007759681664201785 0.013985778458600212
214 -0.0013718059966651844 -0.00023476435266597234 0.0009531181149993479
155 0.0026864048648352476 -0.006960492687300751 0.00481593700628691
187 0.030902752259565715 -0.027472011083430167 -0.0015608020201269676
204 0.0018023117276703845 -0.00035596449157816675 0.003852873242828139
200 0.0035419864177293927 -0.015529774261106914 0.009220835146941692
112 0.005106604815447912 -0.0004203185485648762 0.0017199939326984247
196 -0.005312410311447733 -0.004282937798287616 0.00046316319849151375
231 0.002301257960037345 -0.0015053575600416042 0.003750480050624475
156 0.003462365457359365 0.0005918626809868813 0.003824513717401093
122 -0.0030485698048679194 -2.2269611157556945e-05 -0.004000102746759087
110 -0.0026784894621839648 0.004706432845409584 -0.006782965083284478
98 -0.0021294454352252783 0.0077928484380971295 0.0015775587293753762
198 -0.0010952691531751037 -0.0157403575770701 -0.00029814807271051624
36 0.029138862347592324 -0.014273258994201447 -0.002110514301655069
128 -0.0076610813692084894 0.019617543945434905 -0.01579218998673892
201 -0.0018243557380078184 -0.006157599011839611 0.0035290326245454593
88 0.004799373307045878 0.0030722518595753708 -0.003945124284903701

Bonds

1 15 247 248
2 15 247 249
3 15 247 250
4 15 247 251
5 15 247 252
6 15 247 253
7 15 240 241
8 15 240 242
9 15 240 243
10 15 240 244
11 15 240 245
12 15 240 246
13 8 191 192
14 7 191 193
15 7 191 194
16 7 193 196
17 7 194 195
18 8 131 132
19 7 131 133
20 7 131 134
21 1 135 136
22 4 135 139
23 4 135 140
24 7 134 135
25 4 136 137
26 4 136 138
27 7 133 136
28 15 233 234
29 15 233 235
30 15 233 236
31 15 233 237
32 15 233 238
33 15 233 239
34 7 40 42
35 4 42 46
36 4 42 47
37 4 42 48
38 8 37 38
39 7 37 39
40 7 37 40
41 7 39 41
42 4 41 43
43 4 41 44
44 4 41 45
45 7 143 146
46 8 141 142
47 7 141 143
48 7 141 144
49 4 146 147
50 4 146 148
51 4 77 79
52 4 77 80
53 4 77 81
54 8 49 50
55 7 49 51
56 7 49 52
57 4 66 70
58 4 66 71
59 4 66 72
60 8 61 62
61 7 61 63
62 7 61 64
63 7 64 66
64 7 63 65
65 4 53 55
66 4 53 56
67 4 53 57
68 7 51 53
69 4 5 7
70 4 5 8
71 4 5 9
72 8 13 14
73 7 13 15
74 7 13 16
75 4 65 67
76 4 65 68
77 4 65 69
78 7 52 54
79 4 54 58
80 4 54 59
81 4 54 60
82 7 3 5
83 8 1 2
84 7 1 3
85 7 1 4
86 7 99 101
87 4 101 103
88 4 101 104
89 4 101 105
90 8 151 152
91 7 151 153
92 7 151 154
93 7 154 155
94 7 4 6
95 7 100 102
96 7 144 145
97 1 145 146
98 4 145 149
99 4 145 150
100 7 87 89
101 4 89 91
102 4 89 92
103 4 89 93
104 8 97 98
105 7 97 99
106 7 97 100
107 4 18 22
108 4 18 23
109 4 18 24
110 7 16 18
111 8 161 162
112 7 161 163
113 7 161 164
114 8 171 172
115 7 171 173
116 7 171 174
117 7 164 165
118 1 125 126
119 4 125 129
120 4 125 130
121 7 111 113
122 4 113 115
123 4 113 116
124 4 113 117
125 7 153 156
126 4 102 106
127 4 102 107
128 4 102 108
129 7 163 166
130 4 166 167
131 4 166 168
132 7 173 176
133 7 75 77
134 8 25 26
135 7 25 27
136 7 25 28
137 7 15 17
138 4 176 177
139 4 176 178
140 1 175 176
141 4 175 179
142 4 175 180
143 15 226 227
144 15 226 228
145 15 226 229
146 15 226 230
147 15 226 231
148 15 226 232
149 4 78 82
150 4 78 83
151 4 78 84
152 15 254 255
153 15 254 256
154 15 254 257
155 15 254 258
156 15 254 259
157 15 254 260
158 1 165 166
159 4 165 169
160 4 165 170
161 7 174 175
162 1 215 216
163 4 215 219
164 4 215 220
165 4 126 127
166 4 126 128
167 4 90 94
168 4 90 95
169 4 90 96
170 4 6 10
171 4 6 11
172 4 6 12
173 8 85 86
174 7 85 87
175 7 85 88
176 7 28 30
177 7 124 125
178 7 76 78
179 4 216 217
180 4 216 218
181 7 27 29
182 4 29 31
183 4 29 32
184 4 29 33
185 4 186 187
186 4 186 188
187 4 206 207
188 4 206 208
189 4 17 19
190 4 17 20
191 4 17 21
192 8 181 182
193 7 181 183
194 7 181 184
195 7 203 206
196 7 183 186
197 1 195 196
198 4 195 199
199 4 195 200
200 7 184 185
201 7 213 216
202 8 121 122
203 7 121 123
204 7 121 124
205 4 114 118
206 4 114 119
207 4 114 120
208 8 211 212
209 7 211 213
210 7 211 214
211 8 109 110
212 7 109 111
213 7 109 112
214 1 185 186
215 4 185 189
216 4 185 190
217 4 30 34
218 4 30 35
219 4 30 36
220 1 205 206
221 4 205 209
222 4 205 210
223 7 123 126
224 8 73 74
225 7 73 75
226 7 73 76
227 7 214 215
228 1 155 156
229 4 155 159
230 4 155 160
231 7 204 205
232 7 112 114
233 4 196 197
234 4 196 198
235 4 156 157
236 4 156 158
237 8 201 202
238 7 201 203
239 7 201 204
240 7 88 90

Angles

1 18 248 247 249
2 18 250 247 251
3 18 252 247 253
4 17 248 247 250
5 17 248 247 251
6 17 248 247 252
7 17 248 247 253
8 17 249 247 250
9 17 249 247 251
10 17 249 247 252
11 17 249 247 253
12 17 250 247 252
13 17 250 247 253
14 17 251 247 252
15 17 251 247 253
16 18 241 240 242
17 18 243 240 244
18 18 245 240 246
19 17 241 240 243
20 17 241 240 244
21 17 241 240 245
22 17 241 240 246
23 17 242 240 243
24 17 242 240 244
25 17 242 240 245
26 17 242 240 246
27 17 243 240 245
28 17 243 240 246
29 17 244 240 245
30 17 244 240 246
31 11 192 191 193
32 11 192 191 194
33 12 193 191 194
34 9 191 193 196
35 9 191 194 195
36 11 132 131 133
37 11 132 131 134
38 12 133 131 134
39 13 134 135 136
40 4 136 135 139
41 4 136 135 140
42 6 139 135 140
43 9 131 134 135
44 13 133 136 135
45 4 135 136 137
46 4 135 136 138
47 6 137 136 138
48 9 131 133 136
49 18 234 233 235
50 18 236 233 237
51 18 238 233 239
52 17 234 233 236
53 17 234 233 237
54 17 234 233 238
55 17 234 233 239
56 17 235 233 236
57 17 235 233 237
58 17 235 233 238
59 17 235 233 239
60 17 236 233 238
61 17 236 233 239
62 17 237 233 238
63 17 237 233 239
64 9 37 40 42
65 4 40 42 46
66 4 40 42 47
67 4 40 42 48
68 7 46 42 47
69 7 46 42 48
70 7 47 42 48
71 11 38 37 39
72 11 38 37 40
73 12 39 37 40
74 9 37 39 41
75 4 39 41 43
76 4 39 41 44
77 4 39 41 45
78 7 43 41 44
79 7 43 41 45
80 7 44 41 45
81 9 141 143 146
82 11 142 141 143
83 11 142 141 144
84 12 143 141 144
85 13 143 146 145
86 4 145 146 147
87 4 145 146 148
88 6 147 146 148
89 4 75 77 79
90 4 75 77 80
91 4 75 77 81
92 7 79 77 80
93 7 79 77 81
94 7 80 77 81
95 11 50 49 51
96 11 50 49 52
97 12 51 49 52
98 4 64 66 70
99 4 64 66 71
100 4 64 66 72
101 7 70 66 71
102 7 70 66 72
103 7 71 66 72
104 11 62 61 63
105 11 62 61 64
106 12 63 61 64
107 9 61 64 66
108 9 61 63 65
109 4 51 53 55
110 4 51 53 56
111 4 51 53 57
112 7 55 53 56
113 7 55 53 57
114 7 56 53 57
115 9 49 51 53
116 4 3 5 7
117 4 3 5 8
118 4 3 5 9
119 7 7 5 8
120 7 7 5 9
121 7 8 5 9
122 11 14 13 15
123 11 14 13 16
124 12 15 13 16
125 4 63 65 67
126 4 63 65 68
127 4 63 65 69
128 7 67 65 68
129 7 67 65 69
130 7 68 65 69
131 9 49 52 54
132 4 52 54 58
133 4 52 54 59
134 4 52 54 60
135 7 58 54 59
136 7 58 54 60
137 7 59 54 60
138 9 1 3 5
139 11 2 1 3
140 11 2 1 4
141 12 3 1 4
142 9 97 99 101
143 4 99 101 103
144 4 99 101 104
145 4 99 101 105
146 7 103 101 104
147 7 103 101 105
148 7 104 101 105
149 11 152 151 153
150 11 152 151 154
151 12 153 151 154
152 9 151 154 155
153 9 1 4 6
154 9 97 100 102
155 9 141 144 145
156 13 144 145 146
157 4 146 145 149
158 4 146 145 150
159 6 149 145 150
160 9 85 87 89
161 4 87 89 91
162 4 87 89 92
163 4 87 89 93
164 7 91 89 92
165 7 91 89 93
166 7 92 89 93
167 11 98 97 99
168 11 98 97 100
169 12 99 97 100
170 4 16 18 22
171 4 16 18 23
172 4 16 18 24
173 7 22 18 23
174 7 22 18 24
175 7 23 18 24
176 9 13 16 18
177 11 162 161 163
178 11 162 161 164
179 12 163 161 164
180 11 172 171 173
181 11 172 171 174
182 12 173 171 174
183 9 161 164 165
184 13 124 125 126
185 4 126 125 129
186 4 126 125 130
187 6 129 125 130
188 9 109 111 113
189 4 111 113 115
190 4 111 113 116
191 4 111 113 117
192 7 115 113 116
193 7 115 113 117
194 7 116 113 117
195 9 151 153 156
196 4 100 102 106
197 4 100 102 107
198 4 100 102 108
199 7 106 102 107
200 7 106 102 108
201 7 107 102 108
202 9 161 163 166
203 13 163 166 165
204 4 165 166 167
205 4 165 166 168
206 6 167 166 168
207 9 171 173 176
208 9 73 75 77
209 11 26 25 27
210 11 26 25 28
211 12 27 25 28
212 9 13 15 17
213 13 173 176 175
214 4 175 176 177
215 4 175 176 178
216 6 177 176 178
217 13 174 175 176
218 4 176 175 179
219 4 176 175 180
220 6 179 175 180
221 18 227 226 228
222 18 229 226 230
223 18 231 226 232
224 17 227 226 229
225 17 227 226 230
226 17 227 226 231
227 17 227 226 232
228 17 228 226 229
229 17 228 226 230
230 17 228 226 231
231 17 228 226 232
232 17 229 226 231
233 17 229 226 232
234 17 230 226 231
235 17 230 226 232
236 4 76 78 82
237 4 76 78 83
238 4 76 78 84
239 7 82 78 83
240 7 82 78 84
241 7 83 78 84
242 18 255 254 256
243 18 257 254 258
244 18 259 254 260
245 17 255 254 257
246 17 255 254 258
247 17 255 254 259
248 17 255 254 260
249 17 256 254 257
250 17 256 254 258
251 17 256 254 259
252 17 256 254 260
253 17 257 254 259
254 17 257 254 260
255 17 258 254 259
256 17 258 254 260
257 13 164 165 166
258 4 166 165 169
259 4 166 165 170
260 6 169 165 170
261 9 171 174 175
262 13 214 215 216
263 4 216 215 219
264 4 216 215 220
265 6 219 215 220
266 13 123 126 125
267 4 125 126 127
268 4 125 126 128
269 6 127 126 128
270 4 88 90 94
271 4 88 90 95
272 4 88 90 96
273 7 94 90 95
274 7 94 90 96
275 7 95 90 96
276 4 4 6 10
277 4 4 6 11
278 4 4 6 12
279 7 10 6 11
280 7 10 6 12
281 7 11 6 12
282 11 86 85 87
283 11 86 85 88
284 12 87 85 88
285 9 25 28 30
286 9 121 124 125
287 9 73 76 78
288 13 213 216 215
289 4 215 216 217
290 4 215 216 218
291 6 217 216 218
292 9 25 27 29
293 4 27 29 31
294 4 27 29 32
295 4 27 29 33
296 7 31 29 32
297 7 31 29 33
298 7 32 29 33
299 13 183 186 185
300 4 185 186 187
301 4 185 186 188
302 6 187 186 188
303 13 203 206 205
304 4 205 206 207
305 4 205 206 208
306 6 207 206 208
307 4 15 17 19
308 4 15 17 20
309 4 15 17 21
310 7 19 17 20
311 7 19 17 21
312 7 20 17 21
313 11 182 181 183
314 11 182 181 184
315 12 183 181 184
316 9 201 203 206
317 9 181 183 186
318 13 194 195 196
319 4 196 195 199
320 4 196 195 200
321 6 199 195 200
322 9 181 184 185
323 9 211 213 216
324 11 122 121 123
325 11 122 121 124
326 12 123 121 124
327 4 112 114 118
328 4 112 114 119
329 4 112 114 120
330 7 118 114 119
331 7 118 114 120
332 7 119 114 120
333 11 212 211 213
334 11 212 211 214
335 12 213 211 214
336 11 110 109 111
337 11 110 109 112
338 12 111 109 112
339 13 184 185 186
340 4 186 185 189
341 4 186 185 190
342 6 189 185 190
343 4 28 30 34
344 4 28 30 35
345 4 28 30 36
346 7 34 30 35
347 7 34 30 36
348 7 35 30 36
349 13 204 205 206
350 4 206 205 209
351 4 206 205 210
352 6 209 205 210
353 9 121 123 126
354 11 74 73 75
355 11 74 73 76
356 12 75 73 76
357 9 211 214 215
358 13 154 155 156
359 4 156 155 159
360 4 156 155 160
361 6 159 155 160
362 9 201 204 205
363 9 109 112 114
364 13 193 196 195
365 4 195 196 197
366 4 195 196 198
367 6 197 196 198
368 13 153 156 155
369 4 155 156 157
370 4 155 156 158
371 6 157 156 158
372 11 202 201 203
373 11 202 201 204
374 12 203 201 204
375 9 85 88 90

Dihedrals

1 8 192 191 193 196
2 8 192 191 194 195
3 5 191 193 196 195
4 7 191 194 195 196
5 8 132 131 133 136
6 8 132 131 134 135
7 7 131 134 135 136
8 7 133 136 135 134
9 5 131 133 136 135
10 6 37 40 42 46
11 6 37 40 42 47
12 6 37 40 42 48
13 8 38 37 39 41
14 8 38 37 40 42
15 6 37 39 41 43
16 6 37 39 41 44
17 6 37 39 41 45
18 5 141 143 146 145
19 8 142 141 143 146
20 8 142 141 144 145
21 7 143 146 145 144
22 8 50 49 51 53
23 8 50 49 52 54
24 8 62 61 63 65
25 8 62 61 64 66
26 6 61 64 66 70
27 6 61 64 66 71
28 6 61 64 66 72
29 6 61 63 65 67
30 6 61 63 65 68
31 6 61 63 65 69
32 6 49 51 53 55
33 6 49 51 53 56
34 6 49 51 53 57
35 8 14 13 15 17
36 8 14 13 16 18
37 6 49 52 54 58
38 6 49 52 54 59
39 6 49 52 54 60
40 6 1 3 5 7
41 6 1 3 5 8
42 6 1 3 5 9
43 8 2 1 3 5
44 8 2 1 4 6
45 6 97 99 101 103
46 6 97 99 101 104
47 6 97 99 101 105
48 8 152 151 153 156
49 8 152 151 154 155
50 7 151 154 155 156
51 6 1 4 6 10
52 6 1 4 6 11
53 6 1 4 6 12
54 6 97 100 102 106
55 6 97 100 102 107
56 6 97 100 102 108
57 7 141 144 145 146
58 6 85 87 89 91
59 6 85 87 89 92
60 6 85 87 89 93
61 8 98 97 99 101
62 8 98 97 100 102
63 6 13 16 18 22
64 6 13 16 18 23
65 6 13 16 18 24
66 8 162 161 163 166
67 8 162 161 164 165
68 8 172 171 173 176
69 8 172 171 174 175
70 7 161 164 165 166
71 6 109 111 113 115
72 6 109 111 113 116
73 6 109 111 113 117
74 5 151 153 156 155
75 5 161 163 166 165
76 7 163 166 165 164
77 5 171 173 176 175
78 6 73 75 77 79
79 6 73 75 77 80
80 6 73 75 77 81
81 8 26 25 27 29
82 8 26 25 28 30
83 6 13 15 17 19
84 6 13 15 17 20
85 6 13 15 17 21
86 7 173 176 175 174
87 7 171 174 175 176
88 7 123 126 125 124
89 8 86 85 87 89
90 8 86 85 88 90
91 6 25 28 30 34
92 6 25 28 30 35
93 6 25 28 30 36
94 7 121 124 125 126
95 6 73 76 78 82
96 6 73 76 78 83
97 6 73 76 78 84
98 7 213 216 215 214
99 6 25 27 29 31
100 6 25 27 29 32
101 6 25 27 29 33
102 7 183 186 185 184
103 7 203 206 205 204
104 8 182 181 183 186
105 8 182 181 184 185
106 5 201 203 206 205
107 5 181 183 186 185
108 7 181 184 185 186
109 5 211 213 216 215
110 8 122 121 123 126
111 8 122 121 124 125
112 8 212 211 213 216
113 8 212 211 214 215
114 8 110 109 111 113
115 8 110 109 112 114
116 5 121 123 126 125
117 8 74 73 75 77
118 8 74 73 76 78
119 7 211 214 215 216
120 7 201 204 205 206
121 6 109 112 114 118
122 6 109 112 114 119
123 6 109 112 114 120
124 7 193 196 195 194
125 7 153 156 155 154
126 8 202 201 203 206
127 8 202 201 204 205
128 6 85 88 90 94
129 6 85 88 90 95
130 6 85 88 90 96
