LAMMPS data file via write_data, version 23 Jun 2022, timestep = 1730

770 atoms
31 atom types
715 bonds
17 bond types
1087 angles
18 angle types
455 dihedrals
9 dihedral types
0 impropers
2 improper types

0 20 xlo xhi
0 20 ylo yhi
0 20 zlo zhi

Masses

1 12.011
2 12.011
3 12.011
4 12.011
5 12.011
6 12.011
7 12.011
8 12.011
9 12.011
10 12.011
11 1.008
12 1.008
13 1.008
14 1.008
15 1.008
16 1.008
17 1.008
18 15.999
19 15.999
20 15.999
21 15.999
22 14.007
23 14.007
24 14.007
25 14.007
26 18.998
27 30.974
28 6.941
29 32.065
30 32.065
31 6.941

Atoms # full

40 4 19 -0.35 4.756555664313244 2.1834618658832032 1.6344315762041497 0 0 0
42 4 1 0.22 3.5660135697014326 1.6523472749705803 1.0881482590301448 0 0 0
48 4 11 0.06 3.3586400081013785 0.644418618979425 1.450748601258273 0 0 0
46 4 11 0.06 2.711315857476209 2.273810154731535 1.3560897485152155 0 0 0
37 4 9 0.52 5.782290259455846 1.2122784809676836 1.6475340412297004 0 0 0
38 4 20 -0.5 5.7721521650946555 0.27895516811463206 0.847423081491116 0 0 0
43 4 11 0.06 8.196758947361042 0.6676908956356987 1.3107512475766507 0 0 0
41 4 1 0.22 7.940319575756351 0.6104919891623205 2.36947951675112 0 0 0
769 74 26 -0.39 12.12540576543799 1.9523132281119 0.20127822370646561 0 0 1
151 13 11 0.06 13.630034579602265 2.33723358772245 2.1882848390530407 0 0 0
689 60 11 0.06 3.9391561120349166 4.091506527085967 0.15748213457496882 0 0 1
399 34 19 -0.35 6.409101128037213 4.480358787605498 1.6896809866767313 0 0 0
401 34 1 0.22 7.760515126205509 4.105930278227707 1.8777667193391778 0 0 0
405 34 11 0.06 7.938260079184914 3.1524563755632253 1.3860228926841522 0 0 0
403 34 11 0.06 8.492501733003621 4.806161781516257 1.4761978842818488 0 0 0
146 13 20 -0.5 11.791076522373157 4.015049588447467 2.3996996120530283 0 0 0
149 13 1 0.22 14.350187376601774 3.1431247766727854 2.045524636866232 0 0 0
152 13 11 0.06 14.475777330722067 3.3007058147911392 0.9841380910680961 0 0 0
153 13 11 0.06 15.33002508138377 2.8001736449838295 2.336379917936212 0 0 0
400 34 19 -0.35 4.7079764830381965 6.16574839068406 1.8497870508602496 0 0 0
397 34 9 0.52 6.087910154898762 5.8483033382924665 1.8949307303321106 0 0 0
398 34 20 -0.5 6.9390525583311735 6.731532575412605 1.813373935670224 0 0 0
108 9 11 0.06 11.899589578481187 6.234058587836359 0.3744619251212754 0 0 0
155 13 11 0.06 10.464448082533439 6.133819228594398 2.414908693040669 0 0 0
97 9 9 0.52 14.577254307149646 6.883509368420782 0.6246080062315986 0 0 0
98 9 20 -0.5 14.578597190867672 5.700904416545704 0.30170287069445767 0 0 0
101 9 1 0.22 16.707618348650303 6.795365070552262 1.6897727432263432 0 0 0
103 9 11 0.06 16.311201707797 5.8628011977272365 2.09600636978122 0 0 0
104 9 11 0.06 17.58838012661414 6.536865848532121 1.1020588182759272 0 0 0
402 34 1 0.22 4.425464542200933 7.552738948121017 1.882671379711116 0 0 0
406 34 11 0.06 3.3654377399578834 7.717584526043292 1.6893938314839752 0 0 0
408 34 11 0.06 4.9717201357445395 8.107193370197322 1.1248826840102746 0 0 0
272 23 11 0.06 8.937269419044584 9.23427742642138 0.40611805266385614 0 0 1
574 49 19 -0.35 12.64091970814732 9.337503287202335 2.334112628469798 0 0 0
100 9 19 -0.35 13.373867281398205 7.6171734387082894 0.677581758936965 0 0 0
99 9 19 -0.35 15.787881601434087 7.558907400311724 0.9197704979816121 0 0 0
120 10 11 0.06 18.057690391774035 9.237874741206868 0.9041406403351101 0 0 1
114 10 1 0.22 18.929204479086227 9.478213484530514 0.29464410718334577 0 0 1
118 10 11 0.06 19.485496215550164 8.542522400830732 0.2836564866868488 0 0 1
184 16 19 -0.35 5.665116847849806 12.459772332146214 1.7973075259942703 0 0 0
190 16 11 0.06 6.44864042310507 10.554146268757433 2.062813471665836 0 0 0
142 12 11 0.06 8.753843637310835 12.093158787424667 0.7844244364257248 0 0 0
579 49 11 0.06 11.699644832938041 11.423124734731532 2.361442513311663 0 0 0
575 49 2 0.22 12.545176949474195 10.74220845585376 2.2726945022083713 0 0 0
578 49 11 0.06 14.002216762636102 12.373506397978552 2.4236727341374813 0 0 0
580 49 11 0.06 12.591635156123798 10.463074212791742 1.222886511544115 0 0 0
354 30 1 0.22 16.57833868003551 12.031342278993025 0.7637757976918617 0 0 0
358 30 11 0.06 15.899532814141994 11.304754844814939 1.2018992985096129 0 0 0
360 30 11 0.06 17.577619805409828 11.685525157880189 0.9933817476624782 0 0 0
119 10 11 0.06 19.567872262159877 10.183954258990642 0.8190076458224173 0 0 1
181 16 9 0.52 5.734424828190173 13.730650704959785 2.409934908249762 0 0 0
183 16 19 -0.35 5.84153388836171 14.8670751730366 1.5709890447463664 0 0 0
138 12 1 0.22 8.803905217097217 13.160184095716277 0.5906159208633773 0 0 0
143 12 11 0.06 7.9570364860549265 13.627834697400187 1.086671244082348 0 0 0
136 12 19 -0.35 10.03568011107087 13.638362987676567 1.070678135101317 0 0 0
740 70 26 -0.39 12.386873536508869 14.17954748481133 0.42615184103960296 0 0 1
349 30 9 0.52 17.313862585894498 14.224462296039482 0.6198525964999608 0 0 0
352 30 19 -0.35 16.381852092743248 13.34675007803453 1.2283566562041983 0 0 0
350 30 20 -0.5 18.517182514108537 13.971590585164844 0.6450616993106989 0 0 0
185 16 1 0.22 6.43199552245215 15.9830686152248 2.2154911680216216 0 0 0
188 16 11 0.06 7.011009310904502 16.565965369170428 1.4988090320941123 0 0 0
134 12 20 -0.5 9.484284477665632 15.694820528397651 0.21735237880725466 0 0 0
139 12 11 0.06 9.761882129133294 17.29274641907093 2.1181120659160557 0 0 0
133 12 9 0.52 10.088034808436685 15.04537321535477 1.0689312061979315 0 0 0
135 12 19 -0.35 11.030827523291833 15.649360803022677 1.9311623627697678 0 0 0
137 12 1 0.22 10.819772749263095 17.036570377205738 2.0623937525508724 0 0 0
738 70 26 -0.39 13.583749009610873 16.009057355297777 0.6977523388574073 0 0 1
351 30 19 -0.35 16.85690815497746 15.508953189826046 0.24735151893064444 0 0 0
515 43 11 0.06 15.642191331493967 17.057393084369444 2.3722101668024593 0 0 0
356 30 11 0.06 17.397823652285233 17.49726287476295 0.2492605510687168 0 0 0
353 30 1 0.22 17.785989685664873 16.530583216881787 0.570521480756082 0 0 0
357 30 11 0.06 17.983921269969777 16.59580220781296 1.6363537162597936 0 0 0
355 30 11 0.06 18.759142849308635 16.39584161580746 0.10407043580832856 0 0 0
141 12 11 0.06 11.261799652500468 17.56257301066347 1.2200453745641398 0 0 0
176 15 11 0.06 14.084670062552943 18.59622846907375 0.7265159220903805 0 0 1
39 4 19 -0.35 6.734017214258839 1.2766422594660873 2.6911464434455667 0 0 0
44 4 11 0.06 8.76763084028017 1.0539084256999864 2.9239952312918396 0 0 0
524 44 11 0.06 7.604381555044423 2.308327628426531 4.7950896699862335 0 0 0
478 40 11 0.06 11.195690366333489 1.1881184287336537 4.979311025290585 0 0 0
469 40 9 0.52 14.407345574705401 1.5521216060407632 4.429337446962701 0 0 0
472 40 19 -0.35 13.211932658998172 0.8633384747366768 4.748520810000667 0 0 0
471 40 19 -0.35 15.418585421925195 0.773240059659204 3.7922789221030446 0 0 0
473 40 1 0.22 16.755702046979128 1.2643271555733584 3.801682711657677 0 0 0
475 40 11 0.06 16.93260813629398 2.267563616582414 4.178177338456809 0 0 0
476 40 11 0.06 17.374383137204635 0.634385559578106 4.421443520907398 0 0 0
477 40 11 0.06 17.191521206223 1.199811395855485 2.8040944073700396 0 0 0
702 62 20 -0.5 19.6315815526035 1.9797958280885335 4.393920964860063 0 0 0
84 7 11 0.06 2.153034949365771 2.6587347726204467 4.754560426740545 0 0 0
581 50 9 0.52 3.378119024799546 4.613818265831701 3.795389408337986 0 0 0
582 50 20 -0.5 2.5510831647086687 4.323984336261692 2.933483677851817 0 0 0
583 50 19 -0.35 4.3652939500693355 3.694104360554061 4.224265983369192 0 0 0
588 50 11 0.06 5.708634586755437 3.748607366683575 3.9717952918639847 0 0 0
586 50 2 0.22 5.436643342141641 4.470791022279151 4.740344122867651 0 0 0
404 34 11 0.06 7.972047165731345 3.925734326578304 2.92560603295328 0 0 0
480 40 11 0.06 12.06411630349708 2.598167061799863 4.4410881631456185 0 0 0
145 13 9 0.52 12.728914803533195 4.784268010320459 2.600234227220873 0 0 0
147 13 19 -0.35 14.050349857939452 4.313448013255074 2.7837029586032522 0 0 0
470 40 20 -0.5 14.542344465611139 2.7434764790393307 4.708717005398965 0 0 0
709 62 11 0.06 17.101735970568832 4.760370555820516 4.195666631697685 0 0 0
701 62 9 0.52 19.22768622137543 3.0919521720629466 4.723454542543664 0 0 0
704 62 19 -0.35 18.698055477954725 3.993137607880602 3.7851003753920134 0 0 0
705 62 2 0.22 18.10329510843834 5.0166559559795205 4.549878882115258 0 0 0
584 50 19 -0.35 3.676535163550444 5.945546728506568 4.1139350143679865 0 0 0
585 50 2 0.22 5.062974909696656 5.921915170609438 4.38523616925483 0 0 0
590 50 11 0.06 5.966870999535857 6.512880987803235 4.356638780489306 0 0 0
326 28 20 -0.5 8.382777113569079 6.2323339732316105 3.790440923786138 0 0 0
325 28 9 0.52 8.716254371074399 6.8290915913979005 4.805708562285773 0 0 0
150 13 1 0.22 11.168243198622843 6.4098087653952245 3.195912478826335 0 0 0
154 13 11 0.06 11.0225779020205 7.4652336646029 3.4258544459923708 0 0 0
156 13 11 0.06 10.895202290365647 5.84295190931083 4.080392670361334 0 0 0
148 13 19 -0.35 12.501501270589351 6.1642901401966 2.7998368667754074 0 0 0
422 36 20 -0.5 13.192518490850752 7.210401394707384 5.023958659411587 0 0 0
261 22 11 0.06 15.806256862760993 6.8426477541042106 4.6766178628135995 0 0 0
105 9 11 0.06 17.059611592871082 7.387521368592807 2.534354269653761 0 0 0
710 62 11 0.06 18.29558801121347 6.047683121632291 4.245034274449621 0 0 0
668 58 11 0.06 1.1276241869757027 9.801780433676747 3.615030505139768 0 0 0
407 34 11 0.06 4.642697313338319 8.001415559583192 2.8498413610434516 0 0 0
331 28 11 0.06 7.299125383660662 8.473893951097004 3.569107573874635 0 0 0
329 28 1 0.22 8.241423227780542 8.946087440915958 3.8328255112863383 0 0 0
332 28 11 0.06 8.001213724835159 9.919878629899808 4.2570929401929085 0 0 0
333 28 11 0.06 8.804910676579226 9.113456294882024 2.9151922856648462 0 0 0
327 28 19 -0.35 9.007337968234301 8.21265193991238 4.764406060627642 0 0 0
427 36 11 0.06 12.494401381399314 9.597983346962007 4.815050725723858 0 0 0
571 49 9 0.52 13.94006032194232 9.077495030849251 2.801497111214077 0 0 0
572 49 20 -0.5 14.373145268145086 7.937345287199539 2.946963065428586 0 0 0
259 22 11 0.06 15.628969682884044 8.52843432749759 5.020403177546587 0 0 0
663 58 19 -0.35 1.3787538694280626 11.83027250103708 4.775136228253344 0 0 0
666 58 2 0.22 1.661615230220826 10.627399467380792 4.090997187465018 0 0 0
664 58 19 -0.35 3.481637586582678 12.110190989897921 3.72976918705748 0 0 0
665 58 2 0.22 3.1194251321597988 10.751341197611326 3.5951584076576384 0 0 0
669 58 11 0.06 3.7767222841042383 10.012029366348862 4.05642463876104 0 0 0
670 58 11 0.06 3.2140689263730446 10.619575887336627 2.51509191032034 0 0 0
186 16 1 0.22 6.346678320332946 11.505972787978811 2.583538063026366 0 0 0
192 16 11 0.06 5.842020431166992 11.317038274723178 3.527760486560465 0 0 0
191 16 11 0.06 7.339266360307772 11.862233991033095 2.8305051582646414 0 0 0
756 72 26 -0.39 9.67718693483528 12.040969468014037 3.6902497283842393 0 0 0
428 36 11 0.06 10.792944560740946 9.969896827882677 4.861805247633794 0 0 0
576 49 2 0.22 13.892396871474798 11.331482523584322 2.741035775934164 0 0 0
573 49 19 -0.35 14.698889129847027 10.225161419967284 3.109860956610605 0 0 0
577 49 11 0.06 13.979544028866243 11.349209503299186 3.8274762333784147 0 0 0
208 18 19 -0.35 17.399695866028367 12.149584775075418 3.441847225187415 0 0 0
210 18 1 0.22 18.421640301561656 11.232440093274432 3.7720853887384607 0 0 0
214 18 11 0.06 19.20923092970314 11.299757279568714 3.025393385643201 0 0 0
216 18 11 0.06 18.052347803208864 10.207464672975167 3.753184962658396 0 0 0
215 18 11 0.06 18.914929248107732 11.4258849448867 4.7172160861736945 0 0 0
661 58 9 0.52 2.436394431946907 12.695685394169423 4.4581062124440844 0 0 0
662 58 20 -0.5 2.3990518998804307 13.898570092164539 4.70643687630495 0 0 0
182 16 20 -0.5 5.573259495213618 13.844615261182533 3.62323131781479 0 0 0
753 72 26 -0.39 9.01476310955387 14.121966182566075 3.2956813869860553 0 0 0
750 72 27 1.34 9.94355314872097 13.432527042802743 4.334318286974901 0 0 0
751 72 26 -0.39 11.177748770516441 13.634658260304311 3.402842879126821 0 0 0
755 72 26 -0.39 10.222678478664479 14.826601716103882 4.966566401590991 0 0 0
213 18 11 0.06 13.586350307363155 13.709996269115857 4.539466005575933 0 0 0
205 18 9 0.52 16.61075978863351 12.667680185308532 4.5020032290903895 0 0 0
207 18 19 -0.35 15.51651752209442 13.451031051124508 4.092250839558237 0 0 0
506 43 20 -0.5 17.479019904604936 14.621326925686404 3.0794504878456306 0 0 0
511 43 11 0.06 19.900463865245175 14.630188089254988 3.6880116000897276 0 0 0
189 16 11 0.06 5.66454304630355 16.640192986029174 2.623872244733144 0 0 0
187 16 11 0.06 7.1122305717554655 15.720128302846677 3.0260071870534433 0 0 0
140 12 11 0.06 11.29597810615601 17.40807207251142 2.9697422037154486 0 0 0
514 43 11 0.06 14.305199309009765 16.617231926793163 3.3890769321554335 0 0 0
510 43 1 0.22 15.29608130305432 16.300327759933484 3.072992754998613 0 0 0
516 43 11 0.06 15.157860026014331 15.368268163900963 2.5279347488930086 0 0 0
505 43 9 0.52 17.407556119858082 15.573287500911185 3.8412227987138876 0 0 0
508 43 19 -0.35 16.165133314680634 16.16454816684518 4.187163605855669 0 0 0
509 43 1 0.22 19.503382090081516 15.002807197952926 4.6328610891564335 0 0 0
507 43 19 -0.35 18.58654051982427 16.05680580338689 4.434014784325645 0 0 0
45 4 11 0.06 7.888114780465384 19.557752337623747 2.6466053558416704 0 -1 0
443 37 11 0.06 19.584884614894 19.485332532909467 4.2349952234703405 0 0 0
83 7 11 0.06 1.4471587280834697 1.7878718108514595 6.101188567442885 0 0 0
78 7 1 0.22 2.3753683203415914 2.1801932119659515 5.705305121284764 0 0 0
82 7 11 0.06 3.0254222949059035 1.3352853653047605 5.481430117654278 0 0 0
517 44 9 0.52 5.565144287768085 1.3389962818168597 7.0483891634271565 0 0 0
518 44 20 -0.5 5.151240233679987 0.38550726525591866 6.390010536938227 0 0 0
519 44 19 -0.35 6.509868477366244 2.264020884009996 6.532834630732475 0 0 0
523 44 11 0.06 7.433015115922592 0.6944667678260242 5.43055987334739 0 0 0
521 44 1 0.22 7.54254755678183 1.737326514253293 5.718976578214337 0 0 0
525 44 11 0.06 8.502989982245502 1.8550208342751 6.2189069118423 0 0 0
223 19 11 0.06 10.402558947429853 0.6011884417149662 7.276350045884697 0 1 0
474 40 1 0.22 12.13882106611383 1.7206602449833721 5.08342365488244 0 0 0
479 40 11 0.06 12.213970752991251 2.043525755744665 6.1204492617576465 0 0 0
395 33 11 0.06 14.766132211122988 2.03597209046984 7.096008125419839 0 0 0
74 7 20 -0.5 1.613176472900287 4.756739238380841 5.9969527778221385 0 0 0
73 7 9 0.52 2.6788788811209896 4.3961549890086316 6.496383206123899 0 0 0
76 7 19 -0.35 2.9585110766466305 3.019570989307619 6.681195719973682 0 0 0
587 50 11 0.06 4.982938832769095 4.012103481262275 5.609443091340181 0 0 0
330 28 1 0.22 8.773616640566166 4.7458497754319255 5.886445315586955 0 0 0
334 28 11 0.06 9.083266595769594 4.225842738371503 6.792396418498897 0 0 0
335 28 11 0.06 7.695435417586038 4.630431733579042 5.79740485706444 0 0 0
336 28 11 0.06 9.247818409056876 4.234029957598387 5.051733313301952 0 0 0
430 36 11 0.06 12.403478310303731 4.296919633973652 7.183776434527903 0 0 0
431 36 11 0.06 12.652968850839446 4.8230905813655145 5.531758135920897 0 0 0
707 62 11 0.06 17.513186084222216 4.38389105427453 6.624584567485221 0 0 0
706 62 2 0.22 18.38549365088821 4.692057556733058 6.044537992567967 0 0 0
703 62 19 -0.35 19.079943751609783 3.463950412630311 6.071680363121663 0 0 0
79 7 11 0.06 2.4741115710197876 7.039506069510121 6.5213853589896615 0 0 0
589 50 11 0.06 4.463963964523764 6.410970885462068 5.148057761056582 0 0 0
75 7 19 -0.35 3.534708592138036 5.30056038736396 7.183611026462758 0 0 0
77 7 1 0.22 3.0769073000074045 6.6354671779617735 7.33458291571758 0 0 0
81 7 11 0.06 3.937903942699799 7.296595679300783 7.435881411908886 0 0 0
93 8 11 0.06 6.786330093801078 6.822506117692212 6.6972944473540394 0 0 0
328 28 19 -0.35 9.143458275684715 6.107928304483822 5.9425611535110505 0 0 0
424 36 19 -0.35 12.292308568582245 6.339868097163094 6.948919963228429 0 0 0
421 36 9 0.52 12.343154555344595 7.294602254358668 5.908707882839994 0 0 0
426 36 1 0.22 12.83082087237005 5.087489790769764 6.570443586782613 0 0 0
432 36 11 0.06 13.904269007528656 5.060844146831796 6.716262131681186 0 0 0
255 22 19 -0.35 15.285010803569891 7.1411950186878626 6.6363830536300865 0 0 0
708 62 11 0.06 18.8636129586646 5.497037236223144 6.609142160425005 0 0 0
677 59 11 0.06 3.8672985282362915 9.845661390356634 6.986865336575328 0 0 0
89 8 1 0.22 6.96384271862771 7.87975368172748 6.89493126491921 0 0 0
92 8 11 0.06 6.6315490038825535 8.44534464139048 6.024484167792365 0 0 0
87 8 19 -0.35 8.328455502743164 8.128736250037807 7.166880122495602 0 0 0
423 36 19 -0.35 11.2664099072812 8.21140641074877 5.827225106231139 0 0 0
425 36 1 0.22 11.607976453927499 9.532476211042427 5.439245984922983 0 0 0
253 22 9 0.52 14.326923563582172 7.983562576891541 7.263688909866739 0 0 0
254 22 20 -0.5 13.933569725916074 9.04297268074987 6.779233392677175 0 0 0
257 22 1 0.22 15.940474361210258 7.58733396941832 5.458189990910491 0 0 0
260 22 11 0.06 17.01010480317371 7.671406823711959 5.644189376224439 0 0 0
32 3 11 0.06 16.32056043197142 9.486223608912166 7.38077267237845 0 0 0
667 58 11 0.06 1.58557932384495 10.455753290954856 5.167011041761167 0 0 0
679 59 11 0.06 2.6128454452209304 12.021586730917017 6.9407760572805355 0 0 0
671 59 9 0.52 5.380937795223262 11.826470772845303 6.949713707394249 0 0 0
672 59 20 -0.5 6.380835883622417 12.146350958877091 6.311183099517605 0 0 0
673 59 19 -0.35 5.144641586613422 10.498926242032349 7.3797813762487845 0 0 0
382 32 11 0.06 8.202338753524522 10.630221382450166 7.105871081924574 0 0 0
429 36 11 0.06 11.757347966064444 10.174937867391757 6.3070450571360395 0 0 0
29 3 1 0.22 16.584067635356565 10.388258230303572 6.839636490154425 0 0 0
31 3 11 0.06 17.366172594333708 10.09282409502118 6.152963031639886 0 0 0
33 3 11 0.06 15.727681574464253 10.703705652805384 6.246762985967316 0 0 0
26 3 20 -0.5 19.124796701014702 11.513906160361762 7.2059431089485955 0 0 0
674 59 19 -0.35 4.302076483457049 12.699908433139925 7.1431774636157375 0 0 0
371 31 11 0.06 6.591804066222101 14.357548252386625 7.458286726561173 0 0 0
752 72 26 -0.39 8.697355649426854 13.21915380309622 5.2454885873246555 0 0 0
124 11 19 -0.35 9.598037080326604 14.270469613413255 7.321100297822681 0 0 0
754 72 26 -0.39 10.861839939840786 12.756185878593685 5.398592956421561 0 0 0
226 19 11 0.06 12.313235955844583 14.888112581583533 6.33178710794076 0 0 0
209 18 1 0.22 14.531740120324644 13.635882291186231 5.073823589541753 0 0 0
211 18 11 0.06 14.47417825391624 12.816021369939593 5.789349527474592 0 0 0
212 18 11 0.06 14.689520237020032 14.5627541194924 5.626139675452726 0 0 0
206 18 20 -0.5 17.024323787038867 12.757286140849066 5.6557670525220445 0 0 0
513 43 11 0.06 19.032025145563676 14.1716073428615 5.157261544259652 0 0 0
512 43 11 0.06 0.3491525644407539 15.34150171930657 5.230413308048198 1 0 0
129 11 11 0.06 6.5507684672680035 16.81621471086641 5.314932895732968 0 0 0
125 11 1 0.22 7.344061729172716 16.86735386697024 6.060450203554276 0 0 0
127 11 11 0.06 6.862794112862294 17.021879840048108 7.024989733780808 0 0 0
121 11 9 0.52 8.963603947775656 15.530763571684957 7.145804690677712 0 0 0
123 11 19 -0.35 8.127547744506915 15.692647947498138 6.011493315410681 0 0 0
220 19 19 -0.35 11.156893141889446 16.564194489836982 6.507787278996299 0 0 0
222 19 1 0.22 12.414526047030147 15.96588321746171 6.339462906956253 0 0 0
227 19 11 0.06 12.856442500338678 16.266127978920284 5.393962728577815 0 0 0
228 19 11 0.06 13.095224085961682 16.23665856349394 7.14449466041786 0 0 0
342 29 1 0.22 17.15934409591296 15.844002236126261 7.496416908644553 0 0 0
346 29 11 0.06 17.268735935648778 15.223275410155889 6.606557774148849 0 0 0
347 29 11 0.06 17.846996870998158 16.671813871369736 7.360138894967945 0 0 0
442 37 11 0.06 0.5660645130874529 18.59684210668833 5.369192689281126 1 0 0
224 19 11 0.06 9.591652585450797 19.610581992854137 6.067134733051396 0 0 0
128 11 11 0.06 7.946349107711536 17.74421938565503 5.83456894194387 0 0 0
221 19 1 0.22 9.817372549705379 19.693253110881283 7.1323680882677705 0 0 0
217 19 9 0.52 11.323788502239825 17.944887051784278 6.708928161240554 0 0 0
218 19 20 -0.5 11.945951776890757 18.619834845784876 5.892392935268049 0 0 0
437 37 1 0.22 14.982034941108086 18.71466301034628 5.942867227485054 0 0 0
440 37 11 0.06 14.502308716177984 18.53292134157818 4.982239052836729 0 0 0
441 37 11 0.06 14.293465321813288 18.387452882759387 6.717419477401665 0 0 0
439 37 11 0.06 15.069436113421744 19.782649257612775 6.059708810738907 0 0 0
434 37 20 -0.5 17.42182695665651 19.804876877041 6.891743992272419 0 0 0
433 37 9 0.52 17.378320270243986 18.82739304301176 6.142694801137426 0 0 0
435 37 19 -0.35 16.21220877721254 18.02139346570627 6.037705616699825 0 0 0
436 37 19 -0.35 18.558184082670653 18.27308771287404 5.580604259011683 0 0 0
438 37 1 0.22 19.628592758440124 19.143119668878892 5.268486033483145 0 0 0
444 37 11 0.06 19.71065473576323 0.0030133311997566636 5.921756865366564 0 1 0
522 44 1 0.22 3.9493961686845473 0.7545294429682499 8.601637376989938 0 0 0
526 44 11 0.06 3.4844898260365036 1.0217502707537893 9.55071321462259 0 0 0
527 44 11 0.06 3.1516920247085563 0.6154760135264763 7.871837694351944 0 0 0
520 44 19 -0.35 4.857550597642926 1.7494204344592987 8.197597867328582 0 0 0
50 5 20 -0.5 6.934118100316183 2.42485501089874 9.90649840208149 0 0 0
394 33 11 0.06 13.660877051622647 1.1524646042097502 8.13221862889257 0 0 0
390 33 1 0.22 14.636320908645267 1.6344182912576233 8.10400755195294 0 0 0
396 33 11 0.06 15.401375657486863 0.8781103033100138 8.281048491618716 0 0 0
568 48 11 0.06 19.666762258897265 0.6335193980575365 9.26517678129393 0 0 0
600 51 11 0.06 1.5347564151526845 2.936534193093837 8.734396033452938 0 0 0
594 51 19 -0.35 1.1355896679485895 4.532565061105648 8.455081233506828 0 0 0
595 51 2 0.22 1.9793819859625403 3.7654343084982 9.282740474537619 0 0 0
599 51 11 0.06 3.0548555366377887 3.5883489961034774 9.313544396909597 0 0 0
54 5 1 0.22 6.142197741603019 4.747718021798419 8.97575017737356 0 0 0
60 5 11 0.06 5.570050327586397 4.142401977400481 8.27794995941312 0 0 0
59 5 11 0.06 7.198240815229537 4.622566560804062 8.737512154323708 0 0 0
96 8 11 0.06 9.712319017271254 5.005376425009396 9.082146036042614 0 0 0
388 33 19 -0.35 14.729173652864691 2.6395788823071245 9.088162330742152 0 0 0
385 33 9 0.52 15.903229659855544 3.38205673961327 8.861374412188816 0 0 0
386 33 20 -0.5 16.97521128579032 2.8013679507653286 8.719919270055076 0 0 0
387 33 19 -0.35 15.745120284342123 4.690280090755249 8.363428384264468 0 0 0
591 51 9 0.52 0.40128322550520445 5.334591451122054 9.334117452873153 0 0 0
592 51 20 -0.5 0.1473958449044428 6.4976377839206965 9.047988511728967 0 0 0
80 7 11 0.06 2.501900816567757 6.737063592778626 8.248369409499164 0 0 0
58 5 11 0.06 5.85955513525296 5.782467337145692 8.784469943306815 0 0 0
85 8 9 0.52 8.77927793167173 7.226018103050009 8.148423826734838 0 0 0
86 8 20 -0.5 8.049729841559763 6.947521990945709 9.08605247125004 0 0 0
88 8 19 -0.35 10.126281465858511 6.801012758811725 8.13167946336628 0 0 0
90 8 1 0.22 10.372325215167733 5.867837520065569 9.164301525241939 0 0 0
94 8 11 0.06 11.397566610632913 5.503364883793649 9.127651385556636 0 0 0
389 33 1 0.22 16.551943842456296 5.646737625808569 9.016585689165465 0 0 0
391 33 11 0.06 17.387160181762713 5.24419767231637 9.595201438251653 0 0 0
392 33 11 0.06 16.97926012501451 6.329970793761011 8.284684427230745 0 0 0
393 33 11 0.06 15.914515298475003 6.225991480116735 9.677292776931084 0 0 0
91 8 11 0.06 6.33084828049597 8.161270572671837 7.736199202364155 0 0 0
376 32 19 -0.35 7.753074615932858 9.826525473646667 8.940027188166933 0 0 0
732 66 31 1 9.991830542609986 8.758058888667222 9.70498776008562 0 0 0
262 22 11 0.06 12.3195072410337 7.855977396153071 9.839437921284322 0 0 0
264 22 11 0.06 11.988904771238545 8.464910742052124 8.228350698816769 0 0 0
256 22 19 -0.35 13.848889217320094 7.55547916840916 8.520725146073456 0 0 0
258 22 1 0.22 12.769709153003532 8.34293055116149 8.976268478372878 0 0 0
263 22 11 0.06 13.097283686446396 9.338772310700776 9.273513772761767 0 0 0
551 47 9 0.52 16.57189041712259 9.80506908238856 9.860647001372907 0 0 0
554 47 19 -0.35 16.95385261196777 8.494053661515517 9.584596758400767 0 0 0
555 47 2 0.22 18.263484331857338 8.618883801933736 9.10216761572787 0 0 0
556 47 2 0.22 18.8017991090441 9.996375936866036 9.556704717741338 0 0 0
559 47 11 0.06 18.611124538703947 8.24370365944502 8.136755309297744 0 0 0
560 47 11 0.06 18.202071265183257 7.83505405212404 9.861209435486346 0 0 0
675 59 2 0.22 3.309931526484262 11.914119458149619 7.771469111194014 0 0 0
676 59 2 0.22 3.817199968907084 10.46485712494276 7.886164075434784 0 0 0
678 59 11 0.06 4.54608943810871 10.217329628438002 8.662003754013883 0 0 0
680 59 11 0.06 2.770050624755782 12.195463245160898 8.673338202831774 0 0 0
378 32 1 0.22 8.417548610947085 10.812201256406073 8.158271450887362 0 0 0
383 32 11 0.06 8.147757767433305 11.8487519512509 8.350165390307405 0 0 0
384 32 11 0.06 9.499819686532852 10.732608467881034 8.255216323246106 0 0 0
749 71 26 -0.39 14.376786092544412 12.02366043193104 8.293976833809513 0 0 0
27 3 19 -0.35 16.856573442681523 11.421801445834376 7.760811667100447 0 0 0
552 47 20 -0.5 15.432868963630773 10.184294924164629 9.611411592194694 0 0 0
557 47 11 0.06 19.816864453695985 10.158509067730737 9.187537235093908 0 0 0
25 3 9 0.52 18.17443571089059 11.9363807370902 7.862063743157531 0 0 0
35 3 11 0.06 0.35171933699928304 12.599949884709602 9.155374140733468 1 0 0
36 3 11 0.06 0.031311826538708364 13.7518826695797 7.849333561143126 1 0 0
362 31 20 -0.5 3.8087057701204 14.40231282031829 9.219455239455456 0 0 0
361 31 9 0.52 4.708591040990178 13.762345903015595 9.75762710245938 0 0 0
364 31 19 -0.35 5.825007586842931 13.323056380196613 9.024427695312859 0 0 0
366 31 1 0.22 6.618363717605248 14.389111395289078 8.543318598248632 0 0 0
370 31 11 0.06 7.640793146769455 14.240204892473292 8.872673047585668 0 0 0
126 11 1 0.22 10.543250567192477 14.172774833496272 8.366322726186521 0 0 0
130 11 11 0.06 11.240977867679309 13.369453244831343 8.13350890988226 0 0 0
132 11 11 0.06 10.077546700844556 13.9018310251479 9.309828238078373 0 0 0
743 71 27 1.34 14.790420971293326 13.3435705969873 9.011117671457352 0 0 0
745 71 26 -0.39 13.629601895085543 14.084095279799996 8.295533363528047 0 0 0
744 71 26 -0.39 15.954825709918392 12.623352460918236 9.754359175573674 0 0 0
746 71 26 -0.39 15.731725152590032 13.668370582085764 7.816296058376325 0 0 0
748 71 26 -0.39 15.197604147869896 14.674475308621206 9.714267966242396 0 0 0
28 3 19 -0.35 18.359552907559593 12.969851351200436 8.803942589271633 0 0 0
30 3 1 0.22 19.698633538685698 13.405875458920569 8.828423381442171 0 0 0
34 3 11 0.06 19.816492140804886 14.2333995478395 9.527525305454672 0 0 0
642 56 20 -0.5 0.20307301834054756 17.01557542264702 9.726252652761707 1 0 0
454 38 11 0.06 3.5122157133842946 17.152662838905865 8.638657463505867 0 0 0
450 38 1 0.22 3.340182081056585 17.318194571526874 9.702126161548046 0 0 0
372 31 11 0.06 6.346079420241485 15.402020714343537 8.856267759601806 0 0 0
122 11 20 -0.5 9.114703198011677 16.450089298487175 7.9425465975430525 0 0 0
131 11 11 0.06 11.123683459915766 15.077719846840262 8.51715757775916 0 0 0
339 29 19 -0.35 14.61453361842297 17.184237918793745 9.578892970479263 0 0 0
337 29 9 0.52 15.588237941491261 17.299988407915865 8.557043426350676 0 0 0
340 29 19 -0.35 15.791847493357551 16.1941971013017 7.6887435534235395 0 0 0
348 29 11 0.06 17.55656339825402 15.29007809223073 8.339452960623975 0 0 0
528 44 11 0.06 4.475835173958821 19.81043865529246 8.727247716790664 0 -1 0
455 38 11 0.06 2.8355461319259656 18.27585112796992 9.82109652119811 0 0 0
225 19 11 0.06 8.864799551911979 19.832282067340092 7.642425928610548 0 0 0
420 35 11 0.06 8.748749713514417 19.027838011884487 10.005482828216987 0 0 0
219 19 19 -0.35 10.496330684794982 18.570331428562206 7.669170643982628 0 0 0
341 29 1 0.22 14.02851297737102 18.43763919899897 9.895221964317345 0 0 0
344 29 11 0.06 13.475236092327435 18.833075615353827 9.04433947088605 0 0 0
338 29 20 -0.5 16.336800175079052 18.27196800862852 8.536903352863654 0 0 0
495 42 19 -0.35 4.701304603754803 1.3397389815057108 11.741359583254587 0 0 0
497 42 1 0.22 4.496074650931902 19.97554454577369 12.038034864304263 0 -1 0
55 5 11 0.06 8.139060445918375 1.5808834095591984 11.923385078057954 0 0 0
561 48 9 0.52 17.159442105153822 1.3933684249834324 10.777034146627628 0 0 0
562 48 20 -0.5 15.94021382133308 1.3987037379096137 10.93225265221681 0 0 0
563 48 19 -0.35 17.85162141513263 0.30334755018940207 10.231495046433935 0 0 0
565 48 2 0.22 19.30923826767639 2.12299812992822 10.803702514405227 0 0 0
566 48 2 0.22 19.212299423823 0.6901483592320928 10.254182982664148 0 0 0
567 48 11 0.06 19.783062161353357 0.013526551615473637 10.888005934881523 0 0 0
569 48 11 0.06 19.204524420967577 2.2995116618493485 11.877657528264516 0 0 0
596 51 2 0.22 1.3990651285067748 3.860524160830109 10.698218194971933 0 0 0
597 51 11 0.06 1.851859176103366 4.679631304319308 11.253010359873505 0 0 0
598 51 11 0.06 1.6203811440831115 2.954305539433814 11.260166165593798 0 0 0
593 51 19 -0.35 0.46442991790401245 4.917986829159387 10.676347809364199 0 0 0
496 42 19 -0.35 3.8621987322167404 3.5380028370744707 12.195720352753835 0 0 0
49 5 9 0.52 6.5707876601414785 3.25727697592535 10.73546150100589 0 0 0
51 5 19 -0.35 6.544110655087087 2.982152503081145 12.129645144096429 0 0 0
52 5 19 -0.35 5.858837244208366 4.405492924777696 10.316408965196068 0 0 0
691 61 9 0.52 8.652791724744072 4.457585867327941 11.932586267759367 0 0 0
692 61 20 -0.5 9.521947170286934 3.6402848566555353 11.639467009429003 0 0 0
602 52 20 -0.5 12.930153083796746 3.6423714692820295 12.23693119885839 0 0 0
162 14 1 0.22 15.764947970870685 4.832808987164169 12.061319702884662 0 0 0
166 14 11 0.06 15.981531300963008 3.948634171338609 11.468737014911104 0 0 0
570 48 11 0.06 19.00590017544734 2.954520791138657 10.167015550066864 0 0 0
564 48 19 -0.35 17.98003549124396 2.4878711828031985 11.13374738225528 0 0 0
542 46 20 -0.5 0.1140406580662014 7.275566430996479 11.424778133250344 0 0 0
541 46 9 0.52 0.8058231063244212 7.380921748070387 12.434196571616067 0 0 0
250 21 11 0.06 3.279968575211659 6.667044126129833 10.621594081555813 0 0 0
252 21 11 0.06 3.3831709403743067 7.378458912317297 12.195749658395208 0 0 0
502 42 11 0.06 4.788022622614135 5.319793486641572 12.381774813621242 0 0 0
699 61 11 0.06 6.71847772144021 6.591314598254807 11.172461705240217 0 0 0
694 61 19 -0.35 8.098390018797234 5.303733210335208 10.968205704099425 0 0 0
700 61 11 0.06 8.276269352161112 7.341457960456628 11.5436202482633 0 0 0
695 61 2 0.22 7.674743680354503 6.438324551121064 11.683967829572996 0 0 0
95 8 11 0.06 10.23421050932512 6.31066629660565 10.14882440927116 0 0 0
168 14 11 0.06 14.818927938340627 5.219973400411395 11.684044773507676 0 0 0
160 14 19 -0.35 16.810178785516452 5.779890022369176 11.967126462698944 0 0 0
157 14 9 0.52 16.364215797931333 7.032764084156901 12.433868079587459 0 0 0
241 21 9 0.52 2.301454850531571 9.672931832646041 11.550069464517437 0 0 0
244 21 19 -0.35 2.3024747984310765 8.491026018765554 10.76998830572042 0 0 0
246 21 1 0.22 3.364272135563208 7.622977040137175 11.135269334337405 0 0 0
251 21 11 0.06 4.330523621792525 8.055197872912911 10.877377659960835 0 0 0
242 21 20 -0.5 3.17578492530041 9.855479604889918 12.389255741180897 0 0 0
375 32 19 -0.35 6.700011104146124 9.206021232817175 11.01532837515291 0 0 0
377 32 1 0.22 6.639677687346264 9.610719030239956 12.371034020902306 0 0 0
194 17 20 -0.5 11.751327202746248 9.296082600108615 11.801108058839972 0 0 0
198 17 1 0.22 14.287118082495006 9.59763876492064 11.989511283616904 0 0 0
204 17 11 0.06 14.274495412519526 8.693483806672079 11.381684646677767 0 0 0
202 17 11 0.06 15.316981579806441 9.904984129546973 12.090598644936708 0 0 0
159 14 19 -0.35 17.120664436136316 8.177364297695805 12.097456106623396 0 0 0
243 21 19 -0.35 1.4062130453594541 10.71344282978712 11.19386784927265 0 0 0
245 21 1 0.22 0.8502008504587577 11.403322087091016 12.30688004183739 0 0 0
248 21 11 0.06 0.49025242428731136 12.385029033692367 11.997453631867023 0 0 0
368 31 11 0.06 4.078131402185617 11.605861020964632 10.849980810718735 0 0 0
369 31 11 0.06 3.804843927527066 12.27431052182613 12.472210587230947 0 0 0
373 32 9 0.52 7.128971157468614 10.238304138216701 10.152188598570499 0 0 0
374 32 20 -0.5 6.6991481454489135 11.376267702025427 10.325654775923297 0 0 0
199 17 11 0.06 9.543508414442682 10.41460832366382 11.517276737482916 0 0 0
200 17 11 0.06 9.648025892745812 12.00521409159285 12.225116138413492 0 0 0
201 17 11 0.06 9.408319965536815 11.808985922180046 10.5084363464329 0 0 0
197 17 1 0.22 9.942751489868968 11.407114806492393 11.364565488539666 0 0 0
193 17 9 0.52 12.16804840522029 10.422140811143265 11.528195897327606 0 0 0
195 17 19 -0.35 11.33336314869975 11.48987818116162 11.095314912810574 0 0 0
196 17 19 -0.35 13.552468295778702 10.638532382872294 11.391609531547578 0 0 0
323 27 11 0.06 16.47960473927344 12.116178743085316 12.144802346495352 0 0 0
553 47 19 -0.35 17.656402193786796 10.69878171249482 10.015019503220962 0 0 0
558 47 11 0.06 18.92346105152339 10.09158009012832 10.636593922724474 0 0 0
363 31 19 -0.35 4.717705346151477 13.52993057618473 11.139226894358263 0 0 0
365 31 1 0.22 3.8045953031840276 12.50056127423604 11.408941814173934 0 0 0
367 31 11 0.06 2.795405921110252 12.790187296509428 11.116034257952936 0 0 0
17 2 1 0.22 8.076023681087351 14.302077756754906 11.867087365366865 0 0 0
19 2 11 0.06 9.112444522877503 14.421530595502809 11.555115234519958 0 0 0
20 2 11 0.06 7.701260301256072 13.36963359664487 11.452488056148214 0 0 0
747 71 26 -0.39 13.837876655453808 12.990075257105477 10.186595114286623 0 0 0
278 24 20 -0.5 13.122246978916191 14.011108374116077 12.348296809846628 0 0 0
445 38 9 0.52 2.6235242452738214 16.297078069477692 11.653933787395262 0 0 0
446 38 20 -0.5 2.601788239748769 17.364303861775436 12.264633959445135 0 0 0
447 38 19 -0.35 3.1474749389417602 15.128253025277944 12.241794363867912 0 0 0
448 38 19 -0.35 2.537755018523697 16.293172996923552 10.246922911415236 0 0 0
456 38 11 0.06 4.320552228897914 17.37936641774035 10.177716195804441 0 0 0
21 2 11 0.06 7.491521327752672 15.085230207946335 11.389031580121713 0 0 0
623 54 19 -0.35 9.173991498578648 16.9294817290693 11.292433647931995 0 0 0
627 54 11 0.06 9.965264743233433 16.400410211510938 10.288178007005316 0 0 0
625 54 2 0.22 11.412095377331688 16.60321400042635 11.886435399722584 0 0 0
626 54 2 0.22 10.472399548038476 17.19136038614233 10.827701016342804 0 0 0
629 54 11 0.06 12.294456447571653 16.174013202377495 11.415294924881923 0 0 0
284 24 11 0.06 14.802594597162017 17.18728693706068 12.431326168633149 0 0 0
283 24 11 0.06 15.086751217423782 15.522072847467772 12.062788890091637 0 0 0
647 56 11 0.06 16.987500582458633 16.744292110672838 10.546717402736762 0 0 0
646 56 2 0.22 17.378094692269745 16.444635740726785 11.513477909075405 0 0 0
648 56 11 0.06 17.61903477579268 15.379886379249884 11.535840102625379 0 0 0
641 56 9 0.52 19.4751304001658 16.812874116758803 10.69484087950384 0 0 0
643 56 19 -0.35 18.356422186638845 15.950881693190679 10.611058732637677 0 0 0
500 42 11 0.06 3.472610821318636 19.675885397620196 11.813664810630225 0 -1 0
501 42 11 0.06 5.162724170079734 19.37982178573514 11.416459461774206 0 -1 0
419 35 11 0.06 7.284013947936438 19.96920472713186 10.216805056805235 0 0 0
418 35 11 0.06 7.20588313933573 18.238199499932946 10.104315743406056 0 0 0
412 35 19 -0.35 7.815363924441376 18.92297451669479 11.944572725872149 0 0 0
414 35 1 0.22 7.79097644082641 19.055985908300983 10.52452216109606 0 0 0
410 35 20 -0.5 9.941131257430541 19.85228596851965 12.03630311284957 0 0 0
628 54 11 0.06 10.969622447100003 17.819851575557937 10.08672886434973 0 0 0
343 29 11 0.06 14.74465719811706 19.190899859769925 10.225310246986743 0 0 0
345 29 11 0.06 13.33002968727518 18.339328572870613 10.722062486656013 0 0 0
645 56 2 0.22 18.146286827181704 17.483909919866687 12.363691357210437 0 0 0
644 56 19 -0.35 19.413425661096777 17.705823535108504 11.774274395804888 0 0 0
649 56 11 0.06 18.10239093131306 18.48987739406358 11.938290278647532 0 0 0
493 42 9 0.52 4.108550333465685 2.2349098766612667 12.663116231643356 0 0 0
494 42 20 -0.5 3.7437942950478234 1.8930152844533874 13.786536085148304 0 0 0
53 5 1 0.22 7.407756025158414 1.969764072351231 12.625024428666192 0 0 0
57 5 11 0.06 6.8460051742986145 1.1167029991099697 13.002606820351474 0 0 0
56 5 11 0.06 7.956357229555331 2.359615685605576 13.479544400380536 0 0 0
11 1 11 0.06 10.263213514178835 1.4919315950861476 13.892482855390574 0 0 0
6 1 1 0.22 10.744114951073191 2.2817719218594466 14.457303486943696 0 0 0
10 1 11 0.06 11.750472952366694 2.40599263948191 14.061492406318832 0 0 0
719 63 11 0.06 13.881058646646027 0.32972263331607266 13.0010113091496 0 1 0
68 6 11 0.06 17.783703205928504 1.3604040668847308 14.18339175353837 0 0 0
498 42 1 0.22 4.360381775890587 4.560071978172558 13.030178629724205 0 0 0
504 42 11 0.06 5.1186835973693094 4.243427083749831 13.747592457742916 0 0 0
693 61 19 -0.35 8.363943431473645 4.8158326191627 13.262269189760795 0 0 0
12 1 11 0.06 10.173461842213358 3.1901360854618255 14.28221203345349 0 0 0
601 52 9 0.52 12.508323047941152 4.526788979138037 12.978863656515765 0 0 0
167 14 11 0.06 15.626570772251542 4.5141059786056585 13.094266612647349 0 0 0
730 64 11 0.06 19.29135201819699 4.84507054457011 13.114301999846566 0 0 0
725 64 2 0.22 19.099763521653962 4.596061545263491 14.158001080074841 0 0 0
729 64 11 0.06 18.407820126922342 3.7722888131743626 14.124287871274785 0 0 0
543 46 19 -0.35 1.350060102741934 6.2606535022440655 13.120078240463119 0 0 0
548 46 11 0.06 1.2841974657283994 5.799438461147722 14.287010412446051 0 0 0
546 46 2 0.22 1.8434191815500205 6.731894917687711 14.369146532675483 0 0 0
503 42 11 0.06 3.5589668475813228 5.0288800085438785 13.595185541598095 0 0 0
697 61 11 0.06 6.670585913657542 6.357332103453297 13.650435829630133 0 0 0
696 61 2 0.22 7.566546068334165 5.97894895330911 13.158728241180379 0 0 0
698 61 11 0.06 8.40700429555317 6.276824225496797 13.789496170598827 0 0 0
604 52 19 -0.35 11.181042620557964 5.013534426609485 12.903026973611563 0 0 0
605 52 2 0.22 11.163645106704745 6.2580374404039345 13.584597610355273 0 0 0
609 52 11 0.06 10.748200145640167 5.620468900725536 14.362887346632196 0 0 0
610 52 11 0.06 10.66372330265989 6.162413643673856 12.612955701453277 0 0 0
606 52 2 0.22 12.65930724294664 6.589133041733962 13.695048705866778 0 0 0
607 52 11 0.06 12.902988343185156 7.2413014939110685 14.532118716573102 0 0 0
608 52 11 0.06 12.978212178960263 7.078337794264097 12.779141576181848 0 0 0
603 52 19 -0.35 13.357855415270972 5.36712333257302 13.703627267998646 0 0 0
158 14 20 -0.5 15.433435380858787 7.084387683389196 13.231728073970809 0 0 0
726 64 2 0.22 18.45174049608646 5.7528596197890725 14.928071752475535 0 0 0
727 64 11 0.06 17.568115748260826 6.103843530120129 14.412345044611726 0 0 0
545 46 2 0.22 1.0941853676095308 8.09360149582407 14.51161811136877 0 0 0
544 46 19 -0.35 0.8056534126479988 8.548768629170166 13.207022771460881 0 0 0
550 46 11 0.06 1.6642589342750396 8.956563852261556 14.162714608209885 0 0 0
490 41 11 0.06 4.719600029747437 8.338521111637442 14.251705339814285 0 0 0
380 32 11 0.06 5.6575589431911215 9.984334444094266 12.621460909124583 0 0 0
381 32 11 0.06 6.8570469941930225 8.771216125907696 13.029998775198283 0 0 0
236 20 11 0.06 9.604601232502842 8.612839817879351 14.20530037448577 0 0 0
237 20 11 0.06 11.27653464212303 9.117905444937682 14.257657490181005 0 0 0
233 20 1 0.22 10.431151598864002 8.832174117718695 14.881120849219014 0 0 0
203 17 11 0.06 13.94285579491586 9.37299773667416 12.996440351553984 0 0 0
161 14 1 0.22 17.469310471829996 8.975602403432632 13.217699173574784 0 0 0
163 14 11 0.06 16.71264147698968 9.086455682799228 13.994181038430765 0 0 0
165 14 11 0.06 17.689602306941275 9.978584471552564 12.869958181405787 0 0 0
164 14 11 0.06 18.359144487856636 8.5978138095377 13.708023755584799 0 0 0
247 21 11 0.06 1.5121642121354253 11.549762078042747 13.152489801225263 0 0 0
733 67 31 1 3.983607465133278 10.83269703948716 14.544384935934987 0 0 0
379 32 11 0.06 7.313330672035344 10.417140180100056 12.636287232395244 0 0 0
275 23 11 0.06 8.350711280936325 11.379444519647747 14.696815784503857 0 0 0
287 24 11 0.06 11.760547949066622 12.287803647179397 13.527485266396727 0 0 0
288 24 11 0.06 13.132516221416852 12.041937319011382 14.604932575500062 0 0 0
322 27 11 0.06 14.84325877166974 12.255247741929306 12.794739109615435 0 0 0
318 27 1 0.22 15.89865253230354 12.38561770244959 13.025966809254175 0 0 0
324 27 11 0.06 16.146862511030985 11.694778459529479 13.827695767674815 0 0 0
249 21 11 0.06 0.01590755527875487 10.873768905365347 12.74152635505387 0 0 0
452 38 11 0.06 1.9280770171900345 13.99623032553052 13.420393554534828 0 0 0
453 38 11 0.06 3.3847178712776587 14.42383102909407 14.16674535281651 0 0 0
449 38 1 0.22 2.6202250912520975 14.816578892349833 13.511334930013598 0 0 0
734 68 31 1 6.139194729733587 12.511133121989099 13.330845517636956 0 0 0
13 2 9 0.52 9.00872612172 14.660450527141164 14.038386176376036 0 0 0
15 2 19 -0.35 7.879696774182775 14.303488346758941 13.269170525067121 0 0 0
14 2 20 -0.5 10.094498467340529 14.127242966181262 13.832649228640152 0 0 0
280 24 19 -0.35 12.485839669175062 14.0263565032745 14.545131850249247 0 0 0
282 24 1 0.22 12.232601965913016 12.633760204899586 14.443337672712358 0 0 0
277 24 9 0.52 13.185056244507892 14.563626381239828 13.44020201837591 0 0 0
316 27 19 -0.35 16.161027027564145 13.71315493453188 13.41150367259266 0 0 0
314 27 20 -0.5 18.31400413282449 12.93320050512871 13.632474197760441 0 0 0
313 27 9 0.52 17.53390740210008 13.88228924057166 13.68050778657328 0 0 0
319 27 11 0.06 19.66860311498244 14.910156739045707 12.884749456384595 0 0 0
321 27 11 0.06 19.8444815311848 14.63168188802744 14.64284892056099 0 0 0
451 38 11 0.06 2.1430376360874974 15.649657628433095 14.021737763345232 0 0 0
312 26 11 0.06 4.664877174624164 16.50961190403984 13.66762652470419 0 0 0
310 26 11 0.06 6.072857213408895 16.6790355558033 12.690089356546357 0 0 0
311 26 11 0.06 5.5148904943816905 15.069841352083927 13.034801929603567 0 0 0
304 26 19 -0.35 6.451497849678844 16.06389092341713 14.62632188581644 0 0 0
306 26 1 0.22 5.6344678377443005 16.05919115605393 13.470317695005033 0 0 0
621 54 9 0.52 9.32840459316099 16.729296474286954 12.670067146656011 0 0 0
622 54 20 -0.5 8.429697195745966 17.020528585857413 13.44491333911762 0 0 0
630 54 11 0.06 11.75690111969004 17.373300044002306 12.564957119128442 0 0 0
624 54 19 -0.35 10.6538802710138 16.49723885019247 13.078268224775647 0 0 0
279 24 19 -0.35 13.59600235180109 15.916392144550455 13.53324368614364 0 0 0
281 24 1 0.22 14.823191713771587 16.19369380397825 12.875341487667816 0 0 0
285 24 11 0.06 15.645697569419609 16.16517079799813 13.584276929730887 0 0 0
315 27 19 -0.35 17.98570997003613 15.179570767213297 13.997636495626384 0 0 0
317 27 1 0.22 19.376807394124924 15.2487985474464 13.876743582215287 0 0 0
320 27 11 0.06 19.72364296313364 16.272311320779178 14.005650498337905 0 0 0
499 42 11 0.06 4.725265535333429 19.711708243175774 13.070178927520207 0 -1 0
731 65 31 1 6.56175828511055 18.604130727578493 14.394579989196364 0 0 0
409 35 9 0.52 8.993978022419528 19.33821882707444 12.631596748056186 0 0 0
411 35 19 -0.35 8.910192627885174 19.39643080328827 14.053901990344357 0 0 0
413 35 1 0.22 10.080742469398288 18.980165393615763 14.750052416000054 0 0 0
415 35 11 0.06 10.988452346705424 19.11933248073711 14.18010129072913 0 0 0
720 63 11 0.06 13.427136582991825 18.80773489927251 13.743909324250158 0 0 0
715 63 2 0.22 14.009694888309776 19.709118352793418 13.894571581540612 0 0 0
716 63 2 0.22 15.46478198720409 19.4147098044255 14.360137236104933 0 0 0
717 63 11 0.06 16.181756858391047 19.553053700225252 13.548384169034634 0 0 0
718 63 11 0.06 15.687314130109398 18.39777726926937 14.706281168972918 0 0 0
650 56 11 0.06 17.69562565893512 17.575673004492607 13.349595066035143 0 0 0
1 1 9 0.52 9.484039255525026 2.0047146253460606 16.37043033569708 0 0 0
2 1 20 -0.5 8.548548176100068 1.4155809195562756 15.833607323833968 0 0 0
4 1 19 -0.35 10.785414415276334 1.9649591721301325 15.826272818936859 0 0 0
712 63 20 -0.5 13.851130030122608 0.09495588164272985 17.24248173126004 0 1 0
62 6 20 -0.5 15.721981037750947 1.674639862597235 16.578994984328208 0 0 0
67 6 11 0.06 17.52725991085261 0.3262301473511511 15.507886679195613 0 0 0
65 6 1 0.22 18.089771352811198 1.1911467604132602 15.210824465405961 0 0 0
69 6 11 0.06 19.138918922426885 0.8959213488341371 15.19742680725725 0 0 0
63 6 19 -0.35 17.915127491114376 2.2975249004198885 16.082580461907757 0 0 0
657 57 11 0.06 7.326224876602934 4.854412008484892 15.5366688444723 0 0 0
658 57 11 0.06 6.380686620336946 4.780515876889128 16.97200413822858 0 0 0
653 57 19 -0.35 8.526363096978363 4.9244415743702525 15.972532539543444 0 0 0
3 1 19 -0.35 9.251091505990214 2.9765297876332824 17.353067314604917 0 0 0
61 6 9 0.52 16.579879879500645 2.552687988013236 16.499016297125195 0 0 0
64 6 19 -0.35 16.307932881832926 3.8385416568112287 17.015905630554442 0 0 0
721 64 9 0.52 19.61811479246017 4.528782065492836 16.31868621439376 0 0 0
724 64 19 -0.35 19.70601995073607 3.7742011191494997 15.136849986568354 0 0 0
722 64 20 -0.5 19.358692877342023 3.9888396302446973 17.39199824595495 0 0 0
547 46 11 0.06 2.399582267472357 6.4734462649531785 15.272369341543689 0 0 0
491 41 11 0.06 4.7917578146146305 7.2309025892364245 15.598070077116777 0 0 0
655 57 2 0.22 7.366135174858796 6.774238004591852 16.758626997667164 0 0 0
656 57 2 0.22 7.280932091267347 5.235561881899406 16.55749945515522 0 0 0
659 57 11 0.06 7.410814173093756 7.330333814696017 15.826724366683486 0 0 0
660 57 11 0.06 6.577518824486467 7.238128296579653 17.346784644515004 0 0 0
651 57 9 0.52 9.39044525033432 5.933475082912338 16.437541078701706 0 0 0
654 57 19 -0.35 8.733417414247969 7.118415703769908 16.7957741680102 0 0 0
652 57 20 -0.5 10.519165783273314 5.679245010370245 16.850628640203087 0 0 0
760 73 26 -0.39 17.154368767254848 6.155235057976987 17.408442621447783 0 0 0
728 64 11 0.06 19.067108678696286 6.627850375326607 15.072104298101536 0 0 0
723 64 19 -0.35 19.24866692288884 5.859691803618512 16.084452731016206 0 0 0
549 46 11 0.06 0.8000819978031632 8.36999723876176 15.519513866100267 0 0 0
468 39 11 0.06 2.123422462194891 9.595901092502572 17.308412076782073 0 0 0
486 41 1 0.22 4.657634992232815 8.278263108989625 15.336234396535493 0 0 0
492 41 11 0.06 3.6632201166161487 8.596962756096646 15.614464547241017 0 0 0
481 41 9 0.52 5.299045608815775 9.455916117374583 17.287751428561666 0 0 0
484 41 19 -0.35 5.6170940549159525 9.10913536845066 15.94641800659744 0 0 0
266 23 20 -0.5 7.883182145513099 9.533884549332644 16.896607454934884 0 0 0
235 20 11 0.06 10.652532730869233 7.899948825494142 15.397243088332933 0 0 0
231 20 19 -0.35 10.065973182502702 9.893703307749158 15.739263793040422 0 0 0
634 55 19 -0.35 13.726219985266056 9.096493222833704 17.430918356891432 0 0 0
640 55 11 0.06 14.623890118384377 9.34237972168418 15.400231263480018 0 0 0
635 55 2 0.22 14.07190654689649 9.764543101588535 16.237757405649784 0 0 0
639 55 11 0.06 13.052550061546304 9.83939390120148 15.861434934833708 0 0 0
763 73 26 -0.39 16.316025721426595 7.597205039696423 15.972062439594753 0 0 0
757 73 27 1.34 16.8027403510759 7.665363534773513 17.447545724440808 0 0 0
761 73 26 -0.39 16.459183681408472 9.183125650120417 17.481846417007844 0 0 0
759 73 26 -0.39 18.236785984886602 8.0312329526288 16.964515578840665 0 0 0
535 45 11 0.06 2.2503001687104187 12.027727820424541 16.230011482405555 0 0 0
533 45 1 0.22 2.9761026901195904 12.486791068796496 16.901576979964137 0 0 0
536 45 11 0.06 3.900853874265107 11.919361562534492 16.81685179682475 0 0 0
276 23 11 0.06 6.877107797170197 11.447680046310087 15.644485084338067 0 0 0
265 23 9 0.52 8.315561849403682 10.522442339853184 17.46745343393069 0 0 0
268 23 19 -0.35 8.649266687604392 11.69362587544657 16.74889948479351 0 0 0
270 23 1 0.22 7.8866495808404355 11.843745496659373 15.564801702289564 0 0 0
229 20 9 0.52 10.805630087623246 10.014038674262192 16.939653462105273 0 0 0
286 24 11 0.06 11.509894486321318 12.370787406197868 15.200830223430273 0 0 0
232 20 19 -0.35 11.029273677937756 11.324232556405576 17.41352265174661 0 0 0
636 55 2 0.22 14.650494454089982 11.118119414121363 16.692869705820165 0 0 0
637 55 11 0.06 13.933826708575742 11.893618469712736 16.96769810439479 0 0 0
638 55 11 0.06 15.577933073225271 11.483818908659135 16.251444123561765 0 0 0
111 10 19 -0.35 17.721062558984443 11.65163890471019 17.579956197465226 0 0 0
116 10 11 0.06 19.188588111191606 12.339330761905112 16.283084229526477 0 0 0
529 45 9 0.52 2.0350117824822815 14.593971078255802 16.808931927510407 0 0 0
530 45 20 -0.5 0.9265203159236087 14.06202161186645 16.826325736334383 0 0 0
531 45 19 -0.35 3.200147078273292 13.837280756388115 16.586834610553026 0 0 0
302 26 20 -0.5 5.572854268805264 14.032864393977022 15.307263916504667 0 0 0
274 23 11 0.06 7.7993178137907115 12.89923539860005 15.334366198114832 0 0 0
23 2 11 0.06 9.97764522972257 14.03692667514421 16.327761059960043 0 0 0
297 25 11 0.06 14.77723403039736 13.724782743233085 15.492663334862671 0 0 0
293 25 1 0.22 15.033604029398546 14.509319415138233 16.196885263796954 0 0 0
295 25 11 0.06 15.151518001827638 14.064064053023326 17.183369710361013 0 0 0
117 10 11 0.06 17.569963021928775 12.980086834679113 16.018242842259557 0 0 0
113 10 1 0.22 18.28212773552896 12.676877875664893 16.785544486290465 0 0 0
115 10 11 0.06 18.51884464491659 13.569412235376374 17.364593635764983 0 0 0
532 45 19 -0.35 2.1815006142672715 15.988601987897004 16.949475626955973 0 0 0
534 45 1 0.22 0.9457173811675942 16.569233665127157 17.284337431712725 0 0 0
539 45 11 0.06 0.23241106531595426 16.435758937288767 16.470201833412368 0 0 0
618 53 11 0.06 4.428619619386742 16.730821005597512 16.145137083267567 0 0 0
616 53 2 0.22 4.893594965110824 17.40077573702139 16.870930705551302 0 0 0
301 26 9 0.52 6.195951876520138 15.054973419508114 15.586167836090624 0 0 0
303 26 19 -0.35 6.82228021402349 15.221352583974818 16.845647280631592 0 0 0
617 53 11 0.06 5.934901287995832 17.545666786530777 16.571204742132515 0 0 0
16 2 19 -0.35 8.764247589193126 15.333176359703295 15.256533618174192 0 0 0
18 2 1 0.22 9.808163035764105 15.10300194826523 16.176159461706536 0 0 0
22 2 11 0.06 9.565435393499094 15.540764955221634 17.14457626351663 0 0 0
24 2 11 0.06 10.73837348776388 15.552443998945282 15.82920614997687 0 0 0
296 25 11 0.06 14.204149885935685 15.213859057768564 16.190214314488873 0 0 0
289 25 9 0.52 16.71597052832739 16.106041785478773 16.623609387332134 0 0 0
291 25 19 -0.35 16.230221156623884 15.098371328857091 15.767258329933808 0 0 0
292 25 19 -0.35 17.657313173729282 17.006521883709016 16.07397775986107 0 0 0
538 45 11 0.06 1.0626760024307296 17.636278682665733 17.46802415415318 0 0 0
615 53 2 0.22 4.0958500743244795 18.69798458720717 17.190861229096093 0 0 0
620 53 11 0.06 3.13383368588036 18.79141815580133 16.67845878467613 0 0 0
619 53 11 0.06 4.631189324488751 19.62889849042702 16.9835591706013 0 0 0
178 15 11 0.06 9.109465951126015 18.082587534843153 17.382713426799263 0 0 0
417 35 11 0.06 10.072072825818848 17.943917907284185 15.08006226030636 0 0 0
416 35 11 0.06 10.19587170574567 19.543511429798905 15.670029063421461 0 0 0
711 63 9 0.52 14.072740317748467 19.670912317922447 16.114165052359056 0 0 0
714 63 19 -0.35 13.219151933269593 19.94639653184605 15.038343408467949 0 0 0
713 63 19 -0.35 15.333008668405325 19.158929069026268 15.747610032788028 0 0 0
299 25 11 0.06 17.27694071043273 18.625802804202493 17.320195548725884 0 0 0
294 25 1 0.22 18.092033102744765 17.97390518574332 17.00701748884552 0 0 0
298 25 11 0.06 18.910846286983382 18.554848316301687 16.589161686904227 0 0 0
47 4 11 0.06 3.622902064865411 1.6154850728185157 0.00026366596989646496 0 0 0
735 69 31 1 7.082351194924366 0.04481506210188309 17.565029704854595 0 0 0
8 1 11 0.06 8.395228677131714 1.7702877683795537 18.809175238388722 0 0 0
768 74 26 -0.39 11.160156919893986 1.5380026570227185 18.25990229151588 0 0 0
175 15 11 0.06 13.968900466884124 0.056780308177976135 19.738585052020294 0 1 0
765 74 26 -0.39 13.244399828239837 2.262392021633612 18.326662519414455 0 0 0
464 39 11 0.06 0.29442727580444383 4.490244470609829 19.67234387878268 0 0 0
465 39 11 0.06 1.5114987584315787 4.72842715577307 18.42284835056836 0 0 0
690 60 11 0.06 3.8466285344216504 3.590543120843985 18.48314292683205 0 0 0
685 60 2 0.22 4.3281563406008265 4.29475348387483 19.159917988966082 0 0 0
684 60 19 -0.35 5.726721618462426 4.177991151990616 19.307280588661655 0 0 0
7 1 11 0.06 7.254188695921547 2.536033638562083 17.68290676752785 0 0 0
5 1 1 0.22 8.194671464193435 2.6605194571124344 18.218633639600064 0 0 0
9 1 11 0.06 8.094023383137843 3.485879345270725 18.91477077590714 0 0 0
764 74 27 1.34 11.883560145960162 2.765211901912563 18.891817419001352 0 0 0
766 74 26 -0.39 10.531008721943666 3.276223673911106 19.47581094390007 0 0 0
770 74 26 -0.39 11.662780266239627 3.5809117542070994 17.582495318076955 0 0 0
71 6 11 0.06 14.735181335171958 4.273438005133624 18.25586781049653 0 0 0
767 74 26 -0.39 12.590433357708076 3.9984669925517706 19.507544766226175 0 0 0
66 6 1 0.22 15.727008166191686 3.830365355602976 18.313095933018065 0 0 0
72 6 11 0.06 15.630314680610583 2.8495294733148255 18.783409541135217 0 0 0
70 6 11 0.06 16.305316600892894 4.43637913046355 19.0099137174898 0 0 0
459 39 19 -0.35 0.14562483156907233 6.280489426805279 18.65330334493637 0 0 0
461 39 1 0.22 0.9277017622805243 5.235620555493127 19.191885104709925 0 0 0
463 39 11 0.06 1.6208288409935283 5.614976896543664 19.94124512802645 0 0 0
457 39 9 0.52 0.9789880451949391 7.298893792034782 18.143881259796757 0 0 0
458 39 20 -0.5 2.1104223827155755 7.058679691179368 17.74840403215927 0 0 0
686 60 2 0.22 4.028773126085579 5.745155909765276 18.75253340582002 0 0 0
687 60 11 0.06 3.908278162546356 6.524743847486045 19.50892255988696 0 0 0
688 60 11 0.06 4.405020372393602 6.080117144359388 17.781361280351764 0 0 0
681 60 9 0.52 6.179443767884014 5.50323228375644 19.42240380534391 0 0 0
683 60 19 -0.35 5.152557488171605 6.463075520453865 19.245040507938995 0 0 0
682 60 20 -0.5 7.368418536706929 5.809278403265891 19.481461432339632 0 0 0
102 9 1 0.22 12.374752669801653 7.05877750510061 19.862908576241416 0 0 -1
107 9 11 0.06 12.7635807232837 6.705440726518806 18.907666720251726 0 0 -1
758 73 26 -0.39 15.37263946865946 7.289497364283937 17.936629232464117 0 0 0
462 39 1 0.22 1.4553632565437442 9.5527024206534 18.162915019518046 0 0 0
467 39 11 0.06 2.0475283013635672 9.364946268884715 19.058350086618276 0 0 0
460 39 19 -0.35 0.4510303095855153 8.585066038516892 17.98166339852522 0 0 0
482 41 20 -0.5 4.531301552982827 8.761124133394548 17.9521322899418 0 0 0
269 23 1 0.22 8.516987552218028 9.21022794480003 19.400817368492493 0 0 0
271 23 11 0.06 9.140265489381514 8.539287321419055 18.813857534774158 0 0 0
273 23 11 0.06 7.5328358036780605 8.750781784486808 19.46665990177991 0 0 0
106 9 11 0.06 11.58974158505048 7.786776023552961 19.67645351609275 0 0 -1
230 20 20 -0.5 11.232507055308348 9.03507874413066 17.542541081202316 0 0 0
631 55 9 0.52 14.273854251994882 9.86101033284443 18.47914975212465 0 0 0
632 55 20 -0.5 14.742458076909045 9.327952359704017 19.479782735328822 0 0 0
762 73 26 -0.39 17.28255920732347 7.724281067547389 18.925144864047365 0 0 0
112 10 19 -0.35 18.55723138071919 9.870848659256835 18.976029211934307 0 0 0
466 39 11 0.06 1.0007143164360226 10.530581659494839 18.255948304112064 0 0 0
537 45 11 0.06 2.610917693354061 12.411155618008031 17.923146793260717 0 0 0
489 41 11 0.06 4.5715499526294066 11.521325138104617 19.191691740792542 0 0 0
483 41 19 -0.35 5.8410975212238885 10.671212629690888 17.779690563043633 0 0 0
485 41 1 0.22 5.524493572035393 11.003139718064423 19.117601475973196 0 0 0
487 41 11 0.06 5.490640977612368 10.15351212551225 19.789371043612995 0 0 0
488 41 11 0.06 6.2881123066175 11.676438030915882 19.50663972044164 0 0 0
267 23 19 -0.35 8.447927371753806 10.521749887463686 18.868582751115106 0 0 0
234 20 1 0.22 11.330126690555815 11.429701529888478 18.78149638248478 0 0 0
238 20 11 0.06 10.981842777406413 12.394093543691877 19.124277288017762 0 0 0
239 20 11 0.06 10.88388127450697 10.658990018136976 19.40819150611425 0 0 0
240 20 11 0.06 12.399772868876111 11.448361889808337 18.935488438959435 0 0 0
633 55 19 -0.35 14.727891992722405 11.12527914305071 18.090938955937812 0 0 0
359 30 11 0.06 16.433457095656532 12.000475166891855 19.692128354224298 0 0 -1
109 10 9 0.52 18.572163157594193 11.252065286921484 18.639638107676586 0 0 0
110 10 20 -0.5 19.286503822524725 12.073752004132729 19.212569750891102 0 0 0
305 26 1 0.22 6.442310150804276 14.253759211791465 17.803203290793466 0 0 0
307 26 11 0.06 5.375042556697534 14.049165542287042 17.797911462013477 0 0 0
308 26 11 0.06 6.973961667220077 13.314065255608782 17.65654324411148 0 0 0
309 26 11 0.06 6.680225834639875 14.614862752462088 18.80299824004543 0 0 0
144 12 11 0.06 8.696546443116887 13.323828448406298 19.519585506009296 0 0 -1
741 70 26 -0.39 14.499096256304407 14.198192477555699 19.82282767660078 0 0 0
737 70 26 -0.39 12.912328378169649 14.145222170800345 18.289166460128286 0 0 0
540 45 11 0.06 0.5435340258294729 16.11882305760872 18.192070900987908 0 0 0
613 53 19 -0.35 4.530326781257812 16.434768030407874 17.83149401703084 0 0 0
611 53 9 0.52 3.663425217599306 17.10425924678219 18.71051459552989 0 0 0
612 53 20 -0.5 3.312240107261424 16.610149601190614 19.779437264174017 0 0 0
742 70 26 -0.39 12.006498944699738 15.952798312468284 19.16201510886601 0 0 0
736 70 27 1.34 13.252485655897898 15.075011041026505 19.494324461855523 0 0 0
739 70 26 -0.39 14.129619404732056 15.96593345785631 18.570723884294637 0 0 0
290 25 20 -0.5 16.5146450170632 16.05447205590407 17.832933428906674 0 0 0
614 53 19 -0.35 3.3530707346472526 18.431531983084678 18.36171167752358 0 0 0
174 15 1 0.22 9.759266087510383 18.582984075190215 18.100320397452354 0 0 0
179 15 11 0.06 9.545727592492577 18.161495974758612 19.082427683395583 0 0 0
180 15 11 0.06 9.489570033700124 19.635496785425197 18.112008637684927 0 0 0
169 15 9 0.52 11.9534273134911 18.839142621761248 18.816185635313627 0 0 0
170 15 20 -0.5 11.523710971588109 19.547131307386998 19.725065465956757 0 0 0
172 15 19 -0.35 11.117637484210874 18.436373393265228 17.750494539706356 0 0 0
171 15 19 -0.35 13.252428481953615 18.286329861494064 18.859386992926297 0 0 0
173 15 1 0.22 14.143501213691257 18.981427047473368 19.708942133980525 0 0 0
177 15 11 0.06 15.167603451860792 18.835481647977375 19.364068890636517 0 0 0
300 25 11 0.06 18.51368825007946 17.547750301768804 17.903879980600163 0 0 0

Velocities

40 0 0 0
42 0 0 0
48 0 0 0
46 0 0 0
37 0 0 0
38 0 0 0
43 0 0 0
41 0 0 0
769 0 0 0
151 0 0 0
689 0 0 0
399 0 0 0
401 0 0 0
405 0 0 0
403 0 0 0
146 0 0 0
149 0 0 0
152 0 0 0
153 0 0 0
400 0 0 0
397 0 0 0
398 0 0 0
108 0 0 0
155 0 0 0
97 0 0 0
98 0 0 0
101 0 0 0
103 0 0 0
104 0 0 0
402 0 0 0
406 0 0 0
408 0 0 0
272 0 0 0
574 0 0 0
100 0 0 0
99 0 0 0
120 0 0 0
114 0 0 0
118 0 0 0
184 0 0 0
190 0 0 0
142 0 0 0
579 0 0 0
575 0 0 0
578 0 0 0
580 0 0 0
354 0 0 0
358 0 0 0
360 0 0 0
119 0 0 0
181 0 0 0
183 0 0 0
138 0 0 0
143 0 0 0
136 0 0 0
740 0 0 0
349 0 0 0
352 0 0 0
350 0 0 0
185 0 0 0
188 0 0 0
134 0 0 0
139 0 0 0
133 0 0 0
135 0 0 0
137 0 0 0
738 0 0 0
351 0 0 0
515 0 0 0
356 0 0 0
353 0 0 0
357 0 0 0
355 0 0 0
141 0 0 0
176 0 0 0
39 0 0 0
44 0 0 0
524 0 0 0
478 0 0 0
469 0 0 0
472 0 0 0
471 0 0 0
473 0 0 0
475 0 0 0
476 0 0 0
477 0 0 0
702 0 0 0
84 0 0 0
581 0 0 0
582 0 0 0
583 0 0 0
588 0 0 0
586 0 0 0
404 0 0 0
480 0 0 0
145 0 0 0
147 0 0 0
470 0 0 0
709 0 0 0
701 0 0 0
704 0 0 0
705 0 0 0
584 0 0 0
585 0 0 0
590 0 0 0
326 0 0 0
325 0 0 0
150 0 0 0
154 0 0 0
156 0 0 0
148 0 0 0
422 0 0 0
261 0 0 0
105 0 0 0
710 0 0 0
668 0 0 0
407 0 0 0
331 0 0 0
329 0 0 0
332 0 0 0
333 0 0 0
327 0 0 0
427 0 0 0
571 0 0 0
572 0 0 0
259 0 0 0
663 0 0 0
666 0 0 0
664 0 0 0
665 0 0 0
669 0 0 0
670 0 0 0
186 0 0 0
192 0 0 0
191 0 0 0
756 0 0 0
428 0 0 0
576 0 0 0
573 0 0 0
577 0 0 0
208 0 0 0
210 0 0 0
214 0 0 0
216 0 0 0
215 0 0 0
661 0 0 0
662 0 0 0
182 0 0 0
753 0 0 0
750 0 0 0
751 0 0 0
755 0 0 0
213 0 0 0
205 0 0 0
207 0 0 0
506 0 0 0
511 0 0 0
189 0 0 0
187 0 0 0
140 0 0 0
514 0 0 0
510 0 0 0
516 0 0 0
505 0 0 0
508 0 0 0
509 0 0 0
507 0 0 0
45 0 0 0
443 0 0 0
83 0 0 0
78 0 0 0
82 0 0 0
517 0 0 0
518 0 0 0
519 0 0 0
523 0 0 0
521 0 0 0
525 0 0 0
223 0 0 0
474 0 0 0
479 0 0 0
395 0 0 0
74 0 0 0
73 0 0 0
76 0 0 0
587 0 0 0
330 0 0 0
334 0 0 0
335 0 0 0
336 0 0 0
430 0 0 0
431 0 0 0
707 0 0 0
706 0 0 0
703 0 0 0
79 0 0 0
589 0 0 0
75 0 0 0
77 0 0 0
81 0 0 0
93 0 0 0
328 0 0 0
424 0 0 0
421 0 0 0
426 0 0 0
432 0 0 0
255 0 0 0
708 0 0 0
677 0 0 0
89 0 0 0
92 0 0 0
87 0 0 0
423 0 0 0
425 0 0 0
253 0 0 0
254 0 0 0
257 0 0 0
260 0 0 0
32 0 0 0
667 0 0 0
679 0 0 0
671 0 0 0
672 0 0 0
673 0 0 0
382 0 0 0
429 0 0 0
29 0 0 0
31 0 0 0
33 0 0 0
26 0 0 0
674 0 0 0
371 0 0 0
752 0 0 0
124 0 0 0
754 0 0 0
226 0 0 0
209 0 0 0
211 0 0 0
212 0 0 0
206 0 0 0
513 0 0 0
512 0 0 0
129 0 0 0
125 0 0 0
127 0 0 0
121 0 0 0
123 0 0 0
220 0 0 0
222 0 0 0
227 0 0 0
228 0 0 0
342 0 0 0
346 0 0 0
347 0 0 0
442 0 0 0
224 0 0 0
128 0 0 0
221 0 0 0
217 0 0 0
218 0 0 0
437 0 0 0
440 0 0 0
441 0 0 0
439 0 0 0
434 0 0 0
433 0 0 0
435 0 0 0
436 0 0 0
438 0 0 0
444 0 0 0
522 0 0 0
526 0 0 0
527 0 0 0
520 0 0 0
50 0 0 0
394 0 0 0
390 0 0 0
396 0 0 0
568 0 0 0
600 0 0 0
594 0 0 0
595 0 0 0
599 0 0 0
54 0 0 0
60 0 0 0
59 0 0 0
96 0 0 0
388 0 0 0
385 0 0 0
386 0 0 0
387 0 0 0
591 0 0 0
592 0 0 0
80 0 0 0
58 0 0 0
85 0 0 0
86 0 0 0
88 0 0 0
90 0 0 0
94 0 0 0
389 0 0 0
391 0 0 0
392 0 0 0
393 0 0 0
91 0 0 0
376 0 0 0
732 0 0 0
262 0 0 0
264 0 0 0
256 0 0 0
258 0 0 0
263 0 0 0
551 0 0 0
554 0 0 0
555 0 0 0
556 0 0 0
559 0 0 0
560 0 0 0
675 0 0 0
676 0 0 0
678 0 0 0
680 0 0 0
378 0 0 0
383 0 0 0
384 0 0 0
749 0 0 0
27 0 0 0
552 0 0 0
557 0 0 0
25 0 0 0
35 0 0 0
36 0 0 0
362 0 0 0
361 0 0 0
364 0 0 0
366 0 0 0
370 0 0 0
126 0 0 0
130 0 0 0
132 0 0 0
743 0 0 0
745 0 0 0
744 0 0 0
746 0 0 0
748 0 0 0
28 0 0 0
30 0 0 0
34 0 0 0
642 0 0 0
454 0 0 0
450 0 0 0
372 0 0 0
122 0 0 0
131 0 0 0
339 0 0 0
337 0 0 0
340 0 0 0
348 0 0 0
528 0 0 0
455 0 0 0
225 0 0 0
420 0 0 0
219 0 0 0
341 0 0 0
344 0 0 0
338 0 0 0
495 0 0 0
497 0 0 0
55 0 0 0
561 0 0 0
562 0 0 0
563 0 0 0
565 0 0 0
566 0 0 0
567 0 0 0
569 0 0 0
596 0 0 0
597 0 0 0
598 0 0 0
593 0 0 0
496 0 0 0
49 0 0 0
51 0 0 0
52 0 0 0
691 0 0 0
692 0 0 0
602 0 0 0
162 0 0 0
166 0 0 0
570 0 0 0
564 0 0 0
542 0 0 0
541 0 0 0
250 0 0 0
252 0 0 0
502 0 0 0
699 0 0 0
694 0 0 0
700 0 0 0
695 0 0 0
95 0 0 0
168 0 0 0
160 0 0 0
157 0 0 0
241 0 0 0
244 0 0 0
246 0 0 0
251 0 0 0
242 0 0 0
375 0 0 0
377 0 0 0
194 0 0 0
198 0 0 0
204 0 0 0
202 0 0 0
159 0 0 0
243 0 0 0
245 0 0 0
248 0 0 0
368 0 0 0
369 0 0 0
373 0 0 0
374 0 0 0
199 0 0 0
200 0 0 0
201 0 0 0
197 0 0 0
193 0 0 0
195 0 0 0
196 0 0 0
323 0 0 0
553 0 0 0
558 0 0 0
363 0 0 0
365 0 0 0
367 0 0 0
17 0 0 0
19 0 0 0
20 0 0 0
747 0 0 0
278 0 0 0
445 0 0 0
446 0 0 0
447 0 0 0
448 0 0 0
456 0 0 0
21 0 0 0
623 0 0 0
627 0 0 0
625 0 0 0
626 0 0 0
629 0 0 0
284 0 0 0
283 0 0 0
647 0 0 0
646 0 0 0
648 0 0 0
641 0 0 0
643 0 0 0
500 0 0 0
501 0 0 0
419 0 0 0
418 0 0 0
412 0 0 0
414 0 0 0
410 0 0 0
628 0 0 0
343 0 0 0
345 0 0 0
645 0 0 0
644 0 0 0
649 0 0 0
493 0 0 0
494 0 0 0
53 0 0 0
57 0 0 0
56 0 0 0
11 0 0 0
6 0 0 0
10 0 0 0
719 0 0 0
68 0 0 0
498 0 0 0
504 0 0 0
693 0 0 0
12 0 0 0
601 0 0 0
167 0 0 0
730 0 0 0
725 0 0 0
729 0 0 0
543 0 0 0
548 0 0 0
546 0 0 0
503 0 0 0
697 0 0 0
696 0 0 0
698 0 0 0
604 0 0 0
605 0 0 0
609 0 0 0
610 0 0 0
606 0 0 0
607 0 0 0
608 0 0 0
603 0 0 0
158 0 0 0
726 0 0 0
727 0 0 0
545 0 0 0
544 0 0 0
550 0 0 0
490 0 0 0
380 0 0 0
381 0 0 0
236 0 0 0
237 0 0 0
233 0 0 0
203 0 0 0
161 0 0 0
163 0 0 0
165 0 0 0
164 0 0 0
247 0 0 0
733 0 0 0
379 0 0 0
275 0 0 0
287 0 0 0
288 0 0 0
322 0 0 0
318 0 0 0
324 0 0 0
249 0 0 0
452 0 0 0
453 0 0 0
449 0 0 0
734 0 0 0
13 0 0 0
15 0 0 0
14 0 0 0
280 0 0 0
282 0 0 0
277 0 0 0
316 0 0 0
314 0 0 0
313 0 0 0
319 0 0 0
321 0 0 0
451 0 0 0
312 0 0 0
310 0 0 0
311 0 0 0
304 0 0 0
306 0 0 0
621 0 0 0
622 0 0 0
630 0 0 0
624 0 0 0
279 0 0 0
281 0 0 0
285 0 0 0
315 0 0 0
317 0 0 0
320 0 0 0
499 0 0 0
731 0 0 0
409 0 0 0
411 0 0 0
413 0 0 0
415 0 0 0
720 0 0 0
715 0 0 0
716 0 0 0
717 0 0 0
718 0 0 0
650 0 0 0
1 0 0 0
2 0 0 0
4 0 0 0
712 0 0 0
62 0 0 0
67 0 0 0
65 0 0 0
69 0 0 0
63 0 0 0
657 0 0 0
658 0 0 0
653 0 0 0
3 0 0 0
61 0 0 0
64 0 0 0
721 0 0 0
724 0 0 0
722 0 0 0
547 0 0 0
491 0 0 0
655 0 0 0
656 0 0 0
659 0 0 0
660 0 0 0
651 0 0 0
654 0 0 0
652 0 0 0
760 0 0 0
728 0 0 0
723 0 0 0
549 0 0 0
468 0 0 0
486 0 0 0
492 0 0 0
481 0 0 0
484 0 0 0
266 0 0 0
235 0 0 0
231 0 0 0
634 0 0 0
640 0 0 0
635 0 0 0
639 0 0 0
763 0 0 0
757 0 0 0
761 0 0 0
759 0 0 0
535 0 0 0
533 0 0 0
536 0 0 0
276 0 0 0
265 0 0 0
268 0 0 0
270 0 0 0
229 0 0 0
286 0 0 0
232 0 0 0
636 0 0 0
637 0 0 0
638 0 0 0
111 0 0 0
116 0 0 0
529 0 0 0
530 0 0 0
531 0 0 0
302 0 0 0
274 0 0 0
23 0 0 0
297 0 0 0
293 0 0 0
295 0 0 0
117 0 0 0
113 0 0 0
115 0 0 0
532 0 0 0
534 0 0 0
539 0 0 0
618 0 0 0
616 0 0 0
301 0 0 0
303 0 0 0
617 0 0 0
16 0 0 0
18 0 0 0
22 0 0 0
24 0 0 0
296 0 0 0
289 0 0 0
291 0 0 0
292 0 0 0
538 0 0 0
615 0 0 0
620 0 0 0
619 0 0 0
178 0 0 0
417 0 0 0
416 0 0 0
711 0 0 0
714 0 0 0
713 0 0 0
299 0 0 0
294 0 0 0
298 0 0 0
47 0 0 0
735 0 0 0
8 0 0 0
768 0 0 0
175 0 0 0
765 0 0 0
464 0 0 0
465 0 0 0
690 0 0 0
685 0 0 0
684 0 0 0
7 0 0 0
5 0 0 0
9 0 0 0
764 0 0 0
766 0 0 0
770 0 0 0
71 0 0 0
767 0 0 0
66 0 0 0
72 0 0 0
70 0 0 0
459 0 0 0
461 0 0 0
463 0 0 0
457 0 0 0
458 0 0 0
686 0 0 0
687 0 0 0
688 0 0 0
681 0 0 0
683 0 0 0
682 0 0 0
102 0 0 0
107 0 0 0
758 0 0 0
462 0 0 0
467 0 0 0
460 0 0 0
482 0 0 0
269 0 0 0
271 0 0 0
273 0 0 0
106 0 0 0
230 0 0 0
631 0 0 0
632 0 0 0
762 0 0 0
112 0 0 0
466 0 0 0
537 0 0 0
489 0 0 0
483 0 0 0
485 0 0 0
487 0 0 0
488 0 0 0
267 0 0 0
234 0 0 0
238 0 0 0
239 0 0 0
240 0 0 0
633 0 0 0
359 0 0 0
109 0 0 0
110 0 0 0
305 0 0 0
307 0 0 0
308 0 0 0
309 0 0 0
144 0 0 0
741 0 0 0
737 0 0 0
540 0 0 0
613 0 0 0
611 0 0 0
612 0 0 0
742 0 0 0
736 0 0 0
739 0 0 0
290 0 0 0
614 0 0 0
174 0 0 0
179 0 0 0
180 0 0 0
169 0 0 0
170 0 0 0
172 0 0 0
171 0 0 0
173 0 0 0
177 0 0 0
300 0 0 0

Bonds

1 7 40 42
2 4 42 46
3 4 42 47
4 4 42 48
5 8 37 38
6 7 37 39
7 7 37 40
8 4 41 43
9 4 41 44
10 4 41 45
11 7 399 401
12 4 401 403
13 4 401 404
14 4 401 405
15 4 149 151
16 4 149 152
17 4 149 153
18 7 400 402
19 8 397 398
20 7 397 399
21 7 397 400
22 8 97 98
23 7 97 99
24 7 97 100
25 4 101 103
26 4 101 104
27 4 101 105
28 4 402 406
29 4 402 407
30 4 402 408
31 7 574 575
32 7 100 102
33 7 99 101
34 4 114 118
35 4 114 119
36 4 114 120
37 7 184 186
38 1 575 576
39 4 575 579
40 4 575 580
41 4 354 358
42 4 354 359
43 4 354 360
44 8 181 182
45 7 181 183
46 7 181 184
47 7 183 185
48 4 138 142
49 4 138 143
50 4 138 144
51 7 136 138
52 8 349 350
53 7 349 351
54 7 349 352
55 7 352 354
56 4 185 187
57 4 185 188
58 4 185 189
59 8 133 134
60 7 133 135
61 7 133 136
62 7 135 137
63 4 137 139
64 4 137 140
65 4 137 141
66 7 351 353
67 4 353 355
68 4 353 356
69 4 353 357
70 7 39 41
71 8 469 470
72 7 469 471
73 7 469 472
74 7 472 474
75 7 471 473
76 4 473 475
77 4 473 476
78 4 473 477
79 8 581 582
80 7 581 583
81 7 581 584
82 7 583 586
83 4 586 587
84 4 586 588
85 8 145 146
86 7 145 147
87 7 145 148
88 7 147 149
89 8 701 702
90 7 701 703
91 7 701 704
92 7 704 705
93 1 705 706
94 4 705 709
95 4 705 710
96 7 584 585
97 1 585 586
98 4 585 589
99 4 585 590
100 8 325 326
101 7 325 327
102 7 325 328
103 4 150 154
104 4 150 155
105 4 150 156
106 7 148 150
107 4 329 331
108 4 329 332
109 4 329 333
110 7 327 329
111 8 571 572
112 7 571 573
113 7 571 574
114 7 663 666
115 4 666 667
116 4 666 668
117 7 664 665
118 1 665 666
119 4 665 669
120 4 665 670
121 4 186 190
122 4 186 191
123 4 186 192
124 4 576 577
125 4 576 578
126 7 573 576
127 7 208 210
128 4 210 214
129 4 210 215
130 4 210 216
131 8 661 662
132 7 661 663
133 7 661 664
134 15 750 751
135 15 750 752
136 15 750 753
137 15 750 754
138 15 750 755
139 15 750 756
140 8 205 206
141 7 205 207
142 7 205 208
143 7 207 209
144 4 510 514
145 4 510 515
146 4 510 516
147 8 505 506
148 7 505 507
149 7 505 508
150 7 508 510
151 4 509 511
152 4 509 512
153 4 509 513
154 7 507 509
155 4 78 82
156 4 78 83
157 4 78 84
158 8 517 518
159 7 517 519
160 7 517 520
161 7 519 521
162 4 521 523
163 4 521 524
164 4 521 525
165 4 474 478
166 4 474 479
167 4 474 480
168 8 73 74
169 7 73 75
170 7 73 76
171 7 76 78
172 4 330 334
173 4 330 335
174 4 330 336
175 4 706 707
176 4 706 708
177 7 703 706
178 7 75 77
179 4 77 79
180 4 77 80
181 4 77 81
182 7 328 330
183 7 424 426
184 8 421 422
185 7 421 423
186 7 421 424
187 4 426 430
188 4 426 431
189 4 426 432
190 7 255 257
191 4 89 91
192 4 89 92
193 4 89 93
194 7 87 89
195 7 423 425
196 4 425 427
197 4 425 428
198 4 425 429
199 8 253 254
200 7 253 255
201 7 253 256
202 4 257 259
203 4 257 260
204 4 257 261
205 8 671 672
206 7 671 673
207 7 671 674
208 7 673 676
209 4 29 31
210 4 29 32
211 4 29 33
212 7 674 675
213 7 124 126
214 4 209 211
215 4 209 212
216 4 209 213
217 4 125 127
218 4 125 128
219 4 125 129
220 8 121 122
221 7 121 123
222 7 121 124
223 7 123 125
224 7 220 222
225 4 222 226
226 4 222 227
227 4 222 228
228 4 342 346
229 4 342 347
230 4 342 348
231 4 221 223
232 4 221 224
233 4 221 225
234 8 217 218
235 7 217 219
236 7 217 220
237 4 437 439
238 4 437 440
239 4 437 441
240 8 433 434
241 7 433 435
242 7 433 436
243 7 435 437
244 7 436 438
245 4 438 442
246 4 438 443
247 4 438 444
248 4 522 526
249 4 522 527
250 4 522 528
251 7 520 522
252 4 390 394
253 4 390 395
254 4 390 396
255 7 594 595
256 1 595 596
257 4 595 599
258 4 595 600
259 4 54 58
260 4 54 59
261 4 54 60
262 7 388 390
263 8 385 386
264 7 385 387
265 7 385 388
266 7 387 389
267 8 591 592
268 7 591 593
269 7 591 594
270 8 85 86
271 7 85 87
272 7 85 88
273 7 88 90
274 4 90 94
275 4 90 95
276 4 90 96
277 4 389 391
278 4 389 392
279 4 389 393
280 7 376 378
281 7 256 258
282 4 258 262
283 4 258 263
284 4 258 264
285 8 551 552
286 7 551 553
287 7 551 554
288 7 554 555
289 1 555 556
290 4 555 559
291 4 555 560
292 4 556 557
293 4 556 558
294 1 675 676
295 4 675 679
296 4 675 680
297 4 676 677
298 4 676 678
299 4 378 382
300 4 378 383
301 4 378 384
302 7 27 29
303 8 25 26
304 7 25 27
305 7 25 28
306 8 361 362
307 7 361 363
308 7 361 364
309 7 364 366
310 4 366 370
311 4 366 371
312 4 366 372
313 4 126 130
314 4 126 131
315 4 126 132
316 15 743 744
317 15 743 745
318 15 743 746
319 15 743 747
320 15 743 748
321 15 743 749
322 7 28 30
323 4 30 34
324 4 30 35
325 4 30 36
326 4 450 454
327 4 450 455
328 4 450 456
329 7 339 341
330 8 337 338
331 7 337 339
332 7 337 340
333 7 340 342
334 7 219 221
335 4 341 343
336 4 341 344
337 4 341 345
338 7 495 497
339 4 497 499
340 4 497 500
341 4 497 501
342 8 561 562
343 7 561 563
344 7 561 564
345 7 563 566
346 1 565 566
347 4 565 569
348 4 565 570
349 4 566 567
350 4 566 568
351 4 596 597
352 4 596 598
353 7 593 596
354 7 496 498
355 8 49 50
356 7 49 51
357 7 49 52
358 7 51 53
359 7 52 54
360 8 691 692
361 7 691 693
362 7 691 694
363 4 162 166
364 4 162 167
365 4 162 168
366 7 564 565
367 8 541 542
368 7 541 543
369 7 541 544
370 7 694 695
371 1 695 696
372 4 695 699
373 4 695 700
374 7 160 162
375 8 157 158
376 7 157 159
377 7 157 160
378 8 241 242
379 7 241 243
380 7 241 244
381 7 244 246
382 4 246 250
383 4 246 251
384 4 246 252
385 7 375 377
386 4 377 379
387 4 377 380
388 4 377 381
389 4 198 202
390 4 198 203
391 4 198 204
392 7 159 161
393 7 243 245
394 4 245 247
395 4 245 248
396 4 245 249
397 8 373 374
398 7 373 375
399 7 373 376
400 4 197 199
401 4 197 200
402 4 197 201
403 8 193 194
404 7 193 195
405 7 193 196
406 7 195 197
407 7 196 198
408 7 553 556
409 7 363 365
410 4 365 367
411 4 365 368
412 4 365 369
413 4 17 19
414 4 17 20
415 4 17 21
416 8 445 446
417 7 445 447
418 7 445 448
419 7 447 449
420 7 448 450
421 7 623 626
422 1 625 626
423 4 625 629
424 4 625 630
425 4 626 627
426 4 626 628
427 4 646 647
428 4 646 648
429 8 641 642
430 7 641 643
431 7 641 644
432 7 643 646
433 7 412 414
434 4 414 418
435 4 414 419
436 4 414 420
437 1 645 646
438 4 645 649
439 4 645 650
440 7 644 645
441 8 493 494
442 7 493 495
443 7 493 496
444 4 53 55
445 4 53 56
446 4 53 57
447 4 6 10
448 4 6 11
449 4 6 12
450 4 498 502
451 4 498 503
452 4 498 504
453 7 693 696
454 8 601 602
455 7 601 603
456 7 601 604
457 1 725 726
458 4 725 729
459 4 725 730
460 7 543 546
461 4 546 547
462 4 546 548
463 4 696 697
464 4 696 698
465 7 604 605
466 1 605 606
467 4 605 609
468 4 605 610
469 4 606 607
470 4 606 608
471 7 603 606
472 4 726 727
473 4 726 728
474 1 545 546
475 4 545 549
476 4 545 550
477 7 544 545
478 4 233 235
479 4 233 236
480 4 233 237
481 4 161 163
482 4 161 164
483 4 161 165
484 4 318 322
485 4 318 323
486 4 318 324
487 4 449 451
488 4 449 452
489 4 449 453
490 8 13 14
491 7 13 15
492 7 13 16
493 7 15 17
494 7 280 282
495 4 282 286
496 4 282 287
497 4 282 288
498 8 277 278
499 7 277 279
500 7 277 280
501 7 316 318
502 8 313 314
503 7 313 315
504 7 313 316
505 7 304 306
506 4 306 310
507 4 306 311
508 4 306 312
509 8 621 622
510 7 621 623
511 7 621 624
512 7 624 625
513 7 279 281
514 4 281 283
515 4 281 284
516 4 281 285
517 7 315 317
518 4 317 319
519 4 317 320
520 4 317 321
521 8 409 410
522 7 409 411
523 7 409 412
524 7 411 413
525 4 413 415
526 4 413 416
527 4 413 417
528 1 715 716
529 4 715 719
530 4 715 720
531 4 716 717
532 4 716 718
533 8 1 2
534 7 1 3
535 7 1 4
536 7 4 6
537 4 65 67
538 4 65 68
539 4 65 69
540 7 63 65
541 7 653 656
542 7 3 5
543 8 61 62
544 7 61 63
545 7 61 64
546 7 64 66
547 8 721 722
548 7 721 723
549 7 721 724
550 7 724 725
551 1 655 656
552 4 655 659
553 4 655 660
554 4 656 657
555 4 656 658
556 8 651 652
557 7 651 653
558 7 651 654
559 7 654 655
560 7 723 726
561 4 486 490
562 4 486 491
563 4 486 492
564 8 481 482
565 7 481 483
566 7 481 484
567 7 484 486
568 7 231 233
569 7 634 635
570 1 635 636
571 4 635 639
572 4 635 640
573 15 757 758
574 15 757 759
575 15 757 760
576 15 757 761
577 15 757 762
578 15 757 763
579 4 533 535
580 4 533 536
581 4 533 537
582 8 265 266
583 7 265 267
584 7 265 268
585 7 268 270
586 4 270 274
587 4 270 275
588 4 270 276
589 8 229 230
590 7 229 231
591 7 229 232
592 7 232 234
593 4 636 637
594 4 636 638
595 7 111 113
596 8 529 530
597 7 529 531
598 7 529 532
599 7 531 533
600 4 293 295
601 4 293 296
602 4 293 297
603 4 113 115
604 4 113 116
605 4 113 117
606 7 532 534
607 4 534 538
608 4 534 539
609 4 534 540
610 4 616 617
611 4 616 618
612 8 301 302
613 7 301 303
614 7 301 304
615 7 303 305
616 7 16 18
617 4 18 22
618 4 18 23
619 4 18 24
620 8 289 290
621 7 289 291
622 7 289 292
623 7 291 293
624 7 292 294
625 1 615 616
626 4 615 619
627 4 615 620
628 8 711 712
629 7 711 713
630 7 711 714
631 7 714 715
632 7 713 716
633 4 294 298
634 4 294 299
635 4 294 300
636 1 685 686
637 4 685 689
638 4 685 690
639 7 684 685
640 4 5 7
641 4 5 8
642 4 5 9
643 15 764 765
644 15 764 766
645 15 764 767
646 15 764 768
647 15 764 769
648 15 764 770
649 4 66 70
650 4 66 71
651 4 66 72
652 7 459 461
653 4 461 463
654 4 461 464
655 4 461 465
656 8 457 458
657 7 457 459
658 7 457 460
659 4 686 687
660 4 686 688
661 8 681 682
662 7 681 683
663 7 681 684
664 7 683 686
665 4 102 106
666 4 102 107
667 4 102 108
668 4 462 466
669 4 462 467
670 4 462 468
671 7 460 462
672 4 269 271
673 4 269 272
674 4 269 273
675 8 631 632
676 7 631 633
677 7 631 634
678 7 112 114
679 7 483 485
680 4 485 487
681 4 485 488
682 4 485 489
683 7 267 269
684 4 234 238
685 4 234 239
686 4 234 240
687 7 633 636
688 8 109 110
689 7 109 111
690 7 109 112
691 4 305 307
692 4 305 308
693 4 305 309
694 7 613 616
695 8 611 612
696 7 611 613
697 7 611 614
698 15 736 737
699 15 736 738
700 15 736 739
701 15 736 740
702 15 736 741
703 15 736 742
704 7 614 615
705 4 174 178
706 4 174 179
707 4 174 180
708 8 169 170
709 7 169 171
710 7 169 172
711 7 172 174
712 7 171 173
713 4 173 175
714 4 173 176
715 4 173 177

Angles

1 9 37 40 42
2 4 40 42 46
3 4 40 42 47
4 4 40 42 48
5 7 46 42 47
6 7 46 42 48
7 7 47 42 48
8 11 38 37 39
9 11 38 37 40
10 12 39 37 40
11 4 39 41 43
12 4 39 41 44
13 4 39 41 45
14 7 43 41 44
15 7 43 41 45
16 7 44 41 45
17 9 397 399 401
18 4 399 401 403
19 4 399 401 404
20 4 399 401 405
21 7 403 401 404
22 7 403 401 405
23 7 404 401 405
24 4 147 149 151
25 4 147 149 152
26 4 147 149 153
27 7 151 149 152
28 7 151 149 153
29 7 152 149 153
30 9 397 400 402
31 11 398 397 399
32 11 398 397 400
33 12 399 397 400
34 11 98 97 99
35 11 98 97 100
36 12 99 97 100
37 4 99 101 103
38 4 99 101 104
39 4 99 101 105
40 7 103 101 104
41 7 103 101 105
42 7 104 101 105
43 4 400 402 406
44 4 400 402 407
45 4 400 402 408
46 7 406 402 407
47 7 406 402 408
48 7 407 402 408
49 9 571 574 575
50 9 97 100 102
51 9 97 99 101
52 4 112 114 118
53 4 112 114 119
54 4 112 114 120
55 7 118 114 119
56 7 118 114 120
57 7 119 114 120
58 9 181 184 186
59 13 574 575 576
60 4 576 575 579
61 4 576 575 580
62 6 579 575 580
63 4 352 354 358
64 4 352 354 359
65 4 352 354 360
66 7 358 354 359
67 7 358 354 360
68 7 359 354 360
69 11 182 181 183
70 11 182 181 184
71 12 183 181 184
72 9 181 183 185
73 4 136 138 142
74 4 136 138 143
75 4 136 138 144
76 7 142 138 143
77 7 142 138 144
78 7 143 138 144
79 9 133 136 138
80 11 350 349 351
81 11 350 349 352
82 12 351 349 352
83 9 349 352 354
84 4 183 185 187
85 4 183 185 188
86 4 183 185 189
87 7 187 185 188
88 7 187 185 189
89 7 188 185 189
90 11 134 133 135
91 11 134 133 136
92 12 135 133 136
93 9 133 135 137
94 4 135 137 139
95 4 135 137 140
96 4 135 137 141
97 7 139 137 140
98 7 139 137 141
99 7 140 137 141
100 9 349 351 353
101 4 351 353 355
102 4 351 353 356
103 4 351 353 357
104 7 355 353 356
105 7 355 353 357
106 7 356 353 357
107 9 37 39 41
108 11 470 469 471
109 11 470 469 472
110 12 471 469 472
111 9 469 472 474
112 9 469 471 473
113 4 471 473 475
114 4 471 473 476
115 4 471 473 477
116 7 475 473 476
117 7 475 473 477
118 7 476 473 477
119 11 582 581 583
120 11 582 581 584
121 12 583 581 584
122 9 581 583 586
123 13 583 586 585
124 4 585 586 587
125 4 585 586 588
126 6 587 586 588
127 11 146 145 147
128 11 146 145 148
129 12 147 145 148
130 9 145 147 149
131 11 702 701 703
132 11 702 701 704
133 12 703 701 704
134 9 701 704 705
135 13 704 705 706
136 4 706 705 709
137 4 706 705 710
138 6 709 705 710
139 9 581 584 585
140 13 584 585 586
141 4 586 585 589
142 4 586 585 590
143 6 589 585 590
144 11 326 325 327
145 11 326 325 328
146 12 327 325 328
147 4 148 150 154
148 4 148 150 155
149 4 148 150 156
150 7 154 150 155
151 7 154 150 156
152 7 155 150 156
153 9 145 148 150
154 4 327 329 331
155 4 327 329 332
156 4 327 329 333
157 7 331 329 332
158 7 331 329 333
159 7 332 329 333
160 9 325 327 329
161 11 572 571 573
162 11 572 571 574
163 12 573 571 574
164 9 661 663 666
165 13 663 666 665
166 4 665 666 667
167 4 665 666 668
168 6 667 666 668
169 9 661 664 665
170 13 664 665 666
171 4 666 665 669
172 4 666 665 670
173 6 669 665 670
174 4 184 186 190
175 4 184 186 191
176 4 184 186 192
177 7 190 186 191
178 7 190 186 192
179 7 191 186 192
180 13 573 576 575
181 4 575 576 577
182 4 575 576 578
183 6 577 576 578
184 9 571 573 576
185 9 205 208 210
186 4 208 210 214
187 4 208 210 215
188 4 208 210 216
189 7 214 210 215
190 7 214 210 216
191 7 215 210 216
192 11 662 661 663
193 11 662 661 664
194 12 663 661 664
195 18 751 750 752
196 18 753 750 754
197 18 755 750 756
198 17 751 750 753
199 17 751 750 754
200 17 751 750 755
201 17 751 750 756
202 17 752 750 753
203 17 752 750 754
204 17 752 750 755
205 17 752 750 756
206 17 753 750 755
207 17 753 750 756
208 17 754 750 755
209 17 754 750 756
210 11 206 205 207
211 11 206 205 208
212 12 207 205 208
213 9 205 207 209
214 4 508 510 514
215 4 508 510 515
216 4 508 510 516
217 7 514 510 515
218 7 514 510 516
219 7 515 510 516
220 11 506 505 507
221 11 506 505 508
222 12 507 505 508
223 9 505 508 510
224 4 507 509 511
225 4 507 509 512
226 4 507 509 513
227 7 511 509 512
228 7 511 509 513
229 7 512 509 513
230 9 505 507 509
231 4 76 78 82
232 4 76 78 83
233 4 76 78 84
234 7 82 78 83
235 7 82 78 84
236 7 83 78 84
237 11 518 517 519
238 11 518 517 520
239 12 519 517 520
240 9 517 519 521
241 4 519 521 523
242 4 519 521 524
243 4 519 521 525
244 7 523 521 524
245 7 523 521 525
246 7 524 521 525
247 4 472 474 478
248 4 472 474 479
249 4 472 474 480
250 7 478 474 479
251 7 478 474 480
252 7 479 474 480
253 11 74 73 75
254 11 74 73 76
255 12 75 73 76
256 9 73 76 78
257 4 328 330 334
258 4 328 330 335
259 4 328 330 336
260 7 334 330 335
261 7 334 330 336
262 7 335 330 336
263 13 703 706 705
264 4 705 706 707
265 4 705 706 708
266 6 707 706 708
267 9 701 703 706
268 9 73 75 77
269 4 75 77 79
270 4 75 77 80
271 4 75 77 81
272 7 79 77 80
273 7 79 77 81
274 7 80 77 81
275 9 325 328 330
276 9 421 424 426
277 11 422 421 423
278 11 422 421 424
279 12 423 421 424
280 4 424 426 430
281 4 424 426 431
282 4 424 426 432
283 7 430 426 431
284 7 430 426 432
285 7 431 426 432
286 9 253 255 257
287 4 87 89 91
288 4 87 89 92
289 4 87 89 93
290 7 91 89 92
291 7 91 89 93
292 7 92 89 93
293 9 85 87 89
294 9 421 423 425
295 4 423 425 427
296 4 423 425 428
297 4 423 425 429
298 7 427 425 428
299 7 427 425 429
300 7 428 425 429
301 11 254 253 255
302 11 254 253 256
303 12 255 253 256
304 4 255 257 259
305 4 255 257 260
306 4 255 257 261
307 7 259 257 260
308 7 259 257 261
309 7 260 257 261
310 11 672 671 673
311 11 672 671 674
312 12 673 671 674
313 9 671 673 676
314 4 27 29 31
315 4 27 29 32
316 4 27 29 33
317 7 31 29 32
318 7 31 29 33
319 7 32 29 33
320 9 671 674 675
321 9 121 124 126
322 4 207 209 211
323 4 207 209 212
324 4 207 209 213
325 7 211 209 212
326 7 211 209 213
327 7 212 209 213
328 4 123 125 127
329 4 123 125 128
330 4 123 125 129
331 7 127 125 128
332 7 127 125 129
333 7 128 125 129
334 11 122 121 123
335 11 122 121 124
336 12 123 121 124
337 9 121 123 125
338 9 217 220 222
339 4 220 222 226
340 4 220 222 227
341 4 220 222 228
342 7 226 222 227
343 7 226 222 228
344 7 227 222 228
345 4 340 342 346
346 4 340 342 347
347 4 340 342 348
348 7 346 342 347
349 7 346 342 348
350 7 347 342 348
351 4 219 221 223
352 4 219 221 224
353 4 219 221 225
354 7 223 221 224
355 7 223 221 225
356 7 224 221 225
357 11 218 217 219
358 11 218 217 220
359 12 219 217 220
360 4 435 437 439
361 4 435 437 440
362 4 435 437 441
363 7 439 437 440
364 7 439 437 441
365 7 440 437 441
366 11 434 433 435
367 11 434 433 436
368 12 435 433 436
369 9 433 435 437
370 9 433 436 438
371 4 436 438 442
372 4 436 438 443
373 4 436 438 444
374 7 442 438 443
375 7 442 438 444
376 7 443 438 444
377 4 520 522 526
378 4 520 522 527
379 4 520 522 528
380 7 526 522 527
381 7 526 522 528
382 7 527 522 528
383 9 517 520 522
384 4 388 390 394
385 4 388 390 395
386 4 388 390 396
387 7 394 390 395
388 7 394 390 396
389 7 395 390 396
390 9 591 594 595
391 13 594 595 596
392 4 596 595 599
393 4 596 595 600
394 6 599 595 600
395 4 52 54 58
396 4 52 54 59
397 4 52 54 60
398 7 58 54 59
399 7 58 54 60
400 7 59 54 60
401 9 385 388 390
402 11 386 385 387
403 11 386 385 388
404 12 387 385 388
405 9 385 387 389
406 11 592 591 593
407 11 592 591 594
408 12 593 591 594
409 11 86 85 87
410 11 86 85 88
411 12 87 85 88
412 9 85 88 90
413 4 88 90 94
414 4 88 90 95
415 4 88 90 96
416 7 94 90 95
417 7 94 90 96
418 7 95 90 96
419 4 387 389 391
420 4 387 389 392
421 4 387 389 393
422 7 391 389 392
423 7 391 389 393
424 7 392 389 393
425 9 373 376 378
426 9 253 256 258
427 4 256 258 262
428 4 256 258 263
429 4 256 258 264
430 7 262 258 263
431 7 262 258 264
432 7 263 258 264
433 11 552 551 553
434 11 552 551 554
435 12 553 551 554
436 9 551 554 555
437 13 554 555 556
438 4 556 555 559
439 4 556 555 560
440 6 559 555 560
441 13 553 556 555
442 4 555 556 557
443 4 555 556 558
444 6 557 556 558
445 13 674 675 676
446 4 676 675 679
447 4 676 675 680
448 6 679 675 680
449 13 673 676 675
450 4 675 676 677
451 4 675 676 678
452 6 677 676 678
453 4 376 378 382
454 4 376 378 383
455 4 376 378 384
456 7 382 378 383
457 7 382 378 384
458 7 383 378 384
459 9 25 27 29
460 11 26 25 27
461 11 26 25 28
462 12 27 25 28
463 11 362 361 363
464 11 362 361 364
465 12 363 361 364
466 9 361 364 366
467 4 364 366 370
468 4 364 366 371
469 4 364 366 372
470 7 370 366 371
471 7 370 366 372
472 7 371 366 372
473 4 124 126 130
474 4 124 126 131
475 4 124 126 132
476 7 130 126 131
477 7 130 126 132
478 7 131 126 132
479 18 744 743 745
480 18 746 743 747
481 18 748 743 749
482 17 744 743 746
483 17 744 743 747
484 17 744 743 748
485 17 744 743 749
486 17 745 743 746
487 17 745 743 747
488 17 745 743 748
489 17 745 743 749
490 17 746 743 748
491 17 746 743 749
492 17 747 743 748
493 17 747 743 749
494 9 25 28 30
495 4 28 30 34
496 4 28 30 35
497 4 28 30 36
498 7 34 30 35
499 7 34 30 36
500 7 35 30 36
501 4 448 450 454
502 4 448 450 455
503 4 448 450 456
504 7 454 450 455
505 7 454 450 456
506 7 455 450 456
507 9 337 339 341
508 11 338 337 339
509 11 338 337 340
510 12 339 337 340
511 9 337 340 342
512 9 217 219 221
513 4 339 341 343
514 4 339 341 344
515 4 339 341 345
516 7 343 341 344
517 7 343 341 345
518 7 344 341 345
519 9 493 495 497
520 4 495 497 499
521 4 495 497 500
522 4 495 497 501
523 7 499 497 500
524 7 499 497 501
525 7 500 497 501
526 11 562 561 563
527 11 562 561 564
528 12 563 561 564
529 9 561 563 566
530 13 564 565 566
531 4 566 565 569
532 4 566 565 570
533 6 569 565 570
534 13 563 566 565
535 4 565 566 567
536 4 565 566 568
537 6 567 566 568
538 13 593 596 595
539 4 595 596 597
540 4 595 596 598
541 6 597 596 598
542 9 591 593 596
543 9 493 496 498
544 11 50 49 51
545 11 50 49 52
546 12 51 49 52
547 9 49 51 53
548 9 49 52 54
549 11 692 691 693
550 11 692 691 694
551 12 693 691 694
552 4 160 162 166
553 4 160 162 167
554 4 160 162 168
555 7 166 162 167
556 7 166 162 168
557 7 167 162 168
558 9 561 564 565
559 11 542 541 543
560 11 542 541 544
561 12 543 541 544
562 9 691 694 695
563 13 694 695 696
564 4 696 695 699
565 4 696 695 700
566 6 699 695 700
567 9 157 160 162
568 11 158 157 159
569 11 158 157 160
570 12 159 157 160
571 11 242 241 243
572 11 242 241 244
573 12 243 241 244
574 9 241 244 246
575 4 244 246 250
576 4 244 246 251
577 4 244 246 252
578 7 250 246 251
579 7 250 246 252
580 7 251 246 252
581 9 373 375 377
582 4 375 377 379
583 4 375 377 380
584 4 375 377 381
585 7 379 377 380
586 7 379 377 381
587 7 380 377 381
588 4 196 198 202
589 4 196 198 203
590 4 196 198 204
591 7 202 198 203
592 7 202 198 204
593 7 203 198 204
594 9 157 159 161
595 9 241 243 245
596 4 243 245 247
597 4 243 245 248
598 4 243 245 249
599 7 247 245 248
600 7 247 245 249
601 7 248 245 249
602 11 374 373 375
603 11 374 373 376
604 12 375 373 376
605 4 195 197 199
606 4 195 197 200
607 4 195 197 201
608 7 199 197 200
609 7 199 197 201
610 7 200 197 201
611 11 194 193 195
612 11 194 193 196
613 12 195 193 196
614 9 193 195 197
615 9 193 196 198
616 9 551 553 556
617 9 361 363 365
618 4 363 365 367
619 4 363 365 368
620 4 363 365 369
621 7 367 365 368
622 7 367 365 369
623 7 368 365 369
624 4 15 17 19
625 4 15 17 20
626 4 15 17 21
627 7 19 17 20
628 7 19 17 21
629 7 20 17 21
630 11 446 445 447
631 11 446 445 448
632 12 447 445 448
633 9 445 447 449
634 9 445 448 450
635 9 621 623 626
636 13 624 625 626
637 4 626 625 629
638 4 626 625 630
639 6 629 625 630
640 13 623 626 625
641 4 625 626 627
642 4 625 626 628
643 6 627 626 628
644 13 643 646 645
645 4 645 646 647
646 4 645 646 648
647 6 647 646 648
648 11 642 641 643
649 11 642 641 644
650 12 643 641 644
651 9 641 643 646
652 9 409 412 414
653 4 412 414 418
654 4 412 414 419
655 4 412 414 420
656 7 418 414 419
657 7 418 414 420
658 7 419 414 420
659 13 644 645 646
660 4 646 645 649
661 4 646 645 650
662 6 649 645 650
663 9 641 644 645
664 11 494 493 495
665 11 494 493 496
666 12 495 493 496
667 4 51 53 55
668 4 51 53 56
669 4 51 53 57
670 7 55 53 56
671 7 55 53 57
672 7 56 53 57
673 4 4 6 10
674 4 4 6 11
675 4 4 6 12
676 7 10 6 11
677 7 10 6 12
678 7 11 6 12
679 4 496 498 502
680 4 496 498 503
681 4 496 498 504
682 7 502 498 503
683 7 502 498 504
684 7 503 498 504
685 9 691 693 696
686 11 602 601 603
687 11 602 601 604
688 12 603 601 604
689 13 724 725 726
690 4 726 725 729
691 4 726 725 730
692 6 729 725 730
693 9 541 543 546
694 13 543 546 545
695 4 545 546 547
696 4 545 546 548
697 6 547 546 548
698 13 693 696 695
699 4 695 696 697
700 4 695 696 698
701 6 697 696 698
702 9 601 604 605
703 13 604 605 606
704 4 606 605 609
705 4 606 605 610
706 6 609 605 610
707 13 603 606 605
708 4 605 606 607
709 4 605 606 608
710 6 607 606 608
711 9 601 603 606
712 13 723 726 725
713 4 725 726 727
714 4 725 726 728
715 6 727 726 728
716 13 544 545 546
717 4 546 545 549
718 4 546 545 550
719 6 549 545 550
720 9 541 544 545
721 4 231 233 235
722 4 231 233 236
723 4 231 233 237
724 7 235 233 236
725 7 235 233 237
726 7 236 233 237
727 4 159 161 163
728 4 159 161 164
729 4 159 161 165
730 7 163 161 164
731 7 163 161 165
732 7 164 161 165
733 4 316 318 322
734 4 316 318 323
735 4 316 318 324
736 7 322 318 323
737 7 322 318 324
738 7 323 318 324
739 4 447 449 451
740 4 447 449 452
741 4 447 449 453
742 7 451 449 452
743 7 451 449 453
744 7 452 449 453
745 11 14 13 15
746 11 14 13 16
747 12 15 13 16
748 9 13 15 17
749 9 277 280 282
750 4 280 282 286
751 4 280 282 287
752 4 280 282 288
753 7 286 282 287
754 7 286 282 288
755 7 287 282 288
756 11 278 277 279
757 11 278 277 280
758 12 279 277 280
759 9 313 316 318
760 11 314 313 315
761 11 314 313 316
762 12 315 313 316
763 9 301 304 306
764 4 304 306 310
765 4 304 306 311
766 4 304 306 312
767 7 310 306 311
768 7 310 306 312
769 7 311 306 312
770 11 622 621 623
771 11 622 621 624
772 12 623 621 624
773 9 621 624 625
774 9 277 279 281
775 4 279 281 283
776 4 279 281 284
777 4 279 281 285
778 7 283 281 284
779 7 283 281 285
780 7 284 281 285
781 9 313 315 317
782 4 315 317 319
783 4 315 317 320
784 4 315 317 321
785 7 319 317 320
786 7 319 317 321
787 7 320 317 321
788 11 410 409 411
789 11 410 409 412
790 12 411 409 412
791 9 409 411 413
792 4 411 413 415
793 4 411 413 416
794 4 411 413 417
795 7 415 413 416
796 7 415 413 417
797 7 416 413 417
798 13 714 715 716
799 4 716 715 719
800 4 716 715 720
801 6 719 715 720
802 13 713 716 715
803 4 715 716 717
804 4 715 716 718
805 6 717 716 718
806 11 2 1 3
807 11 2 1 4
808 12 3 1 4
809 9 1 4 6
810 4 63 65 67
811 4 63 65 68
812 4 63 65 69
813 7 67 65 68
814 7 67 65 69
815 7 68 65 69
816 9 61 63 65
817 9 651 653 656
818 9 1 3 5
819 11 62 61 63
820 11 62 61 64
821 12 63 61 64
822 9 61 64 66
823 11 722 721 723
824 11 722 721 724
825 12 723 721 724
826 9 721 724 725
827 13 654 655 656
828 4 656 655 659
829 4 656 655 660
830 6 659 655 660
831 13 653 656 655
832 4 655 656 657
833 4 655 656 658
834 6 657 656 658
835 11 652 651 653
836 11 652 651 654
837 12 653 651 654
838 9 651 654 655
839 9 721 723 726
840 4 484 486 490
841 4 484 486 491
842 4 484 486 492
843 7 490 486 491
844 7 490 486 492
845 7 491 486 492
846 11 482 481 483
847 11 482 481 484
848 12 483 481 484
849 9 481 484 486
850 9 229 231 233
851 9 631 634 635
852 13 634 635 636
853 4 636 635 639
854 4 636 635 640
855 6 639 635 640
856 18 758 757 759
857 18 760 757 761
858 18 762 757 763
859 17 758 757 760
860 17 758 757 761
861 17 758 757 762
862 17 758 757 763
863 17 759 757 760
864 17 759 757 761
865 17 759 757 762
866 17 759 757 763
867 17 760 757 762
868 17 760 757 763
869 17 761 757 762
870 17 761 757 763
871 4 531 533 535
872 4 531 533 536
873 4 531 533 537
874 7 535 533 536
875 7 535 533 537
876 7 536 533 537
877 11 266 265 267
878 11 266 265 268
879 12 267 265 268
880 9 265 268 270
881 4 268 270 274
882 4 268 270 275
883 4 268 270 276
884 7 274 270 275
885 7 274 270 276
886 7 275 270 276
887 11 230 229 231
888 11 230 229 232
889 12 231 229 232
890 9 229 232 234
891 13 633 636 635
892 4 635 636 637
893 4 635 636 638
894 6 637 636 638
895 9 109 111 113
896 11 530 529 531
897 11 530 529 532
898 12 531 529 532
899 9 529 531 533
900 4 291 293 295
901 4 291 293 296
902 4 291 293 297
903 7 295 293 296
904 7 295 293 297
905 7 296 293 297
906 4 111 113 115
907 4 111 113 116
908 4 111 113 117
909 7 115 113 116
910 7 115 113 117
911 7 116 113 117
912 9 529 532 534
913 4 532 534 538
914 4 532 534 539
915 4 532 534 540
916 7 538 534 539
917 7 538 534 540
918 7 539 534 540
919 13 613 616 615
920 4 615 616 617
921 4 615 616 618
922 6 617 616 618
923 11 302 301 303
924 11 302 301 304
925 12 303 301 304
926 9 301 303 305
927 9 13 16 18
928 4 16 18 22
929 4 16 18 23
930 4 16 18 24
931 7 22 18 23
932 7 22 18 24
933 7 23 18 24
934 11 290 289 291
935 11 290 289 292
936 12 291 289 292
937 9 289 291 293
938 9 289 292 294
939 13 614 615 616
940 4 616 615 619
941 4 616 615 620
942 6 619 615 620
943 11 712 711 713
944 11 712 711 714
945 12 713 711 714
946 9 711 714 715
947 9 711 713 716
948 4 292 294 298
949 4 292 294 299
950 4 292 294 300
951 7 298 294 299
952 7 298 294 300
953 7 299 294 300
954 13 684 685 686
955 4 686 685 689
956 4 686 685 690
957 6 689 685 690
958 9 681 684 685
959 4 3 5 7
960 4 3 5 8
961 4 3 5 9
962 7 7 5 8
963 7 7 5 9
964 7 8 5 9
965 18 765 764 766
966 18 767 764 768
967 18 769 764 770
968 17 765 764 767
969 17 765 764 768
970 17 765 764 769
971 17 765 764 770
972 17 766 764 767
973 17 766 764 768
974 17 766 764 769
975 17 766 764 770
976 17 767 764 769
977 17 767 764 770
978 17 768 764 769
979 17 768 764 770
980 4 64 66 70
981 4 64 66 71
982 4 64 66 72
983 7 70 66 71
984 7 70 66 72
985 7 71 66 72
986 9 457 459 461
987 4 459 461 463
988 4 459 461 464
989 4 459 461 465
990 7 463 461 464
991 7 463 461 465
992 7 464 461 465
993 11 458 457 459
994 11 458 457 460
995 12 459 457 460
996 13 683 686 685
997 4 685 686 687
998 4 685 686 688
999 6 687 686 688
1000 11 682 681 683
1001 11 682 681 684
1002 12 683 681 684
1003 9 681 683 686
1004 4 100 102 106
1005 4 100 102 107
1006 4 100 102 108
1007 7 106 102 107
1008 7 106 102 108
1009 7 107 102 108
1010 4 460 462 466
1011 4 460 462 467
1012 4 460 462 468
1013 7 466 462 467
1014 7 466 462 468
1015 7 467 462 468
1016 9 457 460 462
1017 4 267 269 271
1018 4 267 269 272
1019 4 267 269 273
1020 7 271 269 272
1021 7 271 269 273
1022 7 272 269 273
1023 11 632 631 633
1024 11 632 631 634
1025 12 633 631 634
1026 9 109 112 114
1027 9 481 483 485
1028 4 483 485 487
1029 4 483 485 488
1030 4 483 485 489
1031 7 487 485 488
1032 7 487 485 489
1033 7 488 485 489
1034 9 265 267 269
1035 4 232 234 238
1036 4 232 234 239
1037 4 232 234 240
1038 7 238 234 239
1039 7 238 234 240
1040 7 239 234 240
1041 9 631 633 636
1042 11 110 109 111
1043 11 110 109 112
1044 12 111 109 112
1045 4 303 305 307
1046 4 303 305 308
1047 4 303 305 309
1048 7 307 305 308
1049 7 307 305 309
1050 7 308 305 309
1051 9 611 613 616
1052 11 612 611 613
1053 11 612 611 614
1054 12 613 611 614
1055 18 737 736 738
1056 18 739 736 740
1057 18 741 736 742
1058 17 737 736 739
1059 17 737 736 740
1060 17 737 736 741
1061 17 737 736 742
1062 17 738 736 739
1063 17 738 736 740
1064 17 738 736 741
1065 17 738 736 742
1066 17 739 736 741
1067 17 739 736 742
1068 17 740 736 741
1069 17 740 736 742
1070 9 611 614 615
1071 4 172 174 178
1072 4 172 174 179
1073 4 172 174 180
1074 7 178 174 179
1075 7 178 174 180
1076 7 179 174 180
1077 11 170 169 171
1078 11 170 169 172
1079 12 171 169 172
1080 9 169 172 174
1081 9 169 171 173
1082 4 171 173 175
1083 4 171 173 176
1084 4 171 173 177
1085 7 175 173 176
1086 7 175 173 177
1087 7 176 173 177

Dihedrals

1 6 37 40 42 46
2 6 37 40 42 47
3 6 37 40 42 48
4 8 38 37 39 41
5 8 38 37 40 42
6 6 397 399 401 403
7 6 397 399 401 404
8 6 397 399 401 405
9 6 397 400 402 406
10 6 397 400 402 407
11 6 397 400 402 408
12 8 398 397 399 401
13 8 398 397 400 402
14 8 98 97 99 101
15 8 98 97 100 102
16 7 571 574 575 576
17 6 97 100 102 106
18 6 97 100 102 107
19 6 97 100 102 108
20 6 97 99 101 103
21 6 97 99 101 104
22 6 97 99 101 105
23 6 181 184 186 190
24 6 181 184 186 191
25 6 181 184 186 192
26 8 182 181 183 185
27 8 182 181 184 186
28 6 181 183 185 187
29 6 181 183 185 188
30 6 181 183 185 189
31 6 133 136 138 142
32 6 133 136 138 143
33 6 133 136 138 144
34 8 350 349 351 353
35 8 350 349 352 354
36 6 349 352 354 358
37 6 349 352 354 359
38 6 349 352 354 360
39 8 134 133 135 137
40 8 134 133 136 138
41 6 133 135 137 139
42 6 133 135 137 140
43 6 133 135 137 141
44 6 349 351 353 355
45 6 349 351 353 356
46 6 349 351 353 357
47 6 37 39 41 43
48 6 37 39 41 44
49 6 37 39 41 45
50 8 470 469 471 473
51 8 470 469 472 474
52 6 469 472 474 478
53 6 469 472 474 479
54 6 469 472 474 480
55 6 469 471 473 475
56 6 469 471 473 476
57 6 469 471 473 477
58 8 582 581 583 586
59 8 582 581 584 585
60 5 581 583 586 585
61 7 583 586 585 584
62 8 146 145 147 149
63 8 146 145 148 150
64 6 145 147 149 151
65 6 145 147 149 152
66 6 145 147 149 153
67 8 702 701 703 706
68 8 702 701 704 705
69 7 701 704 705 706
70 7 581 584 585 586
71 8 326 325 327 329
72 8 326 325 328 330
73 6 145 148 150 154
74 6 145 148 150 155
75 6 145 148 150 156
76 6 325 327 329 331
77 6 325 327 329 332
78 6 325 327 329 333
79 8 572 571 573 576
80 8 572 571 574 575
81 5 661 663 666 665
82 7 663 666 665 664
83 7 661 664 665 666
84 7 573 576 575 574
85 5 571 573 576 575
86 6 205 208 210 214
87 6 205 208 210 215
88 6 205 208 210 216
89 8 662 661 663 666
90 8 662 661 664 665
91 8 206 205 207 209
92 8 206 205 208 210
93 6 205 207 209 211
94 6 205 207 209 212
95 6 205 207 209 213
96 8 506 505 507 509
97 8 506 505 508 510
98 6 505 508 510 514
99 6 505 508 510 515
100 6 505 508 510 516
101 6 505 507 509 511
102 6 505 507 509 512
103 6 505 507 509 513
104 8 518 517 519 521
105 8 518 517 520 522
106 6 517 519 521 523
107 6 517 519 521 524
108 6 517 519 521 525
109 8 74 73 75 77
110 8 74 73 76 78
111 6 73 76 78 82
112 6 73 76 78 83
113 6 73 76 78 84
114 7 703 706 705 704
115 5 701 703 706 705
116 6 73 75 77 79
117 6 73 75 77 80
118 6 73 75 77 81
119 6 325 328 330 334
120 6 325 328 330 335
121 6 325 328 330 336
122 6 421 424 426 430
123 6 421 424 426 431
124 6 421 424 426 432
125 8 422 421 423 425
126 8 422 421 424 426
127 6 253 255 257 259
128 6 253 255 257 260
129 6 253 255 257 261
130 6 85 87 89 91
131 6 85 87 89 92
132 6 85 87 89 93
133 6 421 423 425 427
134 6 421 423 425 428
135 6 421 423 425 429
136 8 254 253 255 257
137 8 254 253 256 258
138 8 672 671 673 676
139 8 672 671 674 675
140 5 671 673 676 675
141 7 671 674 675 676
142 6 121 124 126 130
143 6 121 124 126 131
144 6 121 124 126 132
145 8 122 121 123 125
146 8 122 121 124 126
147 6 121 123 125 127
148 6 121 123 125 128
149 6 121 123 125 129
150 6 217 220 222 226
151 6 217 220 222 227
152 6 217 220 222 228
153 8 218 217 219 221
154 8 218 217 220 222
155 8 434 433 435 437
156 8 434 433 436 438
157 6 433 435 437 439
158 6 433 435 437 440
159 6 433 435 437 441
160 6 433 436 438 442
161 6 433 436 438 443
162 6 433 436 438 444
163 6 517 520 522 526
164 6 517 520 522 527
165 6 517 520 522 528
166 7 591 594 595 596
167 6 385 388 390 394
168 6 385 388 390 395
169 6 385 388 390 396
170 8 386 385 387 389
171 8 386 385 388 390
172 6 385 387 389 391
173 6 385 387 389 392
174 6 385 387 389 393
175 8 592 591 593 596
176 8 592 591 594 595
177 8 86 85 87 89
178 8 86 85 88 90
179 6 85 88 90 94
180 6 85 88 90 95
181 6 85 88 90 96
182 6 373 376 378 382
183 6 373 376 378 383
184 6 373 376 378 384
185 6 253 256 258 262
186 6 253 256 258 263
187 6 253 256 258 264
188 8 552 551 553 556
189 8 552 551 554 555
190 7 551 554 555 556
191 7 553 556 555 554
192 7 673 676 675 674
193 6 25 27 29 31
194 6 25 27 29 32
195 6 25 27 29 33
196 8 26 25 27 29
197 8 26 25 28 30
198 8 362 361 363 365
199 8 362 361 364 366
200 6 361 364 366 370
201 6 361 364 366 371
202 6 361 364 366 372
203 6 25 28 30 34
204 6 25 28 30 35
205 6 25 28 30 36
206 6 337 339 341 343
207 6 337 339 341 344
208 6 337 339 341 345
209 8 338 337 339 341
210 8 338 337 340 342
211 6 337 340 342 346
212 6 337 340 342 347
213 6 337 340 342 348
214 6 217 219 221 223
215 6 217 219 221 224
216 6 217 219 221 225
217 6 493 495 497 499
218 6 493 495 497 500
219 6 493 495 497 501
220 8 562 561 563 566
221 8 562 561 564 565
222 5 561 563 566 565
223 7 563 566 565 564
224 7 593 596 595 594
225 5 591 593 596 595
226 6 493 496 498 502
227 6 493 496 498 503
228 6 493 496 498 504
229 8 50 49 51 53
230 8 50 49 52 54
231 6 49 51 53 55
232 6 49 51 53 56
233 6 49 51 53 57
234 6 49 52 54 58
235 6 49 52 54 59
236 6 49 52 54 60
237 8 692 691 693 696
238 8 692 691 694 695
239 7 561 564 565 566
240 8 542 541 543 546
241 8 542 541 544 545
242 7 691 694 695 696
243 6 157 160 162 166
244 6 157 160 162 167
245 6 157 160 162 168
246 8 158 157 159 161
247 8 158 157 160 162
248 8 242 241 243 245
249 8 242 241 244 246
250 6 241 244 246 250
251 6 241 244 246 251
252 6 241 244 246 252
253 6 373 375 377 379
254 6 373 375 377 380
255 6 373 375 377 381
256 6 157 159 161 163
257 6 157 159 161 164
258 6 157 159 161 165
259 6 241 243 245 247
260 6 241 243 245 248
261 6 241 243 245 249
262 8 374 373 375 377
263 8 374 373 376 378
264 8 194 193 195 197
265 8 194 193 196 198
266 6 193 195 197 199
267 6 193 195 197 200
268 6 193 195 197 201
269 6 193 196 198 202
270 6 193 196 198 203
271 6 193 196 198 204
272 5 551 553 556 555
273 6 361 363 365 367
274 6 361 363 365 368
275 6 361 363 365 369
276 8 446 445 447 449
277 8 446 445 448 450
278 6 445 447 449 451
279 6 445 447 449 452
280 6 445 447 449 453
281 6 445 448 450 454
282 6 445 448 450 455
283 6 445 448 450 456
284 5 621 623 626 625
285 7 623 626 625 624
286 7 643 646 645 644
287 8 642 641 643 646
288 8 642 641 644 645
289 5 641 643 646 645
290 6 409 412 414 418
291 6 409 412 414 419
292 6 409 412 414 420
293 7 641 644 645 646
294 8 494 493 495 497
295 8 494 493 496 498
296 5 691 693 696 695
297 8 602 601 603 606
298 8 602 601 604 605
299 5 541 543 546 545
300 7 543 546 545 544
301 7 693 696 695 694
302 7 601 604 605 606
303 7 603 606 605 604
304 5 601 603 606 605
305 7 723 726 725 724
306 7 541 544 545 546
307 8 14 13 15 17
308 8 14 13 16 18
309 6 13 15 17 19
310 6 13 15 17 20
311 6 13 15 17 21
312 6 277 280 282 286
313 6 277 280 282 287
314 6 277 280 282 288
315 8 278 277 279 281
316 8 278 277 280 282
317 6 313 316 318 322
318 6 313 316 318 323
319 6 313 316 318 324
320 8 314 313 315 317
321 8 314 313 316 318
322 6 301 304 306 310
323 6 301 304 306 311
324 6 301 304 306 312
325 8 622 621 623 626
326 8 622 621 624 625
327 7 621 624 625 626
328 6 277 279 281 283
329 6 277 279 281 284
330 6 277 279 281 285
331 6 313 315 317 319
332 6 313 315 317 320
333 6 313 315 317 321
334 8 410 409 411 413
335 8 410 409 412 414
336 6 409 411 413 415
337 6 409 411 413 416
338 6 409 411 413 417
339 7 713 716 715 714
340 8 2 1 3 5
341 8 2 1 4 6
342 6 1 4 6 10
343 6 1 4 6 11
344 6 1 4 6 12
345 6 61 63 65 67
346 6 61 63 65 68
347 6 61 63 65 69
348 5 651 653 656 655
349 6 1 3 5 7
350 6 1 3 5 8
351 6 1 3 5 9
352 8 62 61 63 65
353 8 62 61 64 66
354 6 61 64 66 70
355 6 61 64 66 71
356 6 61 64 66 72
357 8 722 721 723 726
358 8 722 721 724 725
359 7 721 724 725 726
360 7 653 656 655 654
361 8 652 651 653 656
362 8 652 651 654 655
363 7 651 654 655 656
364 5 721 723 726 725
365 8 482 481 483 485
366 8 482 481 484 486
367 6 481 484 486 490
368 6 481 484 486 491
369 6 481 484 486 492
370 6 229 231 233 235
371 6 229 231 233 236
372 6 229 231 233 237
373 7 631 634 635 636
374 8 266 265 267 269
375 8 266 265 268 270
376 6 265 268 270 274
377 6 265 268 270 275
378 6 265 268 270 276
379 8 230 229 231 233
380 8 230 229 232 234
381 6 229 232 234 238
382 6 229 232 234 239
383 6 229 232 234 240
384 7 633 636 635 634
385 6 109 111 113 115
386 6 109 111 113 116
387 6 109 111 113 117
388 8 530 529 531 533
389 8 530 529 532 534
390 6 529 531 533 535
391 6 529 531 533 536
392 6 529 531 533 537
393 6 529 532 534 538
394 6 529 532 534 539
395 6 529 532 534 540
396 7 613 616 615 614
397 8 302 301 303 305
398 8 302 301 304 306
399 6 301 303 305 307
400 6 301 303 305 308
401 6 301 303 305 309
402 6 13 16 18 22
403 6 13 16 18 23
404 6 13 16 18 24
405 8 290 289 291 293
406 8 290 289 292 294
407 6 289 291 293 295
408 6 289 291 293 296
409 6 289 291 293 297
410 6 289 292 294 298
411 6 289 292 294 299
412 6 289 292 294 300
413 8 712 711 713 716
414 8 712 711 714 715
415 7 711 714 715 716
416 5 711 713 716 715
417 7 681 684 685 686
418 6 457 459 461 463
419 6 457 459 461 464
420 6 457 459 461 465
421 8 458 457 459 461
422 8 458 457 460 462
423 7 683 686 685 684
424 8 682 681 683 686
425 8 682 681 684 685
426 5 681 683 686 685
427 6 457 460 462 466
428 6 457 460 462 467
429 6 457 460 462 468
430 8 632 631 633 636
431 8 632 631 634 635
432 6 109 112 114 118
433 6 109 112 114 119
434 6 109 112 114 120
435 6 481 483 485 487
436 6 481 483 485 488
437 6 481 483 485 489
438 6 265 267 269 271
439 6 265 267 269 272
440 6 265 267 269 273
441 5 631 633 636 635
442 8 110 109 111 113
443 8 110 109 112 114
444 5 611 613 616 615
445 8 612 611 613 616
446 8 612 611 614 615
447 7 611 614 615 616
448 8 170 169 171 173
449 8 170 169 172 174
450 6 169 172 174 178
451 6 169 172 174 179
452 6 169 172 174 180
453 6 169 171 173 175
454 6 169 171 173 176
455 6 169 171 173 177
