LAMMPS data file via write_data, version 23 Jun 2022, timestep = 2601

770 atoms
31 atom types
715 bonds
17 bond types
1087 angles
18 angle types
455 dihedrals
9 dihedral types
0 impropers
2 improper types

0 20 xlo xhi
0 20 ylo yhi
0 20 zlo zhi

Masses

1 12.011
2 12.011
3 12.011
4 12.011
5 12.011
6 12.011
7 12.011
8 12.011
9 12.011
10 12.011
11 1.008
12 1.008
13 1.008
14 1.008
15 1.008
16 1.008
17 1.008
18 15.999
19 15.999
20 15.999
21 15.999
22 14.007
23 14.007
24 14.007
25 14.007
26 18.998
27 30.974
28 6.941
29 32.065
30 32.065
31 6.941

Atoms # full

46 4 11 0.06 1.2121145995126337 1.191060100162816 2.4210350548079194 0 0 0
40 4 19 -0.35 2.981487084668895 0.21760265518442654 2.7073758417359612 0 0 0
42 4 1 0.22 1.8752625516240453 0.9738499759120123 2.6836693480650813 0 0 0
48 4 11 0.06 1.2475283499843346 1.1161108578315821 2.2948293173484053 0 0 0
47 4 11 0.06 1.2743995282346645 1.2067854465415593 2.307931763853362 0 0 0
37 4 9 0.52 4.349996819746699 0.12314682758160476 3.1807128363375705 0 0 0
39 4 19 -0.35 5.734572065253944 0.07109369105919258 2.6264825220438506 0 0 0
689 60 11 0.06 4.3214488906883535 2.65168173204908 0.46018762529338153 0 0 1
690 60 11 0.06 4.293240020026507 2.606397663914093 0.42737834699857996 0 0 1
684 60 19 -0.35 4.344044141077653 3.0212216984076607 0.45757307754567406 0 0 1
405 34 11 0.06 7.913047552995046 3.2767373545748892 2.1936924235451856 0 0 0
403 34 11 0.06 7.949628880447976 3.24114081358652 2.0816081711927166 0 0 0
404 34 11 0.06 7.806381542522932 3.234242728993736 2.212376983511526 0 0 0
478 40 11 0.06 13.11374518930918 0.6750519826317963 3.0945833916320336 0 0 0
480 40 11 0.06 12.983851796116848 0.7744752085469644 3.1145793160272 0 0 0
479 40 11 0.06 13.051631001385347 0.7292314410293763 3.0773260329021417 0 0 0
768 74 26 -0.39 10.624347978516468 1.348196913889989 0.41880062822714204 0 0 1
766 74 26 -0.39 10.936273318216234 2.1773862394396133 0.3989368866699426 0 0 1
770 74 26 -0.39 10.60969307258281 1.2532059328840441 0.21100866679634897 0 0 1
149 13 1 0.22 14.98084760759686 2.750083769912833 0.5401039524909801 0 0 0
471 40 19 -0.35 16.840420176703464 0.4406527545117205 2.7594012161412476 0 0 0
473 40 1 0.22 16.912439915010413 19.945238479372957 2.1437759370567204 0 -1 0
464 39 11 0.06 0.8445552912866743 4.570331356208585 0.6143172865431233 0 0 1
465 39 11 0.06 0.8432879438757278 4.5864230391301 0.47797290670182907 0 0 1
461 39 1 0.22 0.8198116427329529 5.437110619166535 0.6316678149866835 0 0 1
463 39 11 0.06 0.8598658756087606 4.574055051199684 0.5454527699849016 0 0 1
397 34 9 0.52 6.641729374631769 6.451539152793699 1.8880490696237968 0 0 0
682 60 20 -0.5 4.258367914108088 6.079230375320534 0.8953295765440202 0 0 1
681 60 9 0.52 4.525745436974376 4.924074210172371 0.12049332597307368 0 0 1
399 34 19 -0.35 7.427015687618542 4.652750441619625 2.112277331998561 0 0 0
401 34 1 0.22 7.763705955607236 3.647949489537853 1.7617999648491192 0 0 0
398 34 20 -0.5 7.123792993528798 6.458725099631808 2.2118650732626466 0 0 0
155 13 11 0.06 10.870946877567787 5.962313055765734 1.419599396312675 0 0 0
150 13 1 0.22 11.308776877746066 5.531262728984848 1.5868030193281843 0 0 0
148 13 19 -0.35 12.791361366713408 5.333648325372987 1.9718114400484972 0 0 0
156 13 11 0.06 10.782679964894548 5.931796637315821 1.6511412189569448 0 0 0
154 13 11 0.06 10.840512945655725 5.972588683028947 1.542834820767482 0 0 0
146 13 20 -0.5 14.312116592695412 4.70681764216518 2.67107241161747 0 0 0
145 13 9 0.52 13.784981261679421 4.627208522111723 2.1483424178803845 0 0 0
147 13 19 -0.35 14.199797686962105 3.8536449784970617 1.4073309697870804 0 0 0
702 62 20 -0.5 18.3389382912713 3.3508287608759844 2.8620098157537037 0 0 0
103 9 11 0.06 17.13149068307854 5.775173682069348 0.48723171533783177 0 0 0
104 9 11 0.06 17.2484617438642 5.721445885135094 0.34853260875760556 0 0 0
105 9 11 0.06 17.21565927938974 5.921542061421278 0.44188852786111604 0 0 0
101 9 1 0.22 16.89943068883867 5.9745601227295015 0.07023000009934209 0 0 0
457 39 9 0.52 1.4471279781168398 7.415424671930778 19.91506603920947 0 0 0
670 58 11 0.06 1.611093375478348 8.479702926043833 3.050785599777025 0 0 0
669 58 11 0.06 1.5647711782858278 8.473128291512191 3.0909961541646873 0 0 0
400 34 19 -0.35 5.56740148891992 8.272834953313744 1.9909864368940824 0 0 0
402 34 1 0.22 5.013873767721963 9.022528223592943 2.2012248413859643 0 0 0
406 34 11 0.06 5.1580194443298355 9.560837729527396 2.352183342434002 0 0 0
408 34 11 0.06 5.216919288426196 9.516129350705533 2.4322953644151566 0 0 0
407 34 11 0.06 5.265284756278075 9.523138855093778 2.3664154045373946 0 0 0
272 23 11 0.06 8.949422003434423 9.410866591423567 1.3719132201221016 0 0 1
269 23 1 0.22 8.761558000522774 9.556972510459874 0.6937258263871636 0 0 1
271 23 11 0.06 9.021053725176051 9.372927688311968 1.3396530631115247 0 0 1
273 23 11 0.06 8.997752333804126 9.285583878923003 1.294487493956133 0 0 1
571 49 9 0.52 12.794573253517063 9.942530578012658 1.4291015057999759 0 0 0
572 49 20 -0.5 12.704830536378692 8.680497229143661 0.8891833473943747 0 0 0
261 22 11 0.06 15.38286245988351 8.085959871362665 3.0862505751401943 0 0 0
259 22 11 0.06 15.316152860409217 8.104136756791341 3.0926097142608713 0 0 0
260 22 11 0.06 15.35241815636509 8.128462551091234 3.0543869027648274 0 0 0
120 10 11 0.06 18.371174692161556 9.452632985778662 1.1219118904406884 0 0 1
118 10 11 0.06 18.3098235230246 9.396752904260767 1.0890072969195153 0 0 1
119 10 11 0.06 18.374006445593242 9.40601900164928 1.0760629243575481 0 0 1
664 58 19 -0.35 1.9013755073927543 11.213501200648897 3.1929752141254384 0 0 0
662 58 20 -0.5 1.8313375318803469 12.301897890322929 2.8346850263585948 0 0 0
661 58 9 0.52 2.1434903835857786 11.79772905561817 3.39524521685174 0 0 0
192 16 11 0.06 5.319804338127321 13.4023129316768 2.255410407011888 0 0 0
142 12 11 0.06 8.790993321317456 13.019294380050011 0.12826222061810688 0 0 0
143 12 11 0.06 8.750884037217556 13.055348471464155 0.08791292981962237 0 0 0
144 12 11 0.06 8.846125273180721 13.02333618409645 0.05028200212217662 0 0 0
574 49 19 -0.35 11.893913636601686 11.409596057094761 2.094279061351977 0 0 0
579 49 11 0.06 11.746075414289374 11.682593687078521 2.225817225870329 0 0 0
575 49 2 0.22 12.835667640432936 11.272904460055518 2.170272460914738 0 0 0
580 49 11 0.06 11.737678287605988 11.658903132578452 2.203697997583925 0 0 0
578 49 11 0.06 14.844876913866417 11.523460168393159 1.1000202661419476 0 0 0
576 49 2 0.22 13.75792344539769 11.250707495082983 1.4548440285825042 0 0 0
573 49 19 -0.35 14.546244016832373 11.299531850472405 1.1641430752180546 0 0 0
577 49 11 0.06 14.871091306970264 11.501421531063478 1.143535592560009 0 0 0
114 10 1 0.22 18.043470976884215 9.977087706036343 0.712637795398917 0 0 1
112 10 19 -0.35 18.33594703872744 11.039088156250122 0.22620528282952493 0 0 1
350 30 20 -0.5 0.15948812164771806 13.789798862602089 1.5956283713487185 1 0 0
351 30 19 -0.35 0.3461213491222033 16.07277295092903 1.7044911351914436 1 0 0
190 16 11 0.06 5.4136518203633415 13.491445994520324 2.1788240014435334 0 0 0
191 16 11 0.06 5.3816877424232645 13.44265459125881 2.2118285570293725 0 0 0
186 16 1 0.22 5.177176601763972 13.929399844057002 2.9292409743353622 0 0 0
183 16 19 -0.35 4.152886589724254 16.74012150627838 1.962066051154634 0 0 0
138 12 1 0.22 9.150859753969097 13.633682817167493 0.30700932279140986 0 0 0
134 12 20 -0.5 7.850845193188818 16.04016931564401 0.9680614395422104 0 0 0
136 12 19 -0.35 8.735608395254884 14.659578205530748 0.5926782292226728 0 0 0
133 12 9 0.52 8.71454903545692 15.810172254967348 0.963831988106693 0 0 0
740 70 26 -0.39 12.80853048215069 14.835777627098324 0.6257916354610298 0 0 1
738 70 26 -0.39 12.869175399033589 15.102111159571203 0.5354319214611178 0 0 1
737 70 26 -0.39 12.924015453257068 14.77828084811029 0.3455575037951395 0 0 1
742 70 26 -0.39 12.486871692350634 14.985246245127852 0.25319548447954315 0 0 1
736 70 27 1.34 12.88345524510281 14.958704726835766 0.445529065406661 0 0 1
741 70 26 -0.39 13.168596496612853 14.93690124249562 0.5583350589685118 0 0 1
739 70 26 -0.39 12.982294566957165 15.087645862338714 0.2797352532083408 0 0 1
358 30 11 0.06 16.726919546471045 14.573635273534125 1.1439383845586364 0 0 0
360 30 11 0.06 16.723780973516913 14.566963302090123 1.2643987994791093 0 0 0
359 30 11 0.06 16.689410131929137 14.690070126196899 1.1199882580424387 0 0 0
354 30 1 0.22 17.176476041353048 14.946420610877455 1.2551867480399745 0 0 0
352 30 19 -0.35 17.940916099909934 14.526612860251536 1.3192191617767681 0 0 0
349 30 9 0.52 19.55205889107665 14.650179750213269 1.4935112761204576 0 0 0
353 30 1 0.22 0.19058216112921594 16.96376234155442 1.6000972446685862 1 0 0
357 30 11 0.06 0.42105892720956145 17.417097493411895 2.0069073673821514 1 0 0
355 30 11 0.06 0.5203184961079447 17.32650495468766 2.0593689279538565 1 0 0
356 30 11 0.06 0.5668811324468963 17.368340197810383 1.9691439568189941 1 0 0
185 16 1 0.22 4.01559089083317 16.951490221621338 0.9645826564023356 0 0 0
189 16 11 0.06 4.358438610166773 17.059298088666544 0.6319782379926147 0 0 0
188 16 11 0.06 4.459630692550566 16.944530313374933 0.6536198107794599 0 0 0
187 16 11 0.06 4.518906464076302 16.98866736280475 0.7425253259818472 0 0 0
41 4 1 0.22 6.556642996666859 19.867877241998798 1.584146566788226 0 -1 0
135 12 19 -0.35 9.690022275689573 16.784902309718163 1.3271696862581697 0 0 0
43 4 11 0.06 7.224036953993485 19.602152158537468 1.370294390212246 0 -1 0
44 4 11 0.06 7.257715104306945 19.675932990983906 1.3932109083210635 0 -1 0
45 4 11 0.06 7.270714376606444 19.654785994376436 1.4730035484544357 0 -1 0
139 12 11 0.06 10.874121459012208 17.864732045196096 2.092276686751347 0 0 0
137 12 1 0.22 10.352607894901645 17.50123516511044 2.051340336374508 0 0 0
141 12 11 0.06 10.801913926732626 17.918651798807907 1.9980368808860058 0 0 0
140 12 11 0.06 10.747542986633245 17.921887677557006 1.8964691671720384 0 0 0
515 43 11 0.06 14.69289770604574 17.222187043139304 3.1421027344677253 0 0 0
516 43 11 0.06 14.623174212095616 17.221047463047075 3.2095576865507476 0 0 0
514 43 11 0.06 14.646181686240865 17.280953905018468 3.173764360728054 0 0 0
477 40 11 0.06 17.537824557930943 19.707759317626863 2.214627214894494 0 -1 0
475 40 11 0.06 17.56131765388381 19.814908493078853 2.276248565286606 0 -1 0
476 40 11 0.06 17.53996091846368 19.72004657551484 2.314354717867061 0 -1 0
84 7 11 0.06 2.6611422419403206 1.7237085361313773 6.27338278070283 0 0 0
83 7 11 0.06 2.6674126709121904 1.7713729627875139 6.335298449254544 0 0 0
78 7 1 0.22 2.0957122141076954 2.093923874343132 6.200734887805871 0 0 0
82 7 11 0.06 2.6877223412182825 1.7578187588985354 6.215492006993619 0 0 0
519 44 19 -0.35 6.297972819425224 0.09311455393752503 6.467072755613734 0 0 0
521 44 1 0.22 6.4186845713841505 1.2013680122083246 6.4254563802039195 0 0 0
524 44 11 0.06 6.645054555010502 1.7056381331161388 5.972097789253283 0 0 0
523 44 11 0.06 6.608310021763032 1.6769472146072841 5.909416531671713 0 0 0
525 44 11 0.06 6.6504593852903335 1.584136498382809 5.843184246625338 0 0 0
218 19 20 -0.5 9.45340612426056 0.31901963509463943 4.190524247711711 0 1 0
474 40 1 0.22 13.36049219693386 1.0701833290884393 3.4691891591395563 0 0 0
472 40 19 -0.35 14.151366658161479 0.9391931662212892 3.6873097333041063 0 0 0
469 40 9 0.52 15.547788511775723 1.4408124551192367 3.807504628918099 0 0 0
470 40 20 -0.5 15.815992172622245 2.3302669364314608 4.2858267524220315 0 0 0
433 37 9 0.52 18.93359374378622 0.0818777837838912 5.756716780324411 0 1 0
434 37 20 -0.5 18.99941458446307 0.8392653397601325 5.431228013649226 0 1 0
582 50 20 -0.5 1.8354168492784326 4.781846936834291 3.8626781754330968 0 0 0
581 50 9 0.52 2.611883636060668 5.109504374160308 3.9396538575275692 0 0 0
583 50 19 -0.35 3.2110846204942565 4.440723633933683 3.693236010855314 0 0 0
584 50 19 -0.35 3.707698442388646 6.273244252347028 4.597514850676254 0 0 0
588 50 11 0.06 4.6802337494541675 3.868733137695445 3.982434953680886 0 0 0
586 50 2 0.22 4.286865522376003 4.777270864193992 4.3155671245586085 0 0 0
585 50 2 0.22 4.483310910005693 6.278887833599424 4.787105701292172 0 0 0
587 50 11 0.06 4.746884819475589 3.902232906287683 4.044218117878031 0 0 0
326 28 20 -0.5 7.772678314141241 5.028723733149783 5.955731272660622 0 0 0
328 28 19 -0.35 9.434808638506578 4.75882368033556 5.2221750950887325 0 0 0
325 28 9 0.52 8.196378887534536 5.277059951011326 5.525882193232912 0 0 0
330 28 1 0.22 10.311010065556752 3.917923317633615 5.093668144106021 0 0 0
335 28 11 0.06 10.810621626687624 3.5063017651417154 4.604080406305749 0 0 0
336 28 11 0.06 10.878258041728195 3.5664078766147522 4.646449345720932 0 0 0
426 36 1 0.22 12.977943618753946 6.329105226205407 5.709534199143644 0 0 0
334 28 11 0.06 10.830826921694214 3.561077882053271 4.577990727041881 0 0 0
431 36 11 0.06 13.616938219679891 5.871481530723224 5.794176844666888 0 0 0
430 36 11 0.06 13.605223585635898 5.903176067588598 5.884027063047287 0 0 0
432 36 11 0.06 13.641363685373872 5.911966444148151 5.8277792338537395 0 0 0
701 62 9 0.52 18.623832949580645 3.633764083876342 3.4987888374790588 0 0 0
704 62 19 -0.35 18.754130220954575 4.590014661223727 3.6377574183663537 0 0 0
705 62 2 0.22 18.526989421893134 6.0532074414600485 4.176687983074849 0 0 0
707 62 11 0.06 17.28457012036196 5.854557503395947 5.449064108943835 0 0 0
706 62 2 0.22 17.80741468239343 5.655823750797849 4.643394115057542 0 0 0
703 62 19 -0.35 17.946220125334825 4.2910750840810445 3.8727108574292277 0 0 0
708 62 11 0.06 17.356600499475803 5.942489672855185 5.485430900251955 0 0 0
668 58 11 0.06 1.2772652461906475 9.327303754745142 5.074399610054023 0 0 0
666 58 2 0.22 1.6768771381174938 9.645822119478947 4.293576200036122 0 0 0
665 58 2 0.22 1.4795385915462462 9.49512031700793 3.5153038355701027 0 0 0
667 58 11 0.06 1.2574887849214202 9.406397931614595 5.11510596245255 0 0 0
590 50 11 0.06 4.512718865321956 7.0953788882945235 5.334664844753433 0 0 0
589 50 11 0.06 4.473010699404581 7.099869514505642 5.338986821850021 0 0 0
333 28 11 0.06 7.936774769992247 8.752395701595004 4.998984498638043 0 0 0
331 28 11 0.06 7.996675709821272 8.748328982163327 5.024870068935579 0 0 0
329 28 1 0.22 8.01880793695027 8.029225925860695 4.812042861553254 0 0 0
332 28 11 0.06 8.043163055244612 8.75522763253817 4.978967274877222 0 0 0
327 28 19 -0.35 8.371536632283057 6.608495238435401 5.114293937244592 0 0 0
422 36 20 -0.5 11.525905948062103 8.267545444963082 4.053455299768424 0 0 0
421 36 9 0.52 11.76287465701955 8.261960779169302 4.700823770888436 0 0 0
423 36 19 -0.35 11.621019066155073 9.59693836208953 5.230404108993069 0 0 0
424 36 19 -0.35 12.207576510121712 7.17968522310379 5.0704299679671845 0 0 0
255 22 19 -0.35 15.273119284854609 9.149669722753268 4.594738174298256 0 0 0
257 22 1 0.22 15.570996860656267 8.670753063448021 3.685287094366715 0 0 0
253 22 9 0.52 15.189465404570885 9.53337475616263 5.962934069334842 0 0 0
709 62 11 0.06 18.885457505822124 6.807029163063937 3.765864482505104 0 0 0
710 62 11 0.06 18.828688845750424 6.856057999254317 3.832916031674165 0 0 0
663 58 19 -0.35 1.856820045645425 11.338177209078195 4.00953118697871 0 0 0
672 59 20 -0.5 5.163406691610137 11.361638892216483 5.3037098710732895 0 0 0
671 59 9 0.52 5.225590013344888 10.981078666699895 5.683618731464061 0 0 0
673 59 19 -0.35 4.809374630865226 10.52685136839623 6.141167998091563 0 0 0
674 59 19 -0.35 4.740644401042885 10.92998644384954 5.99803375322059 0 0 0
756 72 26 -0.39 8.518566955889838 12.510534692740555 4.310004378730884 0 0 0
754 72 26 -0.39 8.504824828393973 12.235019583148011 3.9188612288683786 0 0 0
750 72 27 1.34 8.388361206619013 12.981877681125335 4.088417079959994 0 0 0
751 72 26 -0.39 8.698011522147313 12.405125004634552 3.8734812066457494 0 0 0
752 72 26 -0.39 8.580048896182904 13.175887332396337 4.532207663982166 0 0 0
427 36 11 0.06 11.676758035088763 11.26063293464935 6.040168847958642 0 0 0
428 36 11 0.06 11.622087186385366 11.237048677488914 6.188017149575357 0 0 0
425 36 1 0.22 11.355669921503992 10.56610984009391 5.949940772280844 0 0 0
429 36 11 0.06 11.647576086187712 11.259629145474072 6.1086148973063334 0 0 0
205 18 9 0.52 14.815990818719444 12.944307927520928 4.6506252165919895 0 0 0
254 22 20 -0.5 15.282026060831653 10.24961869425405 6.174514953444989 0 0 0
208 18 19 -0.35 16.06878769058134 12.813148899186986 4.288235349179149 0 0 0
214 18 11 0.06 18.22015185505967 11.584973177267019 4.108912994325107 0 0 0
210 18 1 0.22 17.533178537023282 11.986301633181895 3.869471807782454 0 0 0
216 18 11 0.06 18.168730051520377 11.457677877193097 4.188972656560406 0 0 0
215 18 11 0.06 18.19726772592867 11.5140703670366 4.165554626553416 0 0 0
512 43 11 0.06 0.29639865329582665 14.565631217574586 5.385067829730354 1 0 0
511 43 11 0.06 0.3676356703760851 14.552005780947573 5.270360570299642 1 0 0
513 43 11 0.06 0.355999818707998 14.608013061924161 5.358682469554732 1 0 0
184 16 19 -0.35 4.20480568444139 14.592657610927807 3.52258570425682 0 0 0
181 16 9 0.52 3.6396982088387757 15.717815198717286 3.551375910708595 0 0 0
182 16 20 -0.5 3.5464937443316407 15.980983054948 4.235168050872508 0 0 0
753 72 26 -0.39 8.742024114912201 13.30332272906226 4.33535091157167 0 0 0
755 72 26 -0.39 8.757575833608573 13.342438497432699 3.9948371735239903 0 0 0
211 18 11 0.06 11.92670838348092 14.89775031730385 4.259078781537871 0 0 0
213 18 11 0.06 11.97736485619016 14.938057458976907 4.280122114499582 0 0 0
209 18 1 0.22 12.51120844603182 14.409378348709906 4.478763308863147 0 0 0
212 18 11 0.06 11.90751016584444 14.854599540735485 4.208253782689769 0 0 0
207 18 19 -0.35 13.982116705519681 13.707648783583338 4.239041223607732 0 0 0
206 18 20 -0.5 15.1903556500688 13.421481376963529 4.320201837622865 0 0 0
505 43 9 0.52 17.629308441528025 16.340448588001898 4.548525816554055 0 0 0
509 43 1 0.22 19.754296347729646 14.871474805551124 4.975582692068296 0 0 0
507 43 19 -0.35 18.464529687058707 15.484831901130345 4.851303726283901 0 0 0
444 37 11 0.06 1.5348057855571828 18.21592126590936 5.719305809674528 1 0 0
442 37 11 0.06 1.5413137235636631 18.248927113043713 5.627843712897891 1 0 0
443 37 11 0.06 1.4943325030593397 18.23479939825069 5.5424838954043585 1 0 0
438 37 1 0.22 0.8642967044991854 18.448249226709954 5.7440188558071075 1 0 0
38 4 20 -0.5 4.343257544410306 19.557271895422286 3.6471504686930927 0 -1 0
518 44 20 -0.5 4.990056252531904 18.261482511016354 6.698663941055747 0 -1 0
123 11 19 -0.35 8.46832447223439 16.95367213693915 5.560291212018227 0 0 0
129 11 11 0.06 7.270355603364786 16.99086298433435 4.230723869967839 0 0 0
125 11 1 0.22 7.908444031271644 17.16663496621367 4.5815003603810185 0 0 0
128 11 11 0.06 7.31426237299042 16.93468717556807 4.192981955333211 0 0 0
127 11 11 0.06 7.241334872655046 17.071013749910716 4.260852328101995 0 0 0
226 19 11 0.06 12.171429448072272 18.30062047978832 5.897936922078548 0 0 0
220 19 19 -0.35 11.513446600756962 18.61637701469865 5.64186429261363 0 0 0
222 19 1 0.22 12.160820688910837 18.674654518357954 6.2084125005343775 0 0 0
227 19 11 0.06 12.332782325405471 18.365509539774646 6.0287726529577474 0 0 0
228 19 11 0.06 12.106672530608824 18.239785674564637 5.996619021099352 0 0 0
217 19 9 0.52 9.959048225925384 19.991122996512846 5.147074186153975 0 0 0
510 43 1 0.22 15.112434851750354 17.195818475461472 3.70785331735964 0 0 0
508 43 19 -0.35 16.55450272860163 16.79063583578757 4.067975721035086 0 0 0
436 37 19 -0.35 19.897198848810532 19.264338819643722 5.374709841800144 0 0 0
506 43 20 -0.5 17.795354844167186 16.80899486507206 4.550373284907734 0 0 0
435 37 19 -0.35 17.581542113098976 19.826269840204905 6.267033819019782 0 0 0
76 7 19 -0.35 1.53844031144551 2.724011730670944 6.8294577196271655 0 0 0
568 48 11 0.06 0.39091027903428355 0.26973599645468527 9.059244522170061 1 0 0
567 48 11 0.06 0.35318941005468324 0.24065943841810872 9.028676728745323 1 0 0
527 44 11 0.06 4.033739579107064 0.30827283892066765 9.596354652223775 0 0 0
522 44 1 0.22 4.265940632178575 0.340232517527468 9.079691309884435 0 0 0
526 44 11 0.06 4.172433092524614 0.36205170076756554 9.633815893208578 0 0 0
528 44 11 0.06 4.131978258909653 0.2606942011391815 9.624429806162928 0 0 0
221 19 1 0.22 9.856793550810941 1.3229647560416142 7.489199834542941 0 1 0
49 5 9 0.52 7.04465467359077 3.3332643829501074 9.551268910104662 0 0 0
224 19 11 0.06 9.995417296190997 1.4126932758247572 7.833057424516214 0 1 0
223 19 11 0.06 10.103531780701806 1.2597208180015984 7.819854296545002 0 1 0
225 19 11 0.06 10.082505809841445 1.109537351557549 7.794487229676903 0 1 0
219 19 19 -0.35 9.989033780525396 0.7572778830032892 7.21621196332102 0 1 0
395 33 11 0.06 13.504684185420833 2.3022458441371283 7.059682843224115 0 0 0
394 33 11 0.06 13.493704143322466 2.1891522325510695 7.100680707140074 0 0 0
390 33 1 0.22 13.79895166290294 2.4229094742853166 7.607132861274479 0 0 0
396 33 11 0.06 13.557983834921453 2.231126159042451 7.039105260585608 0 0 0
388 33 19 -0.35 14.41122074951413 2.675445723178872 7.354553097468229 0 0 0
385 33 9 0.52 15.975120662295982 3.312648963439878 7.60007378322295 0 0 0
566 48 2 0.22 19.719189049682736 0.6353416496276469 9.624021724956922 0 0 0
562 48 20 -0.5 16.777364063262247 1.669363260522501 9.964959131856185 0 0 0
386 33 20 -0.5 16.958812590283994 3.08416687943414 7.080327369783738 0 0 0
563 48 19 -0.35 18.73770609342969 1.1134343430419797 9.396639583007442 0 0 0
73 7 9 0.52 0.3749550606989 3.740290317579255 6.946278367080449 0 0 0
79 7 11 0.06 1.4830882839440032 6.512278374867239 7.552934041384433 0 0 0
77 7 1 0.22 0.9030066051888338 6.163074726245145 7.144785800378223 0 0 0
75 7 19 -0.35 0.9058919278537639 5.184716506693377 7.077864564349788 0 0 0
80 7 11 0.06 1.5181657106841158 6.50684956050329 7.4914888480204604 0 0 0
81 7 11 0.06 1.4948913705568552 6.57355976185729 7.439630625363106 0 0 0
54 5 1 0.22 5.071150481068014 3.98665245803065 8.404717175653628 0 0 0
60 5 11 0.06 4.646598154928623 4.36371857980981 7.994394730231331 0 0 0
58 5 11 0.06 4.6407821033061625 4.414626170212355 8.060173349817488 0 0 0
59 5 11 0.06 4.708900009099135 4.4113669832819715 7.981562842096325 0 0 0
52 5 19 -0.35 5.813551855672826 3.9664498041484935 9.10654769786487 0 0 0
50 5 20 -0.5 7.8129160788012655 3.630513080530188 9.321077339292838 0 0 0
96 8 11 0.06 11.252986567426927 4.7311416647379705 8.933424448586026 0 0 0
90 8 1 0.22 10.669118481071713 5.028183776859628 8.648166804764868 0 0 0
94 8 11 0.06 11.314358730621784 4.786941604294988 8.847567004056511 0 0 0
88 8 19 -0.35 10.627546897811829 6.0327821534557 8.41968034517648 0 0 0
95 8 11 0.06 11.349338378998448 4.901368948847535 8.841811114590252 0 0 0
387 33 19 -0.35 16.130966822090183 4.738946065783938 8.602658471901663 0 0 0
389 33 1 0.22 15.612876110777863 5.310353645607702 8.950307133518837 0 0 0
393 33 11 0.06 16.019623815751288 5.741804646010732 9.210869645841287 0 0 0
391 33 11 0.06 15.930837471150632 5.840056408146126 9.112903177199831 0 0 0
392 33 11 0.06 16.0065708204397 5.824766560660314 8.99682163592696 0 0 0
74 7 20 -0.5 19.536352847725652 3.477353273713006 7.16226257560376 -1 0 0
677 59 11 0.06 3.3556048946546344 9.936804256967966 8.367056114584532 0 0 0
679 59 11 0.06 3.317962916213464 9.9247744581204 8.342928218847437 0 0 0
680 59 11 0.06 3.345990887896835 9.964727365623936 8.391189649266845 0 0 0
678 59 11 0.06 3.308097835750148 9.904684895532538 8.330415792497318 0 0 0
92 8 11 0.06 6.575420213419117 7.631913049490854 8.418519323990196 0 0 0
91 8 11 0.06 6.611782702377283 7.700342896668757 8.47909902573276 0 0 0
93 8 11 0.06 6.573401935706162 7.634057347180331 8.492705920325415 0 0 0
89 8 1 0.22 7.2280139465711954 7.360944485286389 8.543522994836254 0 0 0
87 8 19 -0.35 8.333620408840837 7.637562718485978 8.630229323156666 0 0 0
85 8 9 0.52 9.828905279904063 7.4318997732959975 8.085973601946352 0 0 0
86 8 20 -0.5 10.0970107582705 8.236900324842146 7.9986990030150755 0 0 0
262 22 11 0.06 13.627475053770958 8.540633147300051 8.685067401517014 0 0 0
264 22 11 0.06 13.448823669677997 8.615960976459013 8.582376662819565 0 0 0
258 22 1 0.22 13.869046884603947 8.93465273387551 8.256585832658137 0 0 0
263 22 11 0.06 13.530678757891739 8.569389887296726 8.643515390077635 0 0 0
256 22 19 -0.35 14.659576483989706 9.142980557481305 7.2646971206599735 0 0 0
554 47 19 -0.35 17.517752671051365 9.268710533095204 8.978754548825183 0 0 0
555 47 2 0.22 18.359494420312483 8.62936682885949 8.206583626349655 0 0 0
556 47 2 0.22 19.223370133553363 8.717346672362211 9.62373410332264 0 0 0
559 47 11 0.06 18.364329676829627 8.778612862765637 7.08751666585122 0 0 0
560 47 11 0.06 18.320908202966198 8.710133879682191 7.114189387277655 0 0 0
551 47 9 0.52 17.26417808140133 9.49251125285823 9.881620197464834 0 0 0
26 3 20 -0.5 0.4270635538170096 11.582987298004312 7.390858827408589 1 0 0
25 3 9 0.52 0.03468218915729324 12.00496797037919 8.028188640847386 1 0 0
28 3 19 -0.35 0.5307145827502537 12.519103436146034 9.335472784846132 1 0 0
676 59 2 0.22 3.847741069980847 9.99277168052683 7.536788814009986 0 0 0
675 59 2 0.22 3.9719331599034744 10.314297841939094 7.666522632079407 0 0 0
376 32 19 -0.35 7.188056517547131 11.304935425745704 9.047151748910231 0 0 0
382 32 11 0.06 8.19599721476006 11.520847228543227 7.7836751972595835 0 0 0
378 32 1 0.22 7.8255373533445525 11.2305746453335 8.14205847023821 0 0 0
383 32 11 0.06 8.145406681354824 11.602249088452128 7.814400837605137 0 0 0
384 32 11 0.06 8.231186237090732 11.431007361684989 7.763090704117952 0 0 0
749 71 26 -0.39 13.93129715099636 12.490685126228225 8.82481832526123 0 0 0
743 71 27 1.34 14.370342720426459 12.323187621915448 9.619222894357073 0 0 0
745 71 26 -0.39 13.86603761655604 12.621361136735269 9.00683270301228 0 0 0
747 71 26 -0.39 13.85451616554002 12.498654074515102 8.91097469822487 0 0 0
746 71 26 -0.39 14.21042572488504 13.078637824163215 9.991320935746835 0 0 0
33 3 11 0.06 17.383945790003768 13.16937150624326 7.556305575587463 0 0 0
31 3 11 0.06 17.327762713979357 12.836684877589866 7.649413288426049 0 0 0
32 3 11 0.06 17.343402418714245 12.993431037427527 7.552055735861055 0 0 0
29 3 1 0.22 17.628926325790395 13.018800887380605 7.806900542870004 0 0 0
27 3 19 -0.35 18.216778059036745 12.488370691926118 7.683580447300604 0 0 0
362 31 20 -0.5 2.8470158904916643 13.698377912976754 7.162442118714575 0 0 0
30 3 1 0.22 0.38247770077789595 13.659076149544791 9.745012018468845 1 0 0
364 31 19 -0.35 4.884422069519938 14.376269752778908 7.315394961677893 0 0 0
371 31 11 0.06 6.020822171408995 14.569731834805895 6.768805296252578 0 0 0
361 31 9 0.52 3.5331412359948904 13.833534433166687 7.740313184146165 0 0 0
366 31 1 0.22 5.442982813372269 15.0608607764091 7.14481112953379 0 0 0
372 31 11 0.06 6.089680575362162 14.58889278635252 6.879753944963718 0 0 0
370 31 11 0.06 6.045384651428566 14.551937053922432 6.833335500512921 0 0 0
363 31 19 -0.35 4.010331820834825 13.511396151124709 9.710153365777149 0 0 0
124 11 19 -0.35 9.675518571509924 15.802297265797042 7.260075561779785 0 0 0
126 11 1 0.22 10.046102632870864 14.804581875136895 7.5833714135464705 0 0 0
130 11 11 0.06 10.647698213031775 14.498839892586975 7.806150641320201 0 0 0
132 11 11 0.06 10.689155513960689 14.576116009399941 7.84285679980672 0 0 0
131 11 11 0.06 10.719056696946135 14.602907538037186 7.7667734438278675 0 0 0
338 29 20 -0.5 13.264760238385621 16.295963517254847 9.347194986277158 0 0 0
346 29 11 0.06 14.948403423340254 15.719276415807528 6.9731755717962285 0 0 0
340 29 19 -0.35 14.356059855671347 16.19334327158733 7.996882115784525 0 0 0
342 29 1 0.22 14.421287586467258 15.754354543957964 7.28216307406044 0 0 0
348 29 11 0.06 15.010066458295912 15.783904072384669 7.107374353450185 0 0 0
347 29 11 0.06 14.983668536895705 15.811774248657562 7.019270715184543 0 0 0
643 56 19 -0.35 18.47368257123788 16.56423393746147 8.388566855606301 0 0 0
646 56 2 0.22 17.506175220689116 16.518374638450457 9.956746967584149 0 0 0
455 38 11 0.06 2.4105881888983056 16.89629253929221 9.064742682830097 0 0 0
454 38 11 0.06 2.4834004166838857 16.911526575943412 9.07665995530761 0 0 0
450 38 1 0.22 2.3011080897964007 16.966192526294773 9.784372279548267 0 0 0
456 38 11 0.06 2.530938540746306 16.857847107892823 9.090501139394927 0 0 0
517 44 9 0.52 5.3129617824855835 18.876301751928438 7.078514348336885 0 -1 0
520 44 19 -0.35 4.767970252791585 19.246966484386064 8.166430187870885 0 -1 0
121 11 9 0.52 8.761227231807379 17.06582999079286 7.25657150188396 0 0 0
122 11 20 -0.5 8.497621891584055 17.521836225149197 7.682511573735655 0 0 0
337 29 9 0.52 13.772071287366657 16.824601566797455 9.052172564876393 0 0 0
440 37 11 0.06 16.04189428001423 19.347912422157183 6.724901038937853 0 0 0
439 37 11 0.06 16.009429448023088 19.36224657445235 6.821233749806771 0 0 0
441 37 11 0.06 16.02391854806845 19.34051729643529 6.913617172900924 0 0 0
339 29 19 -0.35 13.676630052876149 18.51376374513314 9.574565389922155 0 0 0
344 29 11 0.06 13.715936654622414 19.669964932812906 9.949084229859347 0 0 0
345 29 11 0.06 13.368785438514893 19.562621904870195 9.752862666756638 0 0 0
343 29 11 0.06 13.468658824999027 19.612015862502965 9.85991779660892 0 0 0
437 37 1 0.22 16.55884467001997 19.553386480582787 7.010056069361417 0 0 0
642 56 20 -0.5 19.113096485815625 16.72114278867158 7.914147095741775 0 0 0
641 56 9 0.52 18.675542841736483 16.882713673972226 8.196420130990882 0 0 0
644 56 19 -0.35 18.52954836471806 17.157870928479685 8.881807125820638 0 0 0
500 42 11 0.06 2.9512203109448 0.2766964500450864 13.22547032598612 0 0 0
501 42 11 0.06 3.052970508018633 0.311871505751861 13.240087071067189 0 0 0
499 42 11 0.06 2.874077550142377 0.2110839814929596 13.265939844404215 0 0 0
600 51 11 0.06 2.3139913487246027 3.2539937040105236 10.857075323484263 0 0 0
599 51 11 0.06 2.317220547100338 3.28151062680863 10.901369985512245 0 0 0
598 51 11 0.06 2.306883100127106 3.275965933259083 10.877023719058018 0 0 0
597 51 11 0.06 2.3275445668183212 3.297490518924066 10.929382973513508 0 0 0
51 5 19 -0.35 6.268444259233976 2.9586081199894894 11.208536582884507 0 0 0
53 5 1 0.22 6.061531497530381 2.524879312366857 12.006445967066666 0 0 0
57 5 11 0.06 6.568599913251939 2.4210294081532626 12.606736140780507 0 0 0
55 5 11 0.06 6.567385175947418 2.490361867550433 12.607696973445908 0 0 0
56 5 11 0.06 6.6149045078628275 2.4799362273429635 12.566839360112285 0 0 0
412 35 19 -0.35 9.353441047450685 0.6919811151284861 11.28892278488655 0 1 0
409 35 9 0.52 10.363050275814647 0.9176152058664467 11.63229516427758 0 1 0
410 35 20 -0.5 10.548838595586147 1.6139939840226056 11.242387087803616 0 1 0
411 35 19 -0.35 11.121302840286344 0.5094376279918367 12.612540970828555 0 1 0
719 63 11 0.06 15.80330579823278 0.20629672249619396 13.197446186639555 0 1 0
602 52 20 -0.5 14.010133935433085 2.818132277473407 11.089221454756984 0 0 0
717 63 11 0.06 15.805003395042048 0.2510363086232921 13.243966019464914 0 1 0
718 63 11 0.06 15.818008540983772 0.17128220927212737 13.17600066320409 0 1 0
601 52 9 0.52 13.570844630456824 3.040720896873588 11.688033956614936 0 0 0
720 63 11 0.06 15.770851778045373 0.31013386272671517 13.242183896771202 0 1 0
561 48 9 0.52 17.704668743044476 1.5949092849466482 10.140842272446713 0 0 0
565 48 2 0.22 19.5831930907198 0.6358817678009524 11.055697312077154 0 0 0
569 48 11 0.06 19.35763267260185 0.9346629167915985 12.073009071086135 0 0 0
570 48 11 0.06 19.37630737316415 0.8871290722130653 12.082274026634344 0 0 0
564 48 19 -0.35 18.79148121308811 1.2475959265279113 11.29436488741975 0 0 0
595 51 2 0.22 1.5167847491902673 3.770446189634197 10.468125056201668 0 0 0
596 51 2 0.22 1.520767658365901 3.8901460176750824 10.884890854795065 0 0 0
593 51 19 -0.35 0.09182422908913401 4.938895099717794 10.740756660698887 0 0 0
691 61 9 0.52 9.897583941812153 4.596927047418274 12.94338012846003 0 0 0
699 61 11 0.06 7.122793498073561 6.371133710526919 12.08488921866411 0 0 0
694 61 19 -0.35 9.626299246639025 4.7277591005469395 12.344794634739792 0 0 0
695 61 2 0.22 8.099790842681196 6.035049032921825 12.024730071282798 0 0 0
693 61 19 -0.35 9.540555048121082 5.0438314799313995 12.407600390401752 0 0 0
696 61 2 0.22 8.061540418191571 6.145925565434662 12.440119263853108 0 0 0
700 61 11 0.06 7.133739046680678 6.387686526176356 12.125700133036295 0 0 0
697 61 11 0.06 7.140524560583615 6.372274767502803 12.101809034651103 0 0 0
698 61 11 0.06 7.1329465622516794 6.396574973616811 12.143176192702438 0 0 0
692 61 20 -0.5 10.071368298006936 4.017365724055398 12.963105660764269 0 0 0
610 52 11 0.06 13.289267168845393 6.130223372456936 11.832989363249002 0 0 0
609 52 11 0.06 13.257157587411156 6.115091339467369 11.770257875250207 0 0 0
603 52 19 -0.35 13.423595434674953 3.2993360943475847 13.039278341964543 0 0 0
604 52 19 -0.35 13.644208705530295 3.802125642650251 11.495739886166948 0 0 0
605 52 2 0.22 13.452898708175418 5.263379360017886 12.222421012236483 0 0 0
594 51 19 -0.35 19.628695630530945 4.597546596302328 10.44439962195037 -1 0 0
591 51 9 0.52 19.479346138236448 4.963941097709604 10.62667809420653 -1 0 0
592 51 20 -0.5 19.137172786218915 5.298014322890129 10.305297855353414 -1 0 0
162 14 1 0.22 17.03003755672626 4.437153728492893 13.049129071476417 0 0 0
168 14 11 0.06 17.057801057358063 3.782716038165018 13.285090636461634 0 0 0
167 14 11 0.06 17.062959592241924 3.802488606350803 13.369837185960348 0 0 0
160 14 19 -0.35 17.093575918648344 5.683015720405631 13.447020065241645 0 0 0
557 47 11 0.06 0.10360028494953252 8.776646173588155 10.200044968623457 1 0 0
542 46 20 -0.5 0.5361798732761587 6.800304843350477 13.244888821086475 0 0 0
558 47 11 0.06 0.1308515155615174 8.785150957435 10.152098956819497 1 0 0
250 21 11 0.06 3.634941473852417 6.88901408429147 10.699397245748528 0 0 0
241 21 9 0.52 3.488800151195381 9.474111373397207 12.180639725816643 0 0 0
244 21 19 -0.35 3.8460478810422485 8.29635644366128 11.764544886536514 0 0 0
242 21 20 -0.5 4.110177039984677 9.69620158097936 12.514413249610957 0 0 0
252 21 11 0.06 3.525064462165102 6.8860961718723255 10.66557415885818 0 0 0
246 21 1 0.22 3.4240013910771716 7.318570895728672 11.11333689703768 0 0 0
251 21 11 0.06 3.581120666526725 6.929088241412343 10.635759835237591 0 0 0
381 32 11 0.06 8.301555627423992 9.925522569912543 13.096089555293046 0 0 0
732 66 31 1 10.617276656308578 7.874794362426091 11.097040622531713 0 0 0
194 17 20 -0.5 10.877843167509377 8.557163869697254 11.121624344330462 0 0 0
193 17 9 0.52 11.559632388979752 9.689400373161027 11.311509775550011 0 0 0
196 17 19 -0.35 13.394757614759387 9.837472785564051 12.091450810414724 0 0 0
198 17 1 0.22 13.772678445136961 9.472009314361586 12.434306201216888 0 0 0
204 17 11 0.06 14.18779968357198 9.764204043109089 12.274985956240519 0 0 0
202 17 11 0.06 14.110968386360106 9.853242036725911 12.289169855302774 0 0 0
203 17 11 0.06 14.133485173717997 9.82237635026928 12.407095841468756 0 0 0
157 14 9 0.52 16.833440428595317 6.888958396389498 12.879460337653846 0 0 0
158 14 20 -0.5 16.70018356955488 7.0245301233318695 12.162138700187011 0 0 0
553 47 19 -0.35 18.835057661164267 9.318009210937067 10.15578498189951 0 0 0
243 21 19 -0.35 2.379102964608631 10.466584416823483 12.189607952819333 0 0 0
245 21 1 0.22 1.7303290928599604 11.253699765720205 12.855274932082223 0 0 0
248 21 11 0.06 1.0930234516138073 11.36414765895369 12.899876198348089 0 0 0
247 21 11 0.06 1.0804032928797045 11.253885400103512 12.750956786916719 0 0 0
249 21 11 0.06 1.0641407241663767 11.276209062410658 12.843299924100085 0 0 0
365 31 1 0.22 4.021111483933197 13.138067573728323 10.510049590009585 0 0 0
374 32 20 -0.5 6.209798646257226 10.763071119446174 10.561055017673546 0 0 0
377 32 1 0.22 7.801010825724911 10.19369192939423 12.54751623301507 0 0 0
380 32 11 0.06 8.347300091448826 9.928950754396263 13.048418011567339 0 0 0
375 32 19 -0.35 7.363136621003705 10.143546706784342 11.410474650439083 0 0 0
373 32 9 0.52 6.8607050794583975 10.84635590467366 10.431279480446348 0 0 0
379 32 11 0.06 8.333259240277355 9.99618399703535 13.08727285428161 0 0 0
199 17 11 0.06 10.533178015566445 12.22603808472271 10.710412707599504 0 0 0
200 17 11 0.06 10.551549580874322 12.251885052783901 10.767345221879607 0 0 0
201 17 11 0.06 10.532929261355644 12.186131995326956 10.636446234253128 0 0 0
197 17 1 0.22 10.744295332502181 11.634703340980963 10.792580637408493 0 0 0
195 17 19 -0.35 10.918124787560195 10.968460527385366 10.403998504109124 0 0 0
744 71 26 -0.39 14.36584652537973 13.033969982817034 10.16355395712666 0 0 0
748 71 26 -0.39 14.214085262113528 13.033203337718156 10.162046405053633 0 0 0
316 27 19 -0.35 16.402739507944677 12.969760794009765 13.067296208963286 0 0 0
552 47 20 -0.5 16.809016601711463 10.178637769156385 10.106464546292088 0 0 0
314 27 20 -0.5 17.664902309051126 12.604215160423276 11.662511375796997 0 0 0
313 27 9 0.52 17.596377871891264 13.201744966742773 12.535639192575998 0 0 0
35 3 11 0.06 0.2788215471309284 13.920013855487694 10.382699837303813 1 0 0
36 3 11 0.06 0.2700293394345018 13.983952185476815 10.357071696040885 1 0 0
34 3 11 0.06 0.3477415102425447 13.991895209725644 10.33939187998317 1 0 0
368 31 11 0.06 3.991774903971449 13.642321688114318 11.055999674703738 0 0 0
367 31 11 0.06 3.9782971551811688 13.74641371041658 10.929713076566317 0 0 0
369 31 11 0.06 3.969126117647044 13.7064563994222 10.99054237191482 0 0 0
17 2 1 0.22 7.66234537953636 14.369168731196824 10.899894283304244 0 0 0
19 2 11 0.06 7.548982990938433 14.68731011766887 10.23110537856559 0 0 0
20 2 11 0.06 7.532345979018368 14.752773324962778 10.259173973279971 0 0 0
21 2 11 0.06 7.49355988116665 14.819099392471589 10.30319535661288 0 0 0
15 2 19 -0.35 7.702963254859303 14.081937507364573 12.11545438906098 0 0 0
279 24 19 -0.35 13.200876224252642 15.518653911640067 13.038904287014416 0 0 0
277 24 9 0.52 12.281799392534673 14.355797392103394 13.122895306399576 0 0 0
283 24 11 0.06 14.423425609951458 16.372304197964908 12.818205725524768 0 0 0
281 24 1 0.22 13.88664662743245 15.971304440189247 12.619917584159998 0 0 0
284 24 11 0.06 14.363148596639274 16.403696214124434 12.897540554374553 0 0 0
285 24 11 0.06 14.382573561594182 16.33887299987437 12.939960627055374 0 0 0
648 56 11 0.06 16.939859557854916 15.714638714796084 10.355263828833193 0 0 0
647 56 11 0.06 16.96780260683984 15.674025338462815 10.340266347635202 0 0 0
447 38 19 -0.35 1.4992865149202095 16.66553108575407 12.943070582447229 0 0 0
445 38 9 0.52 1.0019430974582522 17.33400752281649 11.915515874572481 0 0 0
448 38 19 -0.35 1.638710607800135 17.47484244351504 10.786340212613514 0 0 0
446 38 20 -0.5 0.5273613171084165 17.796709747094138 12.088825782526314 0 0 0
311 26 11 0.06 5.174886886448158 17.33122648544211 11.876005493662644 0 0 0
310 26 11 0.06 5.241565199549132 17.32467601021895 11.882867196387629 0 0 0
312 26 11 0.06 5.214766571966997 17.39462915386522 11.915095595053673 0 0 0
306 26 1 0.22 5.050855454752781 17.05675811487198 12.646086087402702 0 0 0
414 35 1 0.22 7.960168219477017 19.879127984149836 10.680680908238378 0 0 0
624 54 19 -0.35 9.005210408107148 17.30742157149696 13.225046211387362 0 0 0
420 35 11 0.06 7.713955805133584 19.552868539818803 10.172514430632047 0 0 0
623 54 19 -0.35 8.921429187007806 17.36104496772051 13.06314337678888 0 0 0
419 35 11 0.06 7.673650150308007 19.519606115485068 10.227304409837078 0 0 0
418 35 11 0.06 7.726795433667742 19.621799953160536 10.137461792391202 0 0 0
627 54 11 0.06 10.524009232022546 17.08743321839357 10.801611428469268 0 0 0
625 54 2 0.22 10.19162520485956 16.95208963111178 11.659365678734167 0 0 0
629 54 11 0.06 10.531538330712864 17.075734943821907 10.81720056741274 0 0 0
626 54 2 0.22 9.996456564861786 17.061754273697666 11.519285561712277 0 0 0
628 54 11 0.06 10.541035671184531 17.032955581292292 10.831605280334747 0 0 0
630 54 11 0.06 10.552776491028638 17.025657640619215 10.833777091758213 0 0 0
341 29 1 0.22 13.792008957303368 19.11063031882956 10.111698984515568 0 0 0
645 56 2 0.22 17.427657514258225 17.462425298472116 10.023250971658452 0 0 0
649 56 11 0.06 17.14638694351329 17.916747930997463 10.674627903365984 0 0 0
650 56 11 0.06 17.21461967512393 17.876529668464077 10.73646916634296 0 0 0
497 42 1 0.22 2.7789485931717395 0.6072838568218711 13.750288147810288 0 0 0
495 42 19 -0.35 3.372747906166176 1.112414254697694 14.08350248552333 0 0 0
724 64 19 -0.35 1.2568741790656004 2.740376418613553 16.617038199295877 1 0 0
493 42 9 0.52 4.152046992527937 2.252830658478174 15.276501149154576 0 0 0
494 42 20 -0.5 4.775649114554297 2.0382381083041 15.884824856474367 0 0 0
1 1 9 0.52 9.621061374826308 1.3282451064488912 15.824465378234738 0 0 0
2 1 20 -0.5 9.325995922132185 1.49710593435134 15.122750562820741 0 0 0
3 1 19 -0.35 8.89577095223543 1.5480262955240927 16.717352733142786 0 0 0
11 1 11 0.06 13.088198349469462 1.734412967256524 16.611071502825126 0 0 0
6 1 1 0.22 12.467792651824023 1.9747075819334412 16.350289709304633 0 0 0
10 1 11 0.06 13.023538083320144 1.6958368222437623 16.647129314433553 0 0 0
12 1 11 0.06 13.139512353321464 1.759122728781019 16.542125226791157 0 0 0
4 1 19 -0.35 11.014356338427707 1.8338907689184865 16.122283337782267 0 0 0
62 6 20 -0.5 16.769219359521063 1.9945550717508318 16.5201767525711 0 0 0
63 6 19 -0.35 18.73501259594049 0.30971408357259583 15.888945080157121 0 0 0
730 64 11 0.06 0.47094765910435904 3.227676426755142 14.29005350953267 1 0 0
725 64 2 0.22 0.43058566146584953 3.4532215826601265 15.349975774095048 1 0 0
729 64 11 0.06 0.45843605608579946 3.298292708330592 14.283618110608382 1 0 0
496 42 19 -0.35 4.0182403842965035 3.971011264647469 14.536321370424634 0 0 0
502 42 11 0.06 3.967027239301305 5.0145890463715395 13.905244910177469 0 0 0
498 42 1 0.22 3.6893812001212694 4.619662774262037 14.186542094495787 0 0 0
504 42 11 0.06 4.0303878288794825 5.0063501568546664 13.98189387937739 0 0 0
503 42 11 0.06 3.978292537820957 5.056400031261698 14.012626622086557 0 0 0
657 57 11 0.06 7.369414462058801 4.742599804336671 15.61319158111955 0 0 0
653 57 19 -0.35 8.605614949382938 5.166646814053875 16.085684927831363 0 0 0
656 57 2 0.22 7.908626149556765 5.292374210623967 16.32192088195613 0 0 0
658 57 11 0.06 7.34075749977873 4.769359806722619 15.623481539359886 0 0 0
652 57 20 -0.5 10.554257222963992 4.678161618441583 16.579887833624287 0 0 0
606 52 2 0.22 13.344970007960276 4.714382776214216 13.606734636525134 0 0 0
608 52 11 0.06 13.499262900965041 4.925615990445167 14.428407180636222 0 0 0
607 52 11 0.06 13.477032811671185 4.845387089162292 14.442920363603305 0 0 0
166 14 11 0.06 17.02595292719831 3.8348059797662404 13.462524554042941 0 0 0
726 64 2 0.22 19.97091453339545 4.217768240855573 15.776030709595148 0 0 0
727 64 11 0.06 19.437150758405057 4.734662735777301 16.39389263547521 0 0 0
728 64 11 0.06 19.549017414103268 4.72651505787489 16.53276572324623 0 0 0
543 46 19 -0.35 0.852041763457376 7.175065753845198 14.095893373165051 0 0 0
541 46 9 0.52 0.8441243737689169 7.265675465714149 13.440311019756425 0 0 0
544 46 19 -0.35 1.0258825958809887 7.630815475975107 14.232770687886696 0 0 0
548 46 11 0.06 2.2218095211685034 7.274015850516205 16.325284161130124 0 0 0
547 46 11 0.06 2.230917553833905 7.345054181717966 16.339601247487277 0 0 0
546 46 2 0.22 1.9109103438615824 7.749028983277265 15.455612443893447 0 0 0
545 46 2 0.22 1.9143360917461678 8.472127842444433 15.384869141883454 0 0 0
550 46 11 0.06 2.09016135221768 9.267530119669887 15.903332952672958 0 0 0
549 46 11 0.06 2.048972575347839 9.294611415021407 15.883349216808556 0 0 0
490 41 11 0.06 5.732361445404873 8.307810109712461 15.19048472233595 0 0 0
491 41 11 0.06 5.823179458507196 8.346611032556252 15.21828862794439 0 0 0
486 41 1 0.22 5.8363417939755955 7.995857312121156 15.69999917042379 0 0 0
492 41 11 0.06 5.782743411757315 8.232697692169737 15.156017057681856 0 0 0
484 41 19 -0.35 5.597661368375809 8.43593206124145 16.614651757296272 0 0 0
236 20 11 0.06 11.06792103750053 7.7607997150828885 14.658830043274511 0 0 0
237 20 11 0.06 10.905139710468724 7.747959529504322 14.709659342876598 0 0 0
233 20 1 0.22 10.9928745702079 8.150883694116207 15.112049437777491 0 0 0
235 20 11 0.06 11.186944599412017 7.791683214023513 14.678991105496943 0 0 0
231 20 19 -0.35 11.250500499373672 8.060800587272377 16.05451164920533 0 0 0
639 55 11 0.06 14.790664422591512 8.256938230828743 15.748003022328287 0 0 0
640 55 11 0.06 14.76904653546007 8.2647163336484 15.717025940764188 0 0 0
634 55 19 -0.35 14.80373791900143 8.464582396560488 16.230831496443052 0 0 0
635 55 2 0.22 14.765545715960467 9.45975761151236 16.08473222891171 0 0 0
159 14 19 -0.35 17.293383287861797 7.9160321356992664 13.357276959545077 0 0 0
161 14 1 0.22 17.72039822311149 9.209288408998406 13.405780001721434 0 0 0
165 14 11 0.06 17.771894559758525 9.651261261722464 13.783281775798965 0 0 0
163 14 11 0.06 17.765084042962428 9.59378635459189 13.836265626138248 0 0 0
164 14 11 0.06 17.8669153539864 9.64272391359228 13.771208735059446 0 0 0
537 45 11 0.06 3.054162094116984 12.598771409183916 16.39665420033031 0 0 0
536 45 11 0.06 3.0313821794208855 12.539370246998189 16.508951317654923 0 0 0
535 45 11 0.06 2.9220078597617007 12.522904869246283 16.523314230377256 0 0 0
734 68 31 1 5.272818653208228 12.001901428356796 14.050126039332827 0 0 0
733 67 31 1 5.272818653208228 12.001901428356796 14.050126039332827 0 0 0
275 23 11 0.06 8.041224963288236 11.652532192663102 16.48703180818743 0 0 0
276 23 11 0.06 8.004562482201154 11.512206420831031 16.37761816244609 0 0 0
274 23 11 0.06 7.984496152570996 11.594170472190461 16.45750041407439 0 0 0
287 24 11 0.06 11.480589169057442 11.655004396433453 14.518249998620613 0 0 0
288 24 11 0.06 11.522985285989858 11.632519653963966 14.581308702296834 0 0 0
282 24 1 0.22 11.929925129223903 12.218954307265367 14.555690710461894 0 0 0
286 24 11 0.06 11.424339026866557 11.700812320680512 14.534252966520201 0 0 0
280 24 19 -0.35 11.921165219712112 12.97097186209995 13.982707961266126 0 0 0
323 27 11 0.06 15.635534274254452 12.88921968648371 14.256172271324784 0 0 0
322 27 11 0.06 15.57307008506633 12.810410159089331 14.269047747095547 0 0 0
318 27 1 0.22 15.73070331213801 12.760769330570861 13.70879756570682 0 0 0
324 27 11 0.06 15.472915703133008 12.796141170296822 14.221923477361978 0 0 0
116 10 11 0.06 19.226508803929367 12.496234734637328 15.758300359592866 0 0 0
117 10 11 0.06 19.192023198026813 12.55775630025497 15.8046916247531 0 0 0
115 10 11 0.06 19.110603635222084 12.552634942533254 15.851985295201178 0 0 0
113 10 1 0.22 19.231565163832162 12.00460893451254 16.351804345524585 0 0 0
452 38 11 0.06 1.7928437415623342 14.964958681731014 13.844928686492826 0 0 0
449 38 1 0.22 1.8100498454257128 15.652948383627454 13.638416312488157 0 0 0
451 38 11 0.06 1.7101146363290707 14.980065592813286 13.89965963890287 0 0 0
453 38 11 0.06 1.678798496649273 14.958747954048476 13.832271413431199 0 0 0
304 26 19 -0.35 5.391953902812009 16.146013569395624 13.55453720367588 0 0 0
302 26 20 -0.5 5.328190222457614 15.10831378424997 14.566840879300615 0 0 0
301 26 9 0.52 5.539539401326488 15.806474910182375 14.87356955110038 0 0 0
303 26 19 -0.35 5.923307902362562 15.239924506475125 16.150066645992425 0 0 0
13 2 9 0.52 8.53009944016732 13.98249707950138 13.51355157543796 0 0 0
16 2 19 -0.35 9.156930418046802 14.685320898703937 15.515918274283804 0 0 0
18 2 1 0.22 9.75816340978012 15.065685382477353 16.188258876544197 0 0 0
14 2 20 -0.5 8.295823135930616 13.588144183897313 13.564374478875335 0 0 0
278 24 20 -0.5 11.715658599376907 14.687766215840465 13.371702101173478 0 0 0
297 25 11 0.06 13.536583039161638 15.107518813063523 16.61194964463246 0 0 0
296 25 11 0.06 13.602458818689028 15.271345306991552 16.59935176776517 0 0 0
295 25 11 0.06 13.558183826930115 15.18755846214315 16.615376785141745 0 0 0
319 27 11 0.06 17.99651697029103 16.165288873739566 14.055032807303109 0 0 0
321 27 11 0.06 17.93456873147465 16.194307607756848 14.317278945337328 0 0 0
315 27 19 -0.35 18.081929614539707 15.214977565450866 13.419544847734763 0 0 0
317 27 1 0.22 17.985105375810157 15.758885721231598 14.237203001890258 0 0 0
320 27 11 0.06 17.97562441356366 16.223385960692784 14.170389738702324 0 0 0
618 53 11 0.06 3.1831658495065986 17.861791083619348 16.148736846260338 0 0 0
617 53 11 0.06 3.220836821329743 17.840035132616777 16.179724590251162 0 0 0
731 65 31 1 6.381110140901056 19.528545306218472 14.906613377704101 0 0 0
735 69 31 1 6.381110140901056 19.528545306218472 14.906613377704101 0 -1 0
621 54 9 0.52 8.665595347668411 17.879796484078238 13.728471350802868 0 0 0
622 54 20 -0.5 8.884036740584063 17.72221673200201 14.340091754166444 0 0 0
413 35 1 0.22 12.009188093396025 19.863045620939733 13.265506709270884 0 0 0
415 35 11 0.06 12.169461282986205 19.29603555910658 13.642765121803706 0 0 0
417 35 11 0.06 12.1261418968989 19.284795976285707 13.698822576268348 0 0 0
416 35 11 0.06 12.104044786982273 19.302788760638855 13.749196174579765 0 0 0
715 63 2 0.22 15.731323875754716 19.88158005816307 14.04946227226297 0 0 0
714 63 19 -0.35 15.284901111262 18.858242721874355 15.784384612092612 0 0 0
716 63 2 0.22 16.051272671209404 19.557860840219224 13.843300685888204 0 0 0
711 63 9 0.52 15.18599863731188 18.465704074945215 15.852523791165638 0 0 0
713 63 19 -0.35 15.573971266607709 18.638852506052825 15.612228511649061 0 0 0
712 63 20 -0.5 15.009808189978026 18.575135656371224 16.334445335328514 0 0 0
68 6 11 0.06 19.719698031634223 19.37503997982204 15.410650513547225 0 -1 0
67 6 11 0.06 19.521260885614886 19.246265011083537 15.555208266785405 0 -1 0
65 6 1 0.22 19.499478297468144 19.77223642736532 15.83749307686176 0 -1 0
69 6 11 0.06 19.65106716543974 19.28020203880345 15.491104382998174 0 -1 0
722 64 20 -0.5 1.770570901121466 2.3626050864666945 17.56087682477016 1 0 0
685 60 2 0.22 4.260015911262726 3.2321116322288423 19.566247081932328 0 0 0
8 1 11 0.06 7.42130663427219 1.9652473166389353 18.302296181744804 0 0 0
7 1 11 0.06 7.524678246098128 1.9930991974985024 18.344386722593484 0 0 0
5 1 1 0.22 7.7245283061055865 1.8008276863663426 17.62927694165665 0 0 0
9 1 11 0.06 7.477914562431636 1.9461124783320383 18.335602727222085 0 0 0
769 74 26 -0.39 10.992803403998813 2.467436224798988 19.897359884450456 0 0 0
765 74 26 -0.39 10.978459453997855 1.5077568100822225 19.796039658263744 0 0 0
764 74 27 1.34 11.143451134585098 1.732971747665613 0.08105707342663493 0 0 1
767 74 26 -0.39 10.966052238500964 2.427426376791019 19.762032002899087 0 0 0
151 13 11 0.06 14.875833214003244 2.3193237691400075 19.983104073682284 0 0 -1
152 13 11 0.06 14.824654938860256 2.2984295473562555 0.015606791263781616 0 0 0
153 13 11 0.06 14.891316696558974 2.2612265158773512 0.018805508619692546 0 0 0
61 6 9 0.52 17.520484337010227 1.5249825207243686 16.705353961862187 0 0 0
72 6 11 0.06 18.70538008508437 1.7564227772995216 19.419419500727972 0 0 0
64 6 19 -0.35 17.766661524170882 1.6703995831560505 17.921529363800026 0 0 0
71 6 11 0.06 18.646767621461297 1.9097964695762901 19.510960297096858 0 0 0
66 6 1 0.22 18.346867322678403 2.018902072193503 18.9383366495849 0 0 0
70 6 11 0.06 18.684538393550717 1.8320929892729712 19.472217166525834 0 0 0
721 64 9 0.52 1.3894993247133924 3.052725048208797 17.142903731643315 1 0 0
459 39 19 -0.35 0.9097217962573189 6.262933924813476 19.87689326688782 0 0 0
723 64 19 -0.35 0.36093355376741887 4.2313748255184125 16.868110343612567 1 0 0
686 60 2 0.22 4.556783427114745 4.3309494947899925 19.069489725352266 0 0 0
687 60 11 0.06 4.507482057436086 4.827593054760799 17.896807753640672 0 0 0
688 60 11 0.06 4.464174679160308 4.874170195257117 17.907890381924663 0 0 0
683 60 19 -0.35 4.4674536330914245 4.907270168003687 18.30779138644417 0 0 0
651 57 9 0.52 9.683573906135612 5.019674023272269 16.950514075766975 0 0 0
659 57 11 0.06 8.132553334388556 5.737132599908128 18.85603964415195 0 0 0
660 57 11 0.06 8.192045524513402 5.6616968437158 18.86373495629427 0 0 0
655 57 2 0.22 8.221207780287498 5.691127120862903 17.811199466239348 0 0 0
654 57 19 -0.35 9.261684185482357 5.357838227371512 18.143359675034528 0 0 0
108 9 11 0.06 13.142327013858518 5.307202969913953 18.191421466778124 0 0 -1
107 9 11 0.06 13.13191879847167 5.387212134236941 18.320805024564137 0 0 -1
106 9 11 0.06 13.147300977071954 5.274744700752986 18.294154456850887 0 0 -1
98 9 20 -0.5 16.34345121481246 5.0711593547448395 16.781455620777052 0 0 -1
97 9 9 0.52 16.058754066122773 5.134742247729064 17.59846285561043 0 0 -1
100 9 19 -0.35 14.674777742458218 5.072320141736917 17.608590714358925 0 0 -1
102 9 1 0.22 13.773822541457589 5.498654741606636 18.21845828306414 0 0 -1
99 9 19 -0.35 17.000694436744563 5.342413182431416 19.21904499845695 0 0 -1
458 39 20 -0.5 1.7283163942635227 7.166287555080727 19.18905102324683 0 0 0
462 39 1 0.22 2.0087209406041158 9.816447541522287 19.810399382852875 0 0 0
460 39 19 -0.35 1.730160854518239 8.922594600194438 19.583028787740822 0 0 0
481 41 9 0.52 5.17668166946747 8.636434496674035 18.18201843440137 0 0 0
482 41 20 -0.5 5.23593981102544 8.07654466135474 18.743258347519458 0 0 0
266 23 20 -0.5 8.626620654519336 8.743056026809796 17.794359830299392 0 0 0
265 23 9 0.52 8.623741984054314 9.465482647915424 18.351124245085238 0 0 0
267 23 19 -0.35 8.717858533611988 9.16274558728004 19.979777435474944 0 0 0
230 20 20 -0.5 11.501242621825222 8.208082801504652 18.382146385428793 0 0 0
229 20 9 0.52 11.585952454878386 8.762773226165846 17.586096176137083 0 0 0
631 55 9 0.52 15.013234746092568 8.95762007847815 18.286635222694517 0 0 0
632 55 20 -0.5 15.067563402538473 8.447811312644728 19.265765147006967 0 0 0
763 73 26 -0.39 18.519225904713714 8.031257631873109 17.41275127454699 0 0 0
760 73 26 -0.39 18.633139690433516 8.362989383436 17.540733390816573 0 0 0
761 73 26 -0.39 18.467090272633083 8.167176840097264 17.059475146215558 0 0 0
758 73 26 -0.39 18.723774392938587 8.249311239218786 17.304524954760023 0 0 0
757 73 27 1.34 18.561409650808663 8.287696792082922 17.335118899083774 0 0 0
759 73 26 -0.39 18.357655509621242 8.335352958202948 17.376739634580435 0 0 0
762 73 26 -0.39 18.617718123894374 8.573707080286349 17.24096214677427 0 0 0
531 45 19 -0.35 2.722767130075709 13.109196970627602 17.410509117888356 0 0 0
468 39 11 0.06 1.802029157392205 10.294551389011499 19.504470824072598 0 0 0
467 39 11 0.06 1.8730347736511486 10.435332578784601 19.724254594686297 0 0 0
533 45 1 0.22 2.920265373406425 13.057547387017427 16.749782309663523 0 0 0
466 39 11 0.06 1.8298120707369505 10.388424494880464 19.628508889272975 0 0 0
483 41 19 -0.35 5.196678368660961 10.088463207088951 18.50151698009922 0 0 0
489 41 11 0.06 5.495931938679248 11.484401325680539 19.172477883131975 0 0 0
485 41 1 0.22 5.558698390141645 10.976989804938112 19.11046891968546 0 0 0
487 41 11 0.06 5.405380562061855 11.4522628118167 19.113965678659987 0 0 0
488 41 11 0.06 5.4586074575931285 11.46679283605336 19.264700511086627 0 0 0
270 23 1 0.22 8.471623981934147 11.204200317286093 16.729798185930967 0 0 0
268 23 19 -0.35 8.487240508387655 10.471134970426903 16.95068992098837 0 0 0
232 20 19 -0.35 11.899357330867474 10.430121155882983 18.049936086979642 0 0 0
234 20 1 0.22 11.72272647937558 11.303694151020833 18.347229452450627 0 0 0
238 20 11 0.06 12.031900273567135 11.8979434240531 18.26284881577149 0 0 0
239 20 11 0.06 11.930863337755639 11.933456882182226 18.25292607846607 0 0 0
240 20 11 0.06 11.982562316071338 11.910554447609865 18.1998553751722 0 0 0
638 55 11 0.06 15.616004572225979 11.329276669171046 17.43051336240575 0 0 0
636 55 2 0.22 15.333018027502263 10.32521844106591 16.858745235313044 0 0 0
637 55 11 0.06 15.664748417815568 11.294288164837452 17.43912499918627 0 0 0
633 55 19 -0.35 15.545925918113038 10.739445642025368 17.632792204802247 0 0 0
111 10 19 -0.35 19.20396585656687 12.184861790438845 17.61578767140539 0 0 0
109 10 9 0.52 18.589007342147326 11.930651373789752 18.988002003113277 0 0 0
110 10 20 -0.5 19.02478263793035 12.481462849273441 19.131071181228666 0 0 0
530 45 20 -0.5 2.656064748213224 13.955013896749628 19.822174247617596 0 0 0
539 45 11 0.06 0.39336325427566565 15.914495322311502 17.332280029765176 0 0 0
529 45 9 0.52 2.463787030019428 14.14658113867068 18.953084779011558 0 0 0
532 45 19 -0.35 1.5816713033580985 15.370585677131968 18.447882856524608 0 0 0
534 45 1 0.22 0.5556508590135361 15.617599542618102 18.030606861764973 0 0 0
540 45 11 0.06 0.36304112396763955 15.850102569254426 17.319418590412496 0 0 0
538 45 11 0.06 0.3121318644010149 15.884226515609102 17.350265969220583 0 0 0
308 26 11 0.06 6.118507509257702 14.810464144910869 17.8607270462044 0 0 0
305 26 1 0.22 5.7402185902889915 15.26668622688436 17.377931917721867 0 0 0
307 26 11 0.06 6.071406237173056 14.925401469436936 17.990805798787694 0 0 0
309 26 11 0.06 6.083436604624239 14.844977757939027 17.933680335985795 0 0 0
24 2 11 0.06 9.809632209897856 14.817076475535353 16.786522826334853 0 0 0
23 2 11 0.06 9.822360834783307 14.892638889382088 16.831384357357862 0 0 0
22 2 11 0.06 9.903921760952223 14.855337881826566 16.813343325300814 0 0 0
293 25 1 0.22 14.151124678559233 14.829813329934645 16.772776864956132 0 0 0
291 25 19 -0.35 15.343522361836731 15.103715244003563 17.414164714186633 0 0 0
289 25 9 0.52 16.489890350394873 15.228862621716239 17.537337114854505 0 0 0
290 25 20 -0.5 16.827403920182096 14.696263991984502 17.520031185605887 0 0 0
620 53 11 0.06 1.3980513969999664 19.300197449856118 18.97130075175185 0 0 0
619 53 11 0.06 1.4179068856178305 19.255099668401815 19.004507474652353 0 0 0
616 53 2 0.22 3.097099318933595 18.58070313273792 16.961194994099184 0 0 0
615 53 2 0.22 2.216145721395241 19.083269687458326 18.359396890938832 0 0 0
614 53 19 -0.35 2.6322048996766445 19.74677263308341 18.879401601712225 0 0 0
612 53 20 -0.5 4.893474994183168 19.776879731909204 18.438305096396068 0 0 0
613 53 19 -0.35 4.049754166592669 18.54493730590862 17.240072853902642 0 0 0
611 53 9 0.52 4.20580935318667 19.649444630378227 18.10968411067276 0 0 0
178 15 11 0.06 8.044738133268318 18.116423243692598 17.898841200379568 0 0 0
174 15 1 0.22 8.800875544770395 18.377908588126925 18.106382500590115 0 0 0
179 15 11 0.06 8.04584672832137 18.085794115201395 18.05849098561134 0 0 0
180 15 11 0.06 8.0329466445096 18.100440931056053 17.978107925939067 0 0 0
172 15 19 -0.35 10.027853911693837 18.29459513547043 18.10305578669933 0 0 0
169 15 9 0.52 11.347420621404103 18.354122202505444 17.69142690299765 0 0 0
170 15 20 -0.5 11.528574711551594 18.22504916355042 16.9435463423018 0 0 0
171 15 19 -0.35 12.311185988726123 18.3185485589381 18.4883060771015 0 0 0
176 15 11 0.06 13.89916607037148 18.781631466614467 19.826394640647855 0 0 0
175 15 11 0.06 13.912216638790177 18.697391877492766 19.82053878131983 0 0 0
177 15 11 0.06 13.962034038573103 18.66511740001426 19.765344183962828 0 0 0
173 15 1 0.22 13.426595933510185 18.798642834465976 19.21342979757436 0 0 0
292 25 19 -0.35 16.920210067693713 16.652610938906683 18.174740276974095 0 0 0
298 25 11 0.06 17.758290946587564 18.080511534511093 18.935046607644054 0 0 0
299 25 11 0.06 17.641809410411355 18.128394928120727 18.805187388214726 0 0 0
294 25 1 0.22 17.38889273726161 17.615958870046324 19.02392150166841 0 0 0
300 25 11 0.06 17.685255909121953 18.124321486538687 18.874984877296498 0 0 0

Velocities

46 0 0 0
40 0 0 0
42 0 0 0
48 0 0 0
47 0 0 0
37 0 0 0
39 0 0 0
689 0 0 0
690 0 0 0
684 0 0 0
405 0 0 0
403 0 0 0
404 0 0 0
478 0 0 0
480 0 0 0
479 0 0 0
768 0 0 0
766 0 0 0
770 0 0 0
149 0 0 0
471 0 0 0
473 0 0 0
464 0 0 0
465 0 0 0
461 0 0 0
463 0 0 0
397 0 0 0
682 0 0 0
681 0 0 0
399 0 0 0
401 0 0 0
398 0 0 0
155 0 0 0
150 0 0 0
148 0 0 0
156 0 0 0
154 0 0 0
146 0 0 0
145 0 0 0
147 0 0 0
702 0 0 0
103 0 0 0
104 0 0 0
105 0 0 0
101 0 0 0
457 0 0 0
670 0 0 0
669 0 0 0
400 0 0 0
402 0 0 0
406 0 0 0
408 0 0 0
407 0 0 0
272 0 0 0
269 0 0 0
271 0 0 0
273 0 0 0
571 0 0 0
572 0 0 0
261 0 0 0
259 0 0 0
260 0 0 0
120 0 0 0
118 0 0 0
119 0 0 0
664 0 0 0
662 0 0 0
661 0 0 0
192 0 0 0
142 0 0 0
143 0 0 0
144 0 0 0
574 0 0 0
579 0 0 0
575 0 0 0
580 0 0 0
578 0 0 0
576 0 0 0
573 0 0 0
577 0 0 0
114 0 0 0
112 0 0 0
350 0 0 0
351 0 0 0
190 0 0 0
191 0 0 0
186 0 0 0
183 0 0 0
138 0 0 0
134 0 0 0
136 0 0 0
133 0 0 0
740 0 0 0
738 0 0 0
737 0 0 0
742 0 0 0
736 0 0 0
741 0 0 0
739 0 0 0
358 0 0 0
360 0 0 0
359 0 0 0
354 0 0 0
352 0 0 0
349 0 0 0
353 0 0 0
357 0 0 0
355 0 0 0
356 0 0 0
185 0 0 0
189 0 0 0
188 0 0 0
187 0 0 0
41 0 0 0
135 0 0 0
43 0 0 0
44 0 0 0
45 0 0 0
139 0 0 0
137 0 0 0
141 0 0 0
140 0 0 0
515 0 0 0
516 0 0 0
514 0 0 0
477 0 0 0
475 0 0 0
476 0 0 0
84 0 0 0
83 0 0 0
78 0 0 0
82 0 0 0
519 0 0 0
521 0 0 0
524 0 0 0
523 0 0 0
525 0 0 0
218 0 0 0
474 0 0 0
472 0 0 0
469 0 0 0
470 0 0 0
433 0 0 0
434 0 0 0
582 0 0 0
581 0 0 0
583 0 0 0
584 0 0 0
588 0 0 0
586 0 0 0
585 0 0 0
587 0 0 0
326 0 0 0
328 0 0 0
325 0 0 0
330 0 0 0
335 0 0 0
336 0 0 0
426 0 0 0
334 0 0 0
431 0 0 0
430 0 0 0
432 0 0 0
701 0 0 0
704 0 0 0
705 0 0 0
707 0 0 0
706 0 0 0
703 0 0 0
708 0 0 0
668 0 0 0
666 0 0 0
665 0 0 0
667 0 0 0
590 0 0 0
589 0 0 0
333 0 0 0
331 0 0 0
329 0 0 0
332 0 0 0
327 0 0 0
422 0 0 0
421 0 0 0
423 0 0 0
424 0 0 0
255 0 0 0
257 0 0 0
253 0 0 0
709 0 0 0
710 0 0 0
663 0 0 0
672 0 0 0
671 0 0 0
673 0 0 0
674 0 0 0
756 0 0 0
754 0 0 0
750 0 0 0
751 0 0 0
752 0 0 0
427 0 0 0
428 0 0 0
425 0 0 0
429 0 0 0
205 0 0 0
254 0 0 0
208 0 0 0
214 0 0 0
210 0 0 0
216 0 0 0
215 0 0 0
512 0 0 0
511 0 0 0
513 0 0 0
184 0 0 0
181 0 0 0
182 0 0 0
753 0 0 0
755 0 0 0
211 0 0 0
213 0 0 0
209 0 0 0
212 0 0 0
207 0 0 0
206 0 0 0
505 0 0 0
509 0 0 0
507 0 0 0
444 0 0 0
442 0 0 0
443 0 0 0
438 0 0 0
38 0 0 0
518 0 0 0
123 0 0 0
129 0 0 0
125 0 0 0
128 0 0 0
127 0 0 0
226 0 0 0
220 0 0 0
222 0 0 0
227 0 0 0
228 0 0 0
217 0 0 0
510 0 0 0
508 0 0 0
436 0 0 0
506 0 0 0
435 0 0 0
76 0 0 0
568 0 0 0
567 0 0 0
527 0 0 0
522 0 0 0
526 0 0 0
528 0 0 0
221 0 0 0
49 0 0 0
224 0 0 0
223 0 0 0
225 0 0 0
219 0 0 0
395 0 0 0
394 0 0 0
390 0 0 0
396 0 0 0
388 0 0 0
385 0 0 0
566 0 0 0
562 0 0 0
386 0 0 0
563 0 0 0
73 0 0 0
79 0 0 0
77 0 0 0
75 0 0 0
80 0 0 0
81 0 0 0
54 0 0 0
60 0 0 0
58 0 0 0
59 0 0 0
52 0 0 0
50 0 0 0
96 0 0 0
90 0 0 0
94 0 0 0
88 0 0 0
95 0 0 0
387 0 0 0
389 0 0 0
393 0 0 0
391 0 0 0
392 0 0 0
74 0 0 0
677 0 0 0
679 0 0 0
680 0 0 0
678 0 0 0
92 0 0 0
91 0 0 0
93 0 0 0
89 0 0 0
87 0 0 0
85 0 0 0
86 0 0 0
262 0 0 0
264 0 0 0
258 0 0 0
263 0 0 0
256 0 0 0
554 0 0 0
555 0 0 0
556 0 0 0
559 0 0 0
560 0 0 0
551 0 0 0
26 0 0 0
25 0 0 0
28 0 0 0
676 0 0 0
675 0 0 0
376 0 0 0
382 0 0 0
378 0 0 0
383 0 0 0
384 0 0 0
749 0 0 0
743 0 0 0
745 0 0 0
747 0 0 0
746 0 0 0
33 0 0 0
31 0 0 0
32 0 0 0
29 0 0 0
27 0 0 0
362 0 0 0
30 0 0 0
364 0 0 0
371 0 0 0
361 0 0 0
366 0 0 0
372 0 0 0
370 0 0 0
363 0 0 0
124 0 0 0
126 0 0 0
130 0 0 0
132 0 0 0
131 0 0 0
338 0 0 0
346 0 0 0
340 0 0 0
342 0 0 0
348 0 0 0
347 0 0 0
643 0 0 0
646 0 0 0
455 0 0 0
454 0 0 0
450 0 0 0
456 0 0 0
517 0 0 0
520 0 0 0
121 0 0 0
122 0 0 0
337 0 0 0
440 0 0 0
439 0 0 0
441 0 0 0
339 0 0 0
344 0 0 0
345 0 0 0
343 0 0 0
437 0 0 0
642 0 0 0
641 0 0 0
644 0 0 0
500 0 0 0
501 0 0 0
499 0 0 0
600 0 0 0
599 0 0 0
598 0 0 0
597 0 0 0
51 0 0 0
53 0 0 0
57 0 0 0
55 0 0 0
56 0 0 0
412 0 0 0
409 0 0 0
410 0 0 0
411 0 0 0
719 0 0 0
602 0 0 0
717 0 0 0
718 0 0 0
601 0 0 0
720 0 0 0
561 0 0 0
565 0 0 0
569 0 0 0
570 0 0 0
564 0 0 0
595 0 0 0
596 0 0 0
593 0 0 0
691 0 0 0
699 0 0 0
694 0 0 0
695 0 0 0
693 0 0 0
696 0 0 0
700 0 0 0
697 0 0 0
698 0 0 0
692 0 0 0
610 0 0 0
609 0 0 0
603 0 0 0
604 0 0 0
605 0 0 0
594 0 0 0
591 0 0 0
592 0 0 0
162 0 0 0
168 0 0 0
167 0 0 0
160 0 0 0
557 0 0 0
542 0 0 0
558 0 0 0
250 0 0 0
241 0 0 0
244 0 0 0
242 0 0 0
252 0 0 0
246 0 0 0
251 0 0 0
381 0 0 0
732 0 0 0
194 0 0 0
193 0 0 0
196 0 0 0
198 0 0 0
204 0 0 0
202 0 0 0
203 0 0 0
157 0 0 0
158 0 0 0
553 0 0 0
243 0 0 0
245 0 0 0
248 0 0 0
247 0 0 0
249 0 0 0
365 0 0 0
374 0 0 0
377 0 0 0
380 0 0 0
375 0 0 0
373 0 0 0
379 0 0 0
199 0 0 0
200 0 0 0
201 0 0 0
197 0 0 0
195 0 0 0
744 0 0 0
748 0 0 0
316 0 0 0
552 0 0 0
314 0 0 0
313 0 0 0
35 0 0 0
36 0 0 0
34 0 0 0
368 0 0 0
367 0 0 0
369 0 0 0
17 0 0 0
19 0 0 0
20 0 0 0
21 0 0 0
15 0 0 0
279 0 0 0
277 0 0 0
283 0 0 0
281 0 0 0
284 0 0 0
285 0 0 0
648 0 0 0
647 0 0 0
447 0 0 0
445 0 0 0
448 0 0 0
446 0 0 0
311 0 0 0
310 0 0 0
312 0 0 0
306 0 0 0
414 0 0 0
624 0 0 0
420 0 0 0
623 0 0 0
419 0 0 0
418 0 0 0
627 0 0 0
625 0 0 0
629 0 0 0
626 0 0 0
628 0 0 0
630 0 0 0
341 0 0 0
645 0 0 0
649 0 0 0
650 0 0 0
497 0 0 0
495 0 0 0
724 0 0 0
493 0 0 0
494 0 0 0
1 0 0 0
2 0 0 0
3 0 0 0
11 0 0 0
6 0 0 0
10 0 0 0
12 0 0 0
4 0 0 0
62 0 0 0
63 0 0 0
730 0 0 0
725 0 0 0
729 0 0 0
496 0 0 0
502 0 0 0
498 0 0 0
504 0 0 0
503 0 0 0
657 0 0 0
653 0 0 0
656 0 0 0
658 0 0 0
652 0 0 0
606 0 0 0
608 0 0 0
607 0 0 0
166 0 0 0
726 0 0 0
727 0 0 0
728 0 0 0
543 0 0 0
541 0 0 0
544 0 0 0
548 0 0 0
547 0 0 0
546 0 0 0
545 0 0 0
550 0 0 0
549 0 0 0
490 0 0 0
491 0 0 0
486 0 0 0
492 0 0 0
484 0 0 0
236 0 0 0
237 0 0 0
233 0 0 0
235 0 0 0
231 0 0 0
639 0 0 0
640 0 0 0
634 0 0 0
635 0 0 0
159 0 0 0
161 0 0 0
165 0 0 0
163 0 0 0
164 0 0 0
537 0 0 0
536 0 0 0
535 0 0 0
734 0 0 0
733 0 0 0
275 0 0 0
276 0 0 0
274 0 0 0
287 0 0 0
288 0 0 0
282 0 0 0
286 0 0 0
280 0 0 0
323 0 0 0
322 0 0 0
318 0 0 0
324 0 0 0
116 0 0 0
117 0 0 0
115 0 0 0
113 0 0 0
452 0 0 0
449 0 0 0
451 0 0 0
453 0 0 0
304 0 0 0
302 0 0 0
301 0 0 0
303 0 0 0
13 0 0 0
16 0 0 0
18 0 0 0
14 0 0 0
278 0 0 0
297 0 0 0
296 0 0 0
295 0 0 0
319 0 0 0
321 0 0 0
315 0 0 0
317 0 0 0
320 0 0 0
618 0 0 0
617 0 0 0
731 0 0 0
735 0 0 0
621 0 0 0
622 0 0 0
413 0 0 0
415 0 0 0
417 0 0 0
416 0 0 0
715 0 0 0
714 0 0 0
716 0 0 0
711 0 0 0
713 0 0 0
712 0 0 0
68 0 0 0
67 0 0 0
65 0 0 0
69 0 0 0
722 0 0 0
685 0 0 0
8 0 0 0
7 0 0 0
5 0 0 0
9 0 0 0
769 0 0 0
765 0 0 0
764 0 0 0
767 0 0 0
151 0 0 0
152 0 0 0
153 0 0 0
61 0 0 0
72 0 0 0
64 0 0 0
71 0 0 0
66 0 0 0
70 0 0 0
721 0 0 0
459 0 0 0
723 0 0 0
686 0 0 0
687 0 0 0
688 0 0 0
683 0 0 0
651 0 0 0
659 0 0 0
660 0 0 0
655 0 0 0
654 0 0 0
108 0 0 0
107 0 0 0
106 0 0 0
98 0 0 0
97 0 0 0
100 0 0 0
102 0 0 0
99 0 0 0
458 0 0 0
462 0 0 0
460 0 0 0
481 0 0 0
482 0 0 0
266 0 0 0
265 0 0 0
267 0 0 0
230 0 0 0
229 0 0 0
631 0 0 0
632 0 0 0
763 0 0 0
760 0 0 0
761 0 0 0
758 0 0 0
757 0 0 0
759 0 0 0
762 0 0 0
531 0 0 0
468 0 0 0
467 0 0 0
533 0 0 0
466 0 0 0
483 0 0 0
489 0 0 0
485 0 0 0
487 0 0 0
488 0 0 0
270 0 0 0
268 0 0 0
232 0 0 0
234 0 0 0
238 0 0 0
239 0 0 0
240 0 0 0
638 0 0 0
636 0 0 0
637 0 0 0
633 0 0 0
111 0 0 0
109 0 0 0
110 0 0 0
530 0 0 0
539 0 0 0
529 0 0 0
532 0 0 0
534 0 0 0
540 0 0 0
538 0 0 0
308 0 0 0
305 0 0 0
307 0 0 0
309 0 0 0
24 0 0 0
23 0 0 0
22 0 0 0
293 0 0 0
291 0 0 0
289 0 0 0
290 0 0 0
620 0 0 0
619 0 0 0
616 0 0 0
615 0 0 0
614 0 0 0
612 0 0 0
613 0 0 0
611 0 0 0
178 0 0 0
174 0 0 0
179 0 0 0
180 0 0 0
172 0 0 0
169 0 0 0
170 0 0 0
171 0 0 0
176 0 0 0
175 0 0 0
177 0 0 0
173 0 0 0
292 0 0 0
298 0 0 0
299 0 0 0
294 0 0 0
300 0 0 0

Bonds

1 7 40 42
2 4 42 46
3 4 42 47
4 4 42 48
5 8 37 38
6 7 37 39
7 7 37 40
8 7 39 41
9 7 684 685
10 4 149 151
11 4 149 152
12 4 149 153
13 7 471 473
14 4 473 475
15 4 473 476
16 4 473 477
17 4 461 463
18 4 461 464
19 4 461 465
20 8 397 398
21 7 397 399
22 7 397 400
23 8 681 682
24 7 681 683
25 7 681 684
26 7 399 401
27 4 401 403
28 4 401 404
29 4 401 405
30 4 150 154
31 4 150 155
32 4 150 156
33 7 148 150
34 8 145 146
35 7 145 147
36 7 145 148
37 7 147 149
38 4 101 103
39 4 101 104
40 4 101 105
41 8 457 458
42 7 457 459
43 7 457 460
44 7 400 402
45 4 402 406
46 4 402 407
47 4 402 408
48 4 269 271
49 4 269 272
50 4 269 273
51 8 571 572
52 7 571 573
53 7 571 574
54 7 664 665
55 8 661 662
56 7 661 663
57 7 661 664
58 7 574 575
59 1 575 576
60 4 575 579
61 4 575 580
62 4 576 577
63 4 576 578
64 7 573 576
65 4 114 118
66 4 114 119
67 4 114 120
68 7 112 114
69 7 351 353
70 4 186 190
71 4 186 191
72 4 186 192
73 7 183 185
74 4 138 142
75 4 138 143
76 4 138 144
77 7 136 138
78 8 133 134
79 7 133 135
80 7 133 136
81 15 736 737
82 15 736 738
83 15 736 739
84 15 736 740
85 15 736 741
86 15 736 742
87 4 354 358
88 4 354 359
89 4 354 360
90 7 352 354
91 8 349 350
92 7 349 351
93 7 349 352
94 4 353 355
95 4 353 356
96 4 353 357
97 4 185 187
98 4 185 188
99 4 185 189
100 4 41 43
101 4 41 44
102 4 41 45
103 7 135 137
104 4 137 139
105 4 137 140
106 4 137 141
107 4 78 82
108 4 78 83
109 4 78 84
110 7 519 521
111 4 521 523
112 4 521 524
113 4 521 525
114 4 474 478
115 4 474 479
116 4 474 480
117 7 472 474
118 8 469 470
119 7 469 471
120 7 469 472
121 8 433 434
122 7 433 435
123 7 433 436
124 8 581 582
125 7 581 583
126 7 581 584
127 7 583 586
128 7 584 585
129 4 586 587
130 4 586 588
131 1 585 586
132 4 585 589
133 4 585 590
134 7 328 330
135 8 325 326
136 7 325 327
137 7 325 328
138 4 330 334
139 4 330 335
140 4 330 336
141 4 426 430
142 4 426 431
143 4 426 432
144 8 701 702
145 7 701 703
146 7 701 704
147 7 704 705
148 1 705 706
149 4 705 709
150 4 705 710
151 4 706 707
152 4 706 708
153 7 703 706
154 4 666 667
155 4 666 668
156 1 665 666
157 4 665 669
158 4 665 670
159 4 329 331
160 4 329 332
161 4 329 333
162 7 327 329
163 8 421 422
164 7 421 423
165 7 421 424
166 7 423 425
167 7 424 426
168 7 255 257
169 4 257 259
170 4 257 260
171 4 257 261
172 8 253 254
173 7 253 255
174 7 253 256
175 7 663 666
176 8 671 672
177 7 671 673
178 7 671 674
179 7 673 676
180 7 674 675
181 15 750 751
182 15 750 752
183 15 750 753
184 15 750 754
185 15 750 755
186 15 750 756
187 4 425 427
188 4 425 428
189 4 425 429
190 8 205 206
191 7 205 207
192 7 205 208
193 7 208 210
194 4 210 214
195 4 210 215
196 4 210 216
197 7 184 186
198 8 181 182
199 7 181 183
200 7 181 184
201 4 209 211
202 4 209 212
203 4 209 213
204 7 207 209
205 8 505 506
206 7 505 507
207 7 505 508
208 4 509 511
209 4 509 512
210 4 509 513
211 7 507 509
212 4 438 442
213 4 438 443
214 4 438 444
215 7 123 125
216 4 125 127
217 4 125 128
218 4 125 129
219 7 220 222
220 4 222 226
221 4 222 227
222 4 222 228
223 8 217 218
224 7 217 219
225 7 217 220
226 4 510 514
227 4 510 515
228 4 510 516
229 7 508 510
230 7 436 438
231 7 435 437
232 7 76 78
233 4 522 526
234 4 522 527
235 4 522 528
236 4 221 223
237 4 221 224
238 4 221 225
239 8 49 50
240 7 49 51
241 7 49 52
242 7 219 221
243 4 390 394
244 4 390 395
245 4 390 396
246 7 388 390
247 8 385 386
248 7 385 387
249 7 385 388
250 4 566 567
251 4 566 568
252 7 563 566
253 8 73 74
254 7 73 75
255 7 73 76
256 4 77 79
257 4 77 80
258 4 77 81
259 7 75 77
260 4 54 58
261 4 54 59
262 4 54 60
263 7 52 54
264 4 90 94
265 4 90 95
266 4 90 96
267 7 88 90
268 7 387 389
269 4 389 391
270 4 389 392
271 4 389 393
272 4 89 91
273 4 89 92
274 4 89 93
275 7 87 89
276 8 85 86
277 7 85 87
278 7 85 88
279 4 258 262
280 4 258 263
281 4 258 264
282 7 256 258
283 7 554 555
284 1 555 556
285 4 555 559
286 4 555 560
287 4 556 557
288 4 556 558
289 8 551 552
290 7 551 553
291 7 551 554
292 8 25 26
293 7 25 27
294 7 25 28
295 7 28 30
296 4 676 677
297 4 676 678
298 1 675 676
299 4 675 679
300 4 675 680
301 7 376 378
302 4 378 382
303 4 378 383
304 4 378 384
305 15 743 744
306 15 743 745
307 15 743 746
308 15 743 747
309 15 743 748
310 15 743 749
311 4 29 31
312 4 29 32
313 4 29 33
314 7 27 29
315 4 30 34
316 4 30 35
317 4 30 36
318 7 364 366
319 8 361 362
320 7 361 363
321 7 361 364
322 4 366 370
323 4 366 371
324 4 366 372
325 7 363 365
326 7 124 126
327 4 126 130
328 4 126 131
329 4 126 132
330 7 340 342
331 4 342 346
332 4 342 347
333 4 342 348
334 7 643 646
335 4 646 647
336 4 646 648
337 4 450 454
338 4 450 455
339 4 450 456
340 8 517 518
341 7 517 519
342 7 517 520
343 7 520 522
344 8 121 122
345 7 121 123
346 7 121 124
347 8 337 338
348 7 337 339
349 7 337 340
350 7 339 341
351 4 437 439
352 4 437 440
353 4 437 441
354 8 641 642
355 7 641 643
356 7 641 644
357 7 644 645
358 7 51 53
359 4 53 55
360 4 53 56
361 4 53 57
362 7 412 414
363 8 409 410
364 7 409 411
365 7 409 412
366 7 411 413
367 8 601 602
368 7 601 603
369 7 601 604
370 8 561 562
371 7 561 563
372 7 561 564
373 1 565 566
374 4 565 569
375 4 565 570
376 7 564 565
377 1 595 596
378 4 595 599
379 4 595 600
380 4 596 597
381 4 596 598
382 7 593 596
383 8 691 692
384 7 691 693
385 7 691 694
386 7 694 695
387 1 695 696
388 4 695 699
389 4 695 700
390 7 693 696
391 4 696 697
392 4 696 698
393 7 603 606
394 7 604 605
395 1 605 606
396 4 605 609
397 4 605 610
398 7 594 595
399 8 591 592
400 7 591 593
401 7 591 594
402 4 162 166
403 4 162 167
404 4 162 168
405 7 160 162
406 8 241 242
407 7 241 243
408 7 241 244
409 7 244 246
410 4 246 250
411 4 246 251
412 4 246 252
413 8 193 194
414 7 193 195
415 7 193 196
416 7 196 198
417 4 198 202
418 4 198 203
419 4 198 204
420 8 157 158
421 7 157 159
422 7 157 160
423 7 553 556
424 7 243 245
425 4 245 247
426 4 245 248
427 4 245 249
428 4 365 367
429 4 365 368
430 4 365 369
431 4 377 379
432 4 377 380
433 4 377 381
434 7 375 377
435 8 373 374
436 7 373 375
437 7 373 376
438 4 197 199
439 4 197 200
440 4 197 201
441 7 195 197
442 7 316 318
443 8 313 314
444 7 313 315
445 7 313 316
446 4 17 19
447 4 17 20
448 4 17 21
449 7 15 17
450 7 279 281
451 8 277 278
452 7 277 279
453 7 277 280
454 4 281 283
455 4 281 284
456 4 281 285
457 7 447 449
458 8 445 446
459 7 445 447
460 7 445 448
461 7 448 450
462 4 306 310
463 4 306 311
464 4 306 312
465 4 414 418
466 4 414 419
467 4 414 420
468 7 624 625
469 7 623 626
470 1 625 626
471 4 625 629
472 4 625 630
473 4 626 627
474 4 626 628
475 4 341 343
476 4 341 344
477 4 341 345
478 1 645 646
479 4 645 649
480 4 645 650
481 4 497 499
482 4 497 500
483 4 497 501
484 7 495 497
485 7 724 725
486 8 493 494
487 7 493 495
488 7 493 496
489 8 1 2
490 7 1 3
491 7 1 4
492 7 3 5
493 4 6 10
494 4 6 11
495 4 6 12
496 7 4 6
497 7 63 65
498 1 725 726
499 4 725 729
500 4 725 730
501 7 496 498
502 4 498 502
503 4 498 503
504 4 498 504
505 7 653 656
506 4 656 657
507 4 656 658
508 4 606 607
509 4 606 608
510 4 726 727
511 4 726 728
512 7 543 546
513 8 541 542
514 7 541 543
515 7 541 544
516 7 544 545
517 4 546 547
518 4 546 548
519 1 545 546
520 4 545 549
521 4 545 550
522 4 486 490
523 4 486 491
524 4 486 492
525 7 484 486
526 4 233 235
527 4 233 236
528 4 233 237
529 7 231 233
530 7 634 635
531 1 635 636
532 4 635 639
533 4 635 640
534 7 159 161
535 4 161 163
536 4 161 164
537 4 161 165
538 4 282 286
539 4 282 287
540 4 282 288
541 7 280 282
542 4 318 322
543 4 318 323
544 4 318 324
545 4 113 115
546 4 113 116
547 4 113 117
548 4 449 451
549 4 449 452
550 4 449 453
551 7 304 306
552 8 301 302
553 7 301 303
554 7 301 304
555 7 303 305
556 8 13 14
557 7 13 15
558 7 13 16
559 7 16 18
560 4 18 22
561 4 18 23
562 4 18 24
563 7 315 317
564 4 317 319
565 4 317 320
566 4 317 321
567 8 621 622
568 7 621 623
569 7 621 624
570 4 413 415
571 4 413 416
572 4 413 417
573 1 715 716
574 4 715 719
575 4 715 720
576 7 714 715
577 4 716 717
578 4 716 718
579 8 711 712
580 7 711 713
581 7 711 714
582 7 713 716
583 4 65 67
584 4 65 68
585 4 65 69
586 1 685 686
587 4 685 689
588 4 685 690
589 4 5 7
590 4 5 8
591 4 5 9
592 15 764 765
593 15 764 766
594 15 764 767
595 15 764 768
596 15 764 769
597 15 764 770
598 8 61 62
599 7 61 63
600 7 61 64
601 7 64 66
602 4 66 70
603 4 66 71
604 4 66 72
605 8 721 722
606 7 721 723
607 7 721 724
608 7 459 461
609 7 723 726
610 4 686 687
611 4 686 688
612 7 683 686
613 8 651 652
614 7 651 653
615 7 651 654
616 1 655 656
617 4 655 659
618 4 655 660
619 7 654 655
620 8 97 98
621 7 97 99
622 7 97 100
623 7 100 102
624 4 102 106
625 4 102 107
626 4 102 108
627 7 99 101
628 4 462 466
629 4 462 467
630 4 462 468
631 7 460 462
632 8 481 482
633 7 481 483
634 7 481 484
635 8 265 266
636 7 265 267
637 7 265 268
638 7 267 269
639 8 229 230
640 7 229 231
641 7 229 232
642 8 631 632
643 7 631 633
644 7 631 634
645 15 757 758
646 15 757 759
647 15 757 760
648 15 757 761
649 15 757 762
650 15 757 763
651 7 531 533
652 4 533 535
653 4 533 536
654 4 533 537
655 7 483 485
656 4 485 487
657 4 485 488
658 4 485 489
659 4 270 274
660 4 270 275
661 4 270 276
662 7 268 270
663 7 232 234
664 4 234 238
665 4 234 239
666 4 234 240
667 4 636 637
668 4 636 638
669 7 633 636
670 7 111 113
671 8 109 110
672 7 109 111
673 7 109 112
674 8 529 530
675 7 529 531
676 7 529 532
677 7 532 534
678 4 534 538
679 4 534 539
680 4 534 540
681 4 305 307
682 4 305 308
683 4 305 309
684 4 293 295
685 4 293 296
686 4 293 297
687 7 291 293
688 8 289 290
689 7 289 291
690 7 289 292
691 4 616 617
692 4 616 618
693 1 615 616
694 4 615 619
695 4 615 620
696 7 614 615
697 7 613 616
698 8 611 612
699 7 611 613
700 7 611 614
701 4 174 178
702 4 174 179
703 4 174 180
704 7 172 174
705 8 169 170
706 7 169 171
707 7 169 172
708 7 171 173
709 4 173 175
710 4 173 176
711 4 173 177
712 7 292 294
713 4 294 298
714 4 294 299
715 4 294 300

Angles

1 9 37 40 42
2 4 40 42 46
3 4 40 42 47
4 4 40 42 48
5 7 46 42 47
6 7 46 42 48
7 7 47 42 48
8 11 38 37 39
9 11 38 37 40
10 12 39 37 40
11 9 37 39 41
12 9 681 684 685
13 4 147 149 151
14 4 147 149 152
15 4 147 149 153
16 7 151 149 152
17 7 151 149 153
18 7 152 149 153
19 9 469 471 473
20 4 471 473 475
21 4 471 473 476
22 4 471 473 477
23 7 475 473 476
24 7 475 473 477
25 7 476 473 477
26 4 459 461 463
27 4 459 461 464
28 4 459 461 465
29 7 463 461 464
30 7 463 461 465
31 7 464 461 465
32 11 398 397 399
33 11 398 397 400
34 12 399 397 400
35 11 682 681 683
36 11 682 681 684
37 12 683 681 684
38 9 397 399 401
39 4 399 401 403
40 4 399 401 404
41 4 399 401 405
42 7 403 401 404
43 7 403 401 405
44 7 404 401 405
45 4 148 150 154
46 4 148 150 155
47 4 148 150 156
48 7 154 150 155
49 7 154 150 156
50 7 155 150 156
51 9 145 148 150
52 11 146 145 147
53 11 146 145 148
54 12 147 145 148
55 9 145 147 149
56 4 99 101 103
57 4 99 101 104
58 4 99 101 105
59 7 103 101 104
60 7 103 101 105
61 7 104 101 105
62 11 458 457 459
63 11 458 457 460
64 12 459 457 460
65 9 397 400 402
66 4 400 402 406
67 4 400 402 407
68 4 400 402 408
69 7 406 402 407
70 7 406 402 408
71 7 407 402 408
72 4 267 269 271
73 4 267 269 272
74 4 267 269 273
75 7 271 269 272
76 7 271 269 273
77 7 272 269 273
78 11 572 571 573
79 11 572 571 574
80 12 573 571 574
81 9 661 664 665
82 11 662 661 663
83 11 662 661 664
84 12 663 661 664
85 9 571 574 575
86 13 574 575 576
87 4 576 575 579
88 4 576 575 580
89 6 579 575 580
90 13 573 576 575
91 4 575 576 577
92 4 575 576 578
93 6 577 576 578
94 9 571 573 576
95 4 112 114 118
96 4 112 114 119
97 4 112 114 120
98 7 118 114 119
99 7 118 114 120
100 7 119 114 120
101 9 109 112 114
102 9 349 351 353
103 4 184 186 190
104 4 184 186 191
105 4 184 186 192
106 7 190 186 191
107 7 190 186 192
108 7 191 186 192
109 9 181 183 185
110 4 136 138 142
111 4 136 138 143
112 4 136 138 144
113 7 142 138 143
114 7 142 138 144
115 7 143 138 144
116 9 133 136 138
117 11 134 133 135
118 11 134 133 136
119 12 135 133 136
120 18 737 736 738
121 18 739 736 740
122 18 741 736 742
123 17 737 736 739
124 17 737 736 740
125 17 737 736 741
126 17 737 736 742
127 17 738 736 739
128 17 738 736 740
129 17 738 736 741
130 17 738 736 742
131 17 739 736 741
132 17 739 736 742
133 17 740 736 741
134 17 740 736 742
135 4 352 354 358
136 4 352 354 359
137 4 352 354 360
138 7 358 354 359
139 7 358 354 360
140 7 359 354 360
141 9 349 352 354
142 11 350 349 351
143 11 350 349 352
144 12 351 349 352
145 4 351 353 355
146 4 351 353 356
147 4 351 353 357
148 7 355 353 356
149 7 355 353 357
150 7 356 353 357
151 4 183 185 187
152 4 183 185 188
153 4 183 185 189
154 7 187 185 188
155 7 187 185 189
156 7 188 185 189
157 4 39 41 43
158 4 39 41 44
159 4 39 41 45
160 7 43 41 44
161 7 43 41 45
162 7 44 41 45
163 9 133 135 137
164 4 135 137 139
165 4 135 137 140
166 4 135 137 141
167 7 139 137 140
168 7 139 137 141
169 7 140 137 141
170 4 76 78 82
171 4 76 78 83
172 4 76 78 84
173 7 82 78 83
174 7 82 78 84
175 7 83 78 84
176 9 517 519 521
177 4 519 521 523
178 4 519 521 524
179 4 519 521 525
180 7 523 521 524
181 7 523 521 525
182 7 524 521 525
183 4 472 474 478
184 4 472 474 479
185 4 472 474 480
186 7 478 474 479
187 7 478 474 480
188 7 479 474 480
189 9 469 472 474
190 11 470 469 471
191 11 470 469 472
192 12 471 469 472
193 11 434 433 435
194 11 434 433 436
195 12 435 433 436
196 11 582 581 583
197 11 582 581 584
198 12 583 581 584
199 9 581 583 586
200 9 581 584 585
201 13 583 586 585
202 4 585 586 587
203 4 585 586 588
204 6 587 586 588
205 13 584 585 586
206 4 586 585 589
207 4 586 585 590
208 6 589 585 590
209 9 325 328 330
210 11 326 325 327
211 11 326 325 328
212 12 327 325 328
213 4 328 330 334
214 4 328 330 335
215 4 328 330 336
216 7 334 330 335
217 7 334 330 336
218 7 335 330 336
219 4 424 426 430
220 4 424 426 431
221 4 424 426 432
222 7 430 426 431
223 7 430 426 432
224 7 431 426 432
225 11 702 701 703
226 11 702 701 704
227 12 703 701 704
228 9 701 704 705
229 13 704 705 706
230 4 706 705 709
231 4 706 705 710
232 6 709 705 710
233 13 703 706 705
234 4 705 706 707
235 4 705 706 708
236 6 707 706 708
237 9 701 703 706
238 13 663 666 665
239 4 665 666 667
240 4 665 666 668
241 6 667 666 668
242 13 664 665 666
243 4 666 665 669
244 4 666 665 670
245 6 669 665 670
246 4 327 329 331
247 4 327 329 332
248 4 327 329 333
249 7 331 329 332
250 7 331 329 333
251 7 332 329 333
252 9 325 327 329
253 11 422 421 423
254 11 422 421 424
255 12 423 421 424
256 9 421 423 425
257 9 421 424 426
258 9 253 255 257
259 4 255 257 259
260 4 255 257 260
261 4 255 257 261
262 7 259 257 260
263 7 259 257 261
264 7 260 257 261
265 11 254 253 255
266 11 254 253 256
267 12 255 253 256
268 9 661 663 666
269 11 672 671 673
270 11 672 671 674
271 12 673 671 674
272 9 671 673 676
273 9 671 674 675
274 18 751 750 752
275 18 753 750 754
276 18 755 750 756
277 17 751 750 753
278 17 751 750 754
279 17 751 750 755
280 17 751 750 756
281 17 752 750 753
282 17 752 750 754
283 17 752 750 755
284 17 752 750 756
285 17 753 750 755
286 17 753 750 756
287 17 754 750 755
288 17 754 750 756
289 4 423 425 427
290 4 423 425 428
291 4 423 425 429
292 7 427 425 428
293 7 427 425 429
294 7 428 425 429
295 11 206 205 207
296 11 206 205 208
297 12 207 205 208
298 9 205 208 210
299 4 208 210 214
300 4 208 210 215
301 4 208 210 216
302 7 214 210 215
303 7 214 210 216
304 7 215 210 216
305 9 181 184 186
306 11 182 181 183
307 11 182 181 184
308 12 183 181 184
309 4 207 209 211
310 4 207 209 212
311 4 207 209 213
312 7 211 209 212
313 7 211 209 213
314 7 212 209 213
315 9 205 207 209
316 11 506 505 507
317 11 506 505 508
318 12 507 505 508
319 4 507 509 511
320 4 507 509 512
321 4 507 509 513
322 7 511 509 512
323 7 511 509 513
324 7 512 509 513
325 9 505 507 509
326 4 436 438 442
327 4 436 438 443
328 4 436 438 444
329 7 442 438 443
330 7 442 438 444
331 7 443 438 444
332 9 121 123 125
333 4 123 125 127
334 4 123 125 128
335 4 123 125 129
336 7 127 125 128
337 7 127 125 129
338 7 128 125 129
339 9 217 220 222
340 4 220 222 226
341 4 220 222 227
342 4 220 222 228
343 7 226 222 227
344 7 226 222 228
345 7 227 222 228
346 11 218 217 219
347 11 218 217 220
348 12 219 217 220
349 4 508 510 514
350 4 508 510 515
351 4 508 510 516
352 7 514 510 515
353 7 514 510 516
354 7 515 510 516
355 9 505 508 510
356 9 433 436 438
357 9 433 435 437
358 9 73 76 78
359 4 520 522 526
360 4 520 522 527
361 4 520 522 528
362 7 526 522 527
363 7 526 522 528
364 7 527 522 528
365 4 219 221 223
366 4 219 221 224
367 4 219 221 225
368 7 223 221 224
369 7 223 221 225
370 7 224 221 225
371 11 50 49 51
372 11 50 49 52
373 12 51 49 52
374 9 217 219 221
375 4 388 390 394
376 4 388 390 395
377 4 388 390 396
378 7 394 390 395
379 7 394 390 396
380 7 395 390 396
381 9 385 388 390
382 11 386 385 387
383 11 386 385 388
384 12 387 385 388
385 13 563 566 565
386 4 565 566 567
387 4 565 566 568
388 6 567 566 568
389 9 561 563 566
390 11 74 73 75
391 11 74 73 76
392 12 75 73 76
393 4 75 77 79
394 4 75 77 80
395 4 75 77 81
396 7 79 77 80
397 7 79 77 81
398 7 80 77 81
399 9 73 75 77
400 4 52 54 58
401 4 52 54 59
402 4 52 54 60
403 7 58 54 59
404 7 58 54 60
405 7 59 54 60
406 9 49 52 54
407 4 88 90 94
408 4 88 90 95
409 4 88 90 96
410 7 94 90 95
411 7 94 90 96
412 7 95 90 96
413 9 85 88 90
414 9 385 387 389
415 4 387 389 391
416 4 387 389 392
417 4 387 389 393
418 7 391 389 392
419 7 391 389 393
420 7 392 389 393
421 4 87 89 91
422 4 87 89 92
423 4 87 89 93
424 7 91 89 92
425 7 91 89 93
426 7 92 89 93
427 9 85 87 89
428 11 86 85 87
429 11 86 85 88
430 12 87 85 88
431 4 256 258 262
432 4 256 258 263
433 4 256 258 264
434 7 262 258 263
435 7 262 258 264
436 7 263 258 264
437 9 253 256 258
438 9 551 554 555
439 13 554 555 556
440 4 556 555 559
441 4 556 555 560
442 6 559 555 560
443 13 553 556 555
444 4 555 556 557
445 4 555 556 558
446 6 557 556 558
447 11 552 551 553
448 11 552 551 554
449 12 553 551 554
450 11 26 25 27
451 11 26 25 28
452 12 27 25 28
453 9 25 28 30
454 13 673 676 675
455 4 675 676 677
456 4 675 676 678
457 6 677 676 678
458 13 674 675 676
459 4 676 675 679
460 4 676 675 680
461 6 679 675 680
462 9 373 376 378
463 4 376 378 382
464 4 376 378 383
465 4 376 378 384
466 7 382 378 383
467 7 382 378 384
468 7 383 378 384
469 18 744 743 745
470 18 746 743 747
471 18 748 743 749
472 17 744 743 746
473 17 744 743 747
474 17 744 743 748
475 17 744 743 749
476 17 745 743 746
477 17 745 743 747
478 17 745 743 748
479 17 745 743 749
480 17 746 743 748
481 17 746 743 749
482 17 747 743 748
483 17 747 743 749
484 4 27 29 31
485 4 27 29 32
486 4 27 29 33
487 7 31 29 32
488 7 31 29 33
489 7 32 29 33
490 9 25 27 29
491 4 28 30 34
492 4 28 30 35
493 4 28 30 36
494 7 34 30 35
495 7 34 30 36
496 7 35 30 36
497 9 361 364 366
498 11 362 361 363
499 11 362 361 364
500 12 363 361 364
501 4 364 366 370
502 4 364 366 371
503 4 364 366 372
504 7 370 366 371
505 7 370 366 372
506 7 371 366 372
507 9 361 363 365
508 9 121 124 126
509 4 124 126 130
510 4 124 126 131
511 4 124 126 132
512 7 130 126 131
513 7 130 126 132
514 7 131 126 132
515 9 337 340 342
516 4 340 342 346
517 4 340 342 347
518 4 340 342 348
519 7 346 342 347
520 7 346 342 348
521 7 347 342 348
522 9 641 643 646
523 13 643 646 645
524 4 645 646 647
525 4 645 646 648
526 6 647 646 648
527 4 448 450 454
528 4 448 450 455
529 4 448 450 456
530 7 454 450 455
531 7 454 450 456
532 7 455 450 456
533 11 518 517 519
534 11 518 517 520
535 12 519 517 520
536 9 517 520 522
537 11 122 121 123
538 11 122 121 124
539 12 123 121 124
540 11 338 337 339
541 11 338 337 340
542 12 339 337 340
543 9 337 339 341
544 4 435 437 439
545 4 435 437 440
546 4 435 437 441
547 7 439 437 440
548 7 439 437 441
549 7 440 437 441
550 11 642 641 643
551 11 642 641 644
552 12 643 641 644
553 9 641 644 645
554 9 49 51 53
555 4 51 53 55
556 4 51 53 56
557 4 51 53 57
558 7 55 53 56
559 7 55 53 57
560 7 56 53 57
561 9 409 412 414
562 11 410 409 411
563 11 410 409 412
564 12 411 409 412
565 9 409 411 413
566 11 602 601 603
567 11 602 601 604
568 12 603 601 604
569 11 562 561 563
570 11 562 561 564
571 12 563 561 564
572 13 564 565 566
573 4 566 565 569
574 4 566 565 570
575 6 569 565 570
576 9 561 564 565
577 13 594 595 596
578 4 596 595 599
579 4 596 595 600
580 6 599 595 600
581 13 593 596 595
582 4 595 596 597
583 4 595 596 598
584 6 597 596 598
585 9 591 593 596
586 11 692 691 693
587 11 692 691 694
588 12 693 691 694
589 9 691 694 695
590 13 694 695 696
591 4 696 695 699
592 4 696 695 700
593 6 699 695 700
594 9 691 693 696
595 13 693 696 695
596 4 695 696 697
597 4 695 696 698
598 6 697 696 698
599 9 601 603 606
600 9 601 604 605
601 13 604 605 606
602 4 606 605 609
603 4 606 605 610
604 6 609 605 610
605 9 591 594 595
606 11 592 591 593
607 11 592 591 594
608 12 593 591 594
609 4 160 162 166
610 4 160 162 167
611 4 160 162 168
612 7 166 162 167
613 7 166 162 168
614 7 167 162 168
615 9 157 160 162
616 11 242 241 243
617 11 242 241 244
618 12 243 241 244
619 9 241 244 246
620 4 244 246 250
621 4 244 246 251
622 4 244 246 252
623 7 250 246 251
624 7 250 246 252
625 7 251 246 252
626 11 194 193 195
627 11 194 193 196
628 12 195 193 196
629 9 193 196 198
630 4 196 198 202
631 4 196 198 203
632 4 196 198 204
633 7 202 198 203
634 7 202 198 204
635 7 203 198 204
636 11 158 157 159
637 11 158 157 160
638 12 159 157 160
639 9 551 553 556
640 9 241 243 245
641 4 243 245 247
642 4 243 245 248
643 4 243 245 249
644 7 247 245 248
645 7 247 245 249
646 7 248 245 249
647 4 363 365 367
648 4 363 365 368
649 4 363 365 369
650 7 367 365 368
651 7 367 365 369
652 7 368 365 369
653 4 375 377 379
654 4 375 377 380
655 4 375 377 381
656 7 379 377 380
657 7 379 377 381
658 7 380 377 381
659 9 373 375 377
660 11 374 373 375
661 11 374 373 376
662 12 375 373 376
663 4 195 197 199
664 4 195 197 200
665 4 195 197 201
666 7 199 197 200
667 7 199 197 201
668 7 200 197 201
669 9 193 195 197
670 9 313 316 318
671 11 314 313 315
672 11 314 313 316
673 12 315 313 316
674 4 15 17 19
675 4 15 17 20
676 4 15 17 21
677 7 19 17 20
678 7 19 17 21
679 7 20 17 21
680 9 13 15 17
681 9 277 279 281
682 11 278 277 279
683 11 278 277 280
684 12 279 277 280
685 4 279 281 283
686 4 279 281 284
687 4 279 281 285
688 7 283 281 284
689 7 283 281 285
690 7 284 281 285
691 9 445 447 449
692 11 446 445 447
693 11 446 445 448
694 12 447 445 448
695 9 445 448 450
696 4 304 306 310
697 4 304 306 311
698 4 304 306 312
699 7 310 306 311
700 7 310 306 312
701 7 311 306 312
702 4 412 414 418
703 4 412 414 419
704 4 412 414 420
705 7 418 414 419
706 7 418 414 420
707 7 419 414 420
708 9 621 624 625
709 9 621 623 626
710 13 624 625 626
711 4 626 625 629
712 4 626 625 630
713 6 629 625 630
714 13 623 626 625
715 4 625 626 627
716 4 625 626 628
717 6 627 626 628
718 4 339 341 343
719 4 339 341 344
720 4 339 341 345
721 7 343 341 344
722 7 343 341 345
723 7 344 341 345
724 13 644 645 646
725 4 646 645 649
726 4 646 645 650
727 6 649 645 650
728 4 495 497 499
729 4 495 497 500
730 4 495 497 501
731 7 499 497 500
732 7 499 497 501
733 7 500 497 501
734 9 493 495 497
735 9 721 724 725
736 11 494 493 495
737 11 494 493 496
738 12 495 493 496
739 11 2 1 3
740 11 2 1 4
741 12 3 1 4
742 9 1 3 5
743 4 4 6 10
744 4 4 6 11
745 4 4 6 12
746 7 10 6 11
747 7 10 6 12
748 7 11 6 12
749 9 1 4 6
750 9 61 63 65
751 13 724 725 726
752 4 726 725 729
753 4 726 725 730
754 6 729 725 730
755 9 493 496 498
756 4 496 498 502
757 4 496 498 503
758 4 496 498 504
759 7 502 498 503
760 7 502 498 504
761 7 503 498 504
762 9 651 653 656
763 13 653 656 655
764 4 655 656 657
765 4 655 656 658
766 6 657 656 658
767 13 603 606 605
768 4 605 606 607
769 4 605 606 608
770 6 607 606 608
771 13 723 726 725
772 4 725 726 727
773 4 725 726 728
774 6 727 726 728
775 9 541 543 546
776 11 542 541 543
777 11 542 541 544
778 12 543 541 544
779 9 541 544 545
780 13 543 546 545
781 4 545 546 547
782 4 545 546 548
783 6 547 546 548
784 13 544 545 546
785 4 546 545 549
786 4 546 545 550
787 6 549 545 550
788 4 484 486 490
789 4 484 486 491
790 4 484 486 492
791 7 490 486 491
792 7 490 486 492
793 7 491 486 492
794 9 481 484 486
795 4 231 233 235
796 4 231 233 236
797 4 231 233 237
798 7 235 233 236
799 7 235 233 237
800 7 236 233 237
801 9 229 231 233
802 9 631 634 635
803 13 634 635 636
804 4 636 635 639
805 4 636 635 640
806 6 639 635 640
807 9 157 159 161
808 4 159 161 163
809 4 159 161 164
810 4 159 161 165
811 7 163 161 164
812 7 163 161 165
813 7 164 161 165
814 4 280 282 286
815 4 280 282 287
816 4 280 282 288
817 7 286 282 287
818 7 286 282 288
819 7 287 282 288
820 9 277 280 282
821 4 316 318 322
822 4 316 318 323
823 4 316 318 324
824 7 322 318 323
825 7 322 318 324
826 7 323 318 324
827 4 111 113 115
828 4 111 113 116
829 4 111 113 117
830 7 115 113 116
831 7 115 113 117
832 7 116 113 117
833 4 447 449 451
834 4 447 449 452
835 4 447 449 453
836 7 451 449 452
837 7 451 449 453
838 7 452 449 453
839 9 301 304 306
840 11 302 301 303
841 11 302 301 304
842 12 303 301 304
843 9 301 303 305
844 11 14 13 15
845 11 14 13 16
846 12 15 13 16
847 9 13 16 18
848 4 16 18 22
849 4 16 18 23
850 4 16 18 24
851 7 22 18 23
852 7 22 18 24
853 7 23 18 24
854 9 313 315 317
855 4 315 317 319
856 4 315 317 320
857 4 315 317 321
858 7 319 317 320
859 7 319 317 321
860 7 320 317 321
861 11 622 621 623
862 11 622 621 624
863 12 623 621 624
864 4 411 413 415
865 4 411 413 416
866 4 411 413 417
867 7 415 413 416
868 7 415 413 417
869 7 416 413 417
870 13 714 715 716
871 4 716 715 719
872 4 716 715 720
873 6 719 715 720
874 9 711 714 715
875 13 713 716 715
876 4 715 716 717
877 4 715 716 718
878 6 717 716 718
879 11 712 711 713
880 11 712 711 714
881 12 713 711 714
882 9 711 713 716
883 4 63 65 67
884 4 63 65 68
885 4 63 65 69
886 7 67 65 68
887 7 67 65 69
888 7 68 65 69
889 13 684 685 686
890 4 686 685 689
891 4 686 685 690
892 6 689 685 690
893 4 3 5 7
894 4 3 5 8
895 4 3 5 9
896 7 7 5 8
897 7 7 5 9
898 7 8 5 9
899 18 765 764 766
900 18 767 764 768
901 18 769 764 770
902 17 765 764 767
903 17 765 764 768
904 17 765 764 769
905 17 765 764 770
906 17 766 764 767
907 17 766 764 768
908 17 766 764 769
909 17 766 764 770
910 17 767 764 769
911 17 767 764 770
912 17 768 764 769
913 17 768 764 770
914 11 62 61 63
915 11 62 61 64
916 12 63 61 64
917 9 61 64 66
918 4 64 66 70
919 4 64 66 71
920 4 64 66 72
921 7 70 66 71
922 7 70 66 72
923 7 71 66 72
924 11 722 721 723
925 11 722 721 724
926 12 723 721 724
927 9 457 459 461
928 9 721 723 726
929 13 683 686 685
930 4 685 686 687
931 4 685 686 688
932 6 687 686 688
933 9 681 683 686
934 11 652 651 653
935 11 652 651 654
936 12 653 651 654
937 13 654 655 656
938 4 656 655 659
939 4 656 655 660
940 6 659 655 660
941 9 651 654 655
942 11 98 97 99
943 11 98 97 100
944 12 99 97 100
945 9 97 100 102
946 4 100 102 106
947 4 100 102 107
948 4 100 102 108
949 7 106 102 107
950 7 106 102 108
951 7 107 102 108
952 9 97 99 101
953 4 460 462 466
954 4 460 462 467
955 4 460 462 468
956 7 466 462 467
957 7 466 462 468
958 7 467 462 468
959 9 457 460 462
960 11 482 481 483
961 11 482 481 484
962 12 483 481 484
963 11 266 265 267
964 11 266 265 268
965 12 267 265 268
966 9 265 267 269
967 11 230 229 231
968 11 230 229 232
969 12 231 229 232
970 11 632 631 633
971 11 632 631 634
972 12 633 631 634
973 18 758 757 759
974 18 760 757 761
975 18 762 757 763
976 17 758 757 760
977 17 758 757 761
978 17 758 757 762
979 17 758 757 763
980 17 759 757 760
981 17 759 757 761
982 17 759 757 762
983 17 759 757 763
984 17 760 757 762
985 17 760 757 763
986 17 761 757 762
987 17 761 757 763
988 9 529 531 533
989 4 531 533 535
990 4 531 533 536
991 4 531 533 537
992 7 535 533 536
993 7 535 533 537
994 7 536 533 537
995 9 481 483 485
996 4 483 485 487
997 4 483 485 488
998 4 483 485 489
999 7 487 485 488
1000 7 487 485 489
1001 7 488 485 489
1002 4 268 270 274
1003 4 268 270 275
1004 4 268 270 276
1005 7 274 270 275
1006 7 274 270 276
1007 7 275 270 276
1008 9 265 268 270
1009 9 229 232 234
1010 4 232 234 238
1011 4 232 234 239
1012 4 232 234 240
1013 7 238 234 239
1014 7 238 234 240
1015 7 239 234 240
1016 13 633 636 635
1017 4 635 636 637
1018 4 635 636 638
1019 6 637 636 638
1020 9 631 633 636
1021 9 109 111 113
1022 11 110 109 111
1023 11 110 109 112
1024 12 111 109 112
1025 11 530 529 531
1026 11 530 529 532
1027 12 531 529 532
1028 9 529 532 534
1029 4 532 534 538
1030 4 532 534 539
1031 4 532 534 540
1032 7 538 534 539
1033 7 538 534 540
1034 7 539 534 540
1035 4 303 305 307
1036 4 303 305 308
1037 4 303 305 309
1038 7 307 305 308
1039 7 307 305 309
1040 7 308 305 309
1041 4 291 293 295
1042 4 291 293 296
1043 4 291 293 297
1044 7 295 293 296
1045 7 295 293 297
1046 7 296 293 297
1047 9 289 291 293
1048 11 290 289 291
1049 11 290 289 292
1050 12 291 289 292
1051 13 613 616 615
1052 4 615 616 617
1053 4 615 616 618
1054 6 617 616 618
1055 13 614 615 616
1056 4 616 615 619
1057 4 616 615 620
1058 6 619 615 620
1059 9 611 614 615
1060 9 611 613 616
1061 11 612 611 613
1062 11 612 611 614
1063 12 613 611 614
1064 4 172 174 178
1065 4 172 174 179
1066 4 172 174 180
1067 7 178 174 179
1068 7 178 174 180
1069 7 179 174 180
1070 9 169 172 174
1071 11 170 169 171
1072 11 170 169 172
1073 12 171 169 172
1074 9 169 171 173
1075 4 171 173 175
1076 4 171 173 176
1077 4 171 173 177
1078 7 175 173 176
1079 7 175 173 177
1080 7 176 173 177
1081 9 289 292 294
1082 4 292 294 298
1083 4 292 294 299
1084 4 292 294 300
1085 7 298 294 299
1086 7 298 294 300
1087 7 299 294 300

Dihedrals

1 6 37 40 42 46
2 6 37 40 42 47
3 6 37 40 42 48
4 8 38 37 39 41
5 8 38 37 40 42
6 6 37 39 41 43
7 6 37 39 41 44
8 6 37 39 41 45
9 7 681 684 685 686
10 6 469 471 473 475
11 6 469 471 473 476
12 6 469 471 473 477
13 8 398 397 399 401
14 8 398 397 400 402
15 8 682 681 683 686
16 8 682 681 684 685
17 6 397 399 401 403
18 6 397 399 401 404
19 6 397 399 401 405
20 6 145 148 150 154
21 6 145 148 150 155
22 6 145 148 150 156
23 8 146 145 147 149
24 8 146 145 148 150
25 6 145 147 149 151
26 6 145 147 149 152
27 6 145 147 149 153
28 8 458 457 459 461
29 8 458 457 460 462
30 6 397 400 402 406
31 6 397 400 402 407
32 6 397 400 402 408
33 8 572 571 573 576
34 8 572 571 574 575
35 7 661 664 665 666
36 8 662 661 663 666
37 8 662 661 664 665
38 7 571 574 575 576
39 7 573 576 575 574
40 5 571 573 576 575
41 6 109 112 114 118
42 6 109 112 114 119
43 6 109 112 114 120
44 6 349 351 353 355
45 6 349 351 353 356
46 6 349 351 353 357
47 6 181 183 185 187
48 6 181 183 185 188
49 6 181 183 185 189
50 6 133 136 138 142
51 6 133 136 138 143
52 6 133 136 138 144
53 8 134 133 135 137
54 8 134 133 136 138
55 6 349 352 354 358
56 6 349 352 354 359
57 6 349 352 354 360
58 8 350 349 351 353
59 8 350 349 352 354
60 6 133 135 137 139
61 6 133 135 137 140
62 6 133 135 137 141
63 6 517 519 521 523
64 6 517 519 521 524
65 6 517 519 521 525
66 6 469 472 474 478
67 6 469 472 474 479
68 6 469 472 474 480
69 8 470 469 471 473
70 8 470 469 472 474
71 8 434 433 435 437
72 8 434 433 436 438
73 8 582 581 583 586
74 8 582 581 584 585
75 5 581 583 586 585
76 7 581 584 585 586
77 7 583 586 585 584
78 6 325 328 330 334
79 6 325 328 330 335
80 6 325 328 330 336
81 8 326 325 327 329
82 8 326 325 328 330
83 8 702 701 703 706
84 8 702 701 704 705
85 7 701 704 705 706
86 7 703 706 705 704
87 5 701 703 706 705
88 7 663 666 665 664
89 6 325 327 329 331
90 6 325 327 329 332
91 6 325 327 329 333
92 8 422 421 423 425
93 8 422 421 424 426
94 6 421 423 425 427
95 6 421 423 425 428
96 6 421 423 425 429
97 6 421 424 426 430
98 6 421 424 426 431
99 6 421 424 426 432
100 6 253 255 257 259
101 6 253 255 257 260
102 6 253 255 257 261
103 8 254 253 255 257
104 8 254 253 256 258
105 5 661 663 666 665
106 8 672 671 673 676
107 8 672 671 674 675
108 5 671 673 676 675
109 7 671 674 675 676
110 8 206 205 207 209
111 8 206 205 208 210
112 6 205 208 210 214
113 6 205 208 210 215
114 6 205 208 210 216
115 6 181 184 186 190
116 6 181 184 186 191
117 6 181 184 186 192
118 8 182 181 183 185
119 8 182 181 184 186
120 6 205 207 209 211
121 6 205 207 209 212
122 6 205 207 209 213
123 8 506 505 507 509
124 8 506 505 508 510
125 6 505 507 509 511
126 6 505 507 509 512
127 6 505 507 509 513
128 6 121 123 125 127
129 6 121 123 125 128
130 6 121 123 125 129
131 6 217 220 222 226
132 6 217 220 222 227
133 6 217 220 222 228
134 8 218 217 219 221
135 8 218 217 220 222
136 6 505 508 510 514
137 6 505 508 510 515
138 6 505 508 510 516
139 6 433 436 438 442
140 6 433 436 438 443
141 6 433 436 438 444
142 6 433 435 437 439
143 6 433 435 437 440
144 6 433 435 437 441
145 6 73 76 78 82
146 6 73 76 78 83
147 6 73 76 78 84
148 8 50 49 51 53
149 8 50 49 52 54
150 6 217 219 221 223
151 6 217 219 221 224
152 6 217 219 221 225
153 6 385 388 390 394
154 6 385 388 390 395
155 6 385 388 390 396
156 8 386 385 387 389
157 8 386 385 388 390
158 7 563 566 565 564
159 5 561 563 566 565
160 8 74 73 75 77
161 8 74 73 76 78
162 6 73 75 77 79
163 6 73 75 77 80
164 6 73 75 77 81
165 6 49 52 54 58
166 6 49 52 54 59
167 6 49 52 54 60
168 6 85 88 90 94
169 6 85 88 90 95
170 6 85 88 90 96
171 6 385 387 389 391
172 6 385 387 389 392
173 6 385 387 389 393
174 6 85 87 89 91
175 6 85 87 89 92
176 6 85 87 89 93
177 8 86 85 87 89
178 8 86 85 88 90
179 6 253 256 258 262
180 6 253 256 258 263
181 6 253 256 258 264
182 7 551 554 555 556
183 7 553 556 555 554
184 8 552 551 553 556
185 8 552 551 554 555
186 8 26 25 27 29
187 8 26 25 28 30
188 6 25 28 30 34
189 6 25 28 30 35
190 6 25 28 30 36
191 7 673 676 675 674
192 6 373 376 378 382
193 6 373 376 378 383
194 6 373 376 378 384
195 6 25 27 29 31
196 6 25 27 29 32
197 6 25 27 29 33
198 6 361 364 366 370
199 6 361 364 366 371
200 6 361 364 366 372
201 8 362 361 363 365
202 8 362 361 364 366
203 6 361 363 365 367
204 6 361 363 365 368
205 6 361 363 365 369
206 6 121 124 126 130
207 6 121 124 126 131
208 6 121 124 126 132
209 6 337 340 342 346
210 6 337 340 342 347
211 6 337 340 342 348
212 5 641 643 646 645
213 7 643 646 645 644
214 8 518 517 519 521
215 8 518 517 520 522
216 6 517 520 522 526
217 6 517 520 522 527
218 6 517 520 522 528
219 8 122 121 123 125
220 8 122 121 124 126
221 8 338 337 339 341
222 8 338 337 340 342
223 6 337 339 341 343
224 6 337 339 341 344
225 6 337 339 341 345
226 8 642 641 643 646
227 8 642 641 644 645
228 7 641 644 645 646
229 6 49 51 53 55
230 6 49 51 53 56
231 6 49 51 53 57
232 6 409 412 414 418
233 6 409 412 414 419
234 6 409 412 414 420
235 8 410 409 411 413
236 8 410 409 412 414
237 6 409 411 413 415
238 6 409 411 413 416
239 6 409 411 413 417
240 8 602 601 603 606
241 8 602 601 604 605
242 8 562 561 563 566
243 8 562 561 564 565
244 7 561 564 565 566
245 7 593 596 595 594
246 5 591 593 596 595
247 8 692 691 693 696
248 8 692 691 694 695
249 7 691 694 695 696
250 5 691 693 696 695
251 7 693 696 695 694
252 5 601 603 606 605
253 7 601 604 605 606
254 7 591 594 595 596
255 8 592 591 593 596
256 8 592 591 594 595
257 6 157 160 162 166
258 6 157 160 162 167
259 6 157 160 162 168
260 8 242 241 243 245
261 8 242 241 244 246
262 6 241 244 246 250
263 6 241 244 246 251
264 6 241 244 246 252
265 8 194 193 195 197
266 8 194 193 196 198
267 6 193 196 198 202
268 6 193 196 198 203
269 6 193 196 198 204
270 8 158 157 159 161
271 8 158 157 160 162
272 5 551 553 556 555
273 6 241 243 245 247
274 6 241 243 245 248
275 6 241 243 245 249
276 6 373 375 377 379
277 6 373 375 377 380
278 6 373 375 377 381
279 8 374 373 375 377
280 8 374 373 376 378
281 6 193 195 197 199
282 6 193 195 197 200
283 6 193 195 197 201
284 6 313 316 318 322
285 6 313 316 318 323
286 6 313 316 318 324
287 8 314 313 315 317
288 8 314 313 316 318
289 6 13 15 17 19
290 6 13 15 17 20
291 6 13 15 17 21
292 6 277 279 281 283
293 6 277 279 281 284
294 6 277 279 281 285
295 8 278 277 279 281
296 8 278 277 280 282
297 6 445 447 449 451
298 6 445 447 449 452
299 6 445 447 449 453
300 8 446 445 447 449
301 8 446 445 448 450
302 6 445 448 450 454
303 6 445 448 450 455
304 6 445 448 450 456
305 7 621 624 625 626
306 5 621 623 626 625
307 7 623 626 625 624
308 6 493 495 497 499
309 6 493 495 497 500
310 6 493 495 497 501
311 7 721 724 725 726
312 8 494 493 495 497
313 8 494 493 496 498
314 8 2 1 3 5
315 8 2 1 4 6
316 6 1 3 5 7
317 6 1 3 5 8
318 6 1 3 5 9
319 6 1 4 6 10
320 6 1 4 6 11
321 6 1 4 6 12
322 6 61 63 65 67
323 6 61 63 65 68
324 6 61 63 65 69
325 6 493 496 498 502
326 6 493 496 498 503
327 6 493 496 498 504
328 5 651 653 656 655
329 7 653 656 655 654
330 7 603 606 605 604
331 7 723 726 725 724
332 5 541 543 546 545
333 8 542 541 543 546
334 8 542 541 544 545
335 7 541 544 545 546
336 7 543 546 545 544
337 6 481 484 486 490
338 6 481 484 486 491
339 6 481 484 486 492
340 6 229 231 233 235
341 6 229 231 233 236
342 6 229 231 233 237
343 7 631 634 635 636
344 6 157 159 161 163
345 6 157 159 161 164
346 6 157 159 161 165
347 6 277 280 282 286
348 6 277 280 282 287
349 6 277 280 282 288
350 6 301 304 306 310
351 6 301 304 306 311
352 6 301 304 306 312
353 8 302 301 303 305
354 8 302 301 304 306
355 6 301 303 305 307
356 6 301 303 305 308
357 6 301 303 305 309
358 8 14 13 15 17
359 8 14 13 16 18
360 6 13 16 18 22
361 6 13 16 18 23
362 6 13 16 18 24
363 6 313 315 317 319
364 6 313 315 317 320
365 6 313 315 317 321
366 8 622 621 623 626
367 8 622 621 624 625
368 7 711 714 715 716
369 7 713 716 715 714
370 8 712 711 713 716
371 8 712 711 714 715
372 5 711 713 716 715
373 8 62 61 63 65
374 8 62 61 64 66
375 6 61 64 66 70
376 6 61 64 66 71
377 6 61 64 66 72
378 8 722 721 723 726
379 8 722 721 724 725
380 6 457 459 461 463
381 6 457 459 461 464
382 6 457 459 461 465
383 5 721 723 726 725
384 7 683 686 685 684
385 5 681 683 686 685
386 8 652 651 653 656
387 8 652 651 654 655
388 7 651 654 655 656
389 8 98 97 99 101
390 8 98 97 100 102
391 6 97 100 102 106
392 6 97 100 102 107
393 6 97 100 102 108
394 6 97 99 101 103
395 6 97 99 101 104
396 6 97 99 101 105
397 6 457 460 462 466
398 6 457 460 462 467
399 6 457 460 462 468
400 8 482 481 483 485
401 8 482 481 484 486
402 8 266 265 267 269
403 8 266 265 268 270
404 6 265 267 269 271
405 6 265 267 269 272
406 6 265 267 269 273
407 8 230 229 231 233
408 8 230 229 232 234
409 8 632 631 633 636
410 8 632 631 634 635
411 6 529 531 533 535
412 6 529 531 533 536
413 6 529 531 533 537
414 6 481 483 485 487
415 6 481 483 485 488
416 6 481 483 485 489
417 6 265 268 270 274
418 6 265 268 270 275
419 6 265 268 270 276
420 6 229 232 234 238
421 6 229 232 234 239
422 6 229 232 234 240
423 7 633 636 635 634
424 5 631 633 636 635
425 6 109 111 113 115
426 6 109 111 113 116
427 6 109 111 113 117
428 8 110 109 111 113
429 8 110 109 112 114
430 8 530 529 531 533
431 8 530 529 532 534
432 6 529 532 534 538
433 6 529 532 534 539
434 6 529 532 534 540
435 6 289 291 293 295
436 6 289 291 293 296
437 6 289 291 293 297
438 8 290 289 291 293
439 8 290 289 292 294
440 7 613 616 615 614
441 7 611 614 615 616
442 5 611 613 616 615
443 8 612 611 613 616
444 8 612 611 614 615
445 6 169 172 174 178
446 6 169 172 174 179
447 6 169 172 174 180
448 8 170 169 171 173
449 8 170 169 172 174
450 6 169 171 173 175
451 6 169 171 173 176
452 6 169 171 173 177
453 6 289 292 294 298
454 6 289 292 294 299
455 6 289 292 294 300
