LAMMPS Description

770  atoms
715  bonds
1087  angles
455  dihedrals
0  impropers

31  atom types
17  bond types
18  angle types
9  dihedral types
2  improper types

0.0 20.000000 xlo xhi
0.0 20.000000 ylo yhi
0.0 20.000000 zlo zhi

Masses

1 12.011  # opls_135
2 12.011  # opls_136
3 12.011  # opls_137
4 12.011  # opls_138
5 12.011  # opls_141
6 12.011  # opls_142
7 12.011  # opls_145
8 12.011  # opls_146
9 12.011  # opls_209
10 12.011  # opls_212
11 1.008  # opls_140
12 1.008  # opls_139
13 1.008  # opls_143
14 1.008  # opls_148
15 1.008  # opls_154
16 1.008  # opls_160
17 1.008  # opls_210
18 15.999  # opls_154O
19 15.999  # opls_156
20 15.999  # opls_211
21 15.999  # opls_213
22 14.007  # opls_157
23 14.007  # opls_158
24 14.007  # opls_159
25 14.007  # opls_236
26 18.998  # opls_303
27 30.974  # opls_901
28 6.941  # opls_402
29 32.065  # opls_180
30 32.065  # opls_903
31 6.941  # Li

Atoms

1 1 9 +0.52 2.368 17.522 3.307
2 1 20 -0.50 1.405 18.238 3.345
3 1 19 -0.35 3.595 18.046 3.042
4 1 19 -0.35 2.232 16.187 3.529
5 1 1 +0.22 3.638 19.458 2.822
6 1 1 +0.22 0.905 15.729 3.799
7 1 11 +0.06 2.634 19.872 2.912
8 1 11 +0.06 4.290 19.921 3.564
9 1 11 +0.06 4.026 19.659 1.823
10 1 11 +0.06 0.918 14.650 3.960
11 1 11 +0.06 0.523 16.224 4.692
12 1 11 +0.06 0.260 15.961 2.952
13 2 9 +0.52 10.262 1.028 13.075
14 2 20 -0.50 9.892 2.122 12.750
15 2 19 -0.35 10.720 0.158 12.135
16 2 19 -0.35 10.224 0.659 14.384
17 2 1 +0.22 10.722 0.635 10.788
18 2 1 +0.22 9.728 1.640 15.298
19 2 11 +0.06 10.339 1.655 10.762
20 2 11 +0.06 11.740 0.620 10.398
21 2 11 +0.06 10.089 -0.006 10.174
22 2 11 +0.06 9.744 1.235 16.310
23 2 11 +0.06 10.356 2.529 15.254
24 2 11 +0.06 8.705 1.904 15.029
25 3 9 +0.52 8.986 14.078 5.966
26 3 20 -0.50 9.948 14.637 5.518
27 3 19 -0.35 9.015 12.734 6.174
28 3 19 -0.35 7.865 14.788 6.265
29 3 1 +0.22 10.236 12.074 5.829
30 3 1 +0.22 7.928 16.194 6.013
31 3 11 +0.06 10.949 12.803 5.447
32 3 11 +0.06 10.650 11.591 6.715
33 3 11 +0.06 10.039 11.322 5.065
34 3 11 +0.06 6.979 16.656 6.289
35 3 11 +0.06 8.731 16.635 6.604
36 3 11 +0.06 8.120 16.366 4.954
37 4 9 +0.52 15.940 7.921 2.325
38 4 20 -0.50 16.145 9.099 2.428
39 4 19 -0.35 16.911 7.029 2.660
40 4 19 -0.35 14.736 7.477 1.874
41 4 1 +0.22 18.142 7.589 3.123
42 4 1 +0.22 13.779 8.488 1.547
43 4 11 +0.06 18.071 8.677 3.123
44 4 11 +0.06 18.342 7.239 4.136
45 4 11 +0.06 18.954 7.278 2.465
46 4 11 +0.06 12.858 8.017 1.199
47 4 11 +0.06 13.566 9.088 2.432
48 4 11 +0.06 14.178 9.128 0.760
49 5 9 +0.52 2.513 2.268 13.089
50 5 20 -0.50 3.371 3.104 13.024
51 5 19 -0.35 2.809 0.968 12.816
52 5 19 -0.35 1.246 2.619 13.434
53 5 1 +0.22 4.167 0.696 12.462
54 5 1 +0.22 1.031 4.007 13.702
55 5 11 +0.06 4.740 1.622 12.477
56 5 11 +0.06 4.594 -0.008 13.177
57 5 11 +0.06 4.202 0.263 11.462
58 5 11 +0.06 -0.014 4.169 13.967
59 5 11 +0.06 1.668 4.321 14.530
60 5 11 +0.06 1.275 4.592 12.815
61 6 9 +0.52 17.042 17.514 5.349
62 6 20 -0.50 17.606 18.225 4.564
63 6 19 -0.35 17.686 16.438 5.877
64 6 19 -0.35 15.759 17.783 5.710
65 6 1 +0.22 19.031 16.236 5.438
66 6 1 +0.22 15.166 18.934 5.103
67 6 11 +0.06 19.304 17.017 4.729
68 6 11 +0.06 19.703 16.273 6.296
69 6 11 +0.06 19.113 15.261 4.955
70 6 11 +0.06 14.143 19.050 5.466
71 6 11 +0.06 15.744 19.821 5.361
72 6 11 +0.06 15.154 18.809 4.021
73 7 9 +0.52 9.638 11.653 19.164
74 7 20 -0.50 10.793 11.978 19.159
75 7 19 -0.35 8.664 12.602 19.164
76 7 19 -0.35 9.303 10.335 19.171
77 7 1 +0.22 9.113 13.960 19.156
78 7 1 +0.22 10.394 9.411 19.171
79 7 11 +0.06 10.203 13.983 19.152
80 7 11 +0.06 8.735 14.463 18.266
81 7 11 +0.06 8.742 14.470 20.046
82 7 11 +0.06 10.007 8.391 19.177
83 7 11 +0.06 11.001 9.563 18.278
84 7 11 +0.06 11.007 9.571 20.058
85 8 9 +0.52 6.057 3.837 15.801
86 8 20 -0.50 5.739 4.658 14.987
87 8 19 -0.35 5.113 3.037 16.365
88 8 19 -0.35 7.363 3.705 16.159
89 8 1 +0.22 3.769 3.249 15.926
90 8 1 +0.22 8.282 4.589 15.513
91 8 11 +0.06 3.750 4.049 15.186
92 8 11 +0.06 3.384 2.331 15.480
93 8 11 +0.06 3.148 3.526 16.778
94 8 11 +0.06 9.292 4.393 15.877
95 8 11 +0.06 8.247 4.426 14.436
96 8 11 +0.06 8.011 5.621 15.734
97 9 9 +0.52 4.939 9.533 10.337
98 9 20 -0.50 6.082 9.543 9.970
99 9 19 -0.35 4.466 8.484 11.061
100 9 19 -0.35 4.117 10.572 10.028
101 9 1 +0.22 5.404 7.440 11.337
102 9 1 +0.22 4.703 11.629 9.264
103 9 11 +0.06 6.368 7.691 10.895
104 9 11 +0.06 5.516 7.328 12.415
105 9 11 +0.06 5.041 6.504 10.911
106 9 11 +0.06 3.955 12.401 9.077
107 9 11 +0.06 5.537 12.059 9.817
108 9 11 +0.06 5.062 11.235 8.313
109 10 9 +0.52 6.724 10.309 15.328
110 10 20 -0.50 7.880 10.630 15.309
111 10 19 -0.35 6.173 9.820 16.472
112 10 19 -0.35 5.965 10.434 14.207
113 10 1 +0.22 7.048 9.726 17.598
114 10 1 +0.22 6.630 10.956 13.054
115 10 11 +0.06 8.041 10.080 17.319
116 10 11 +0.06 6.660 10.339 18.412
117 10 11 +0.06 7.111 8.687 17.924
118 10 11 +0.06 5.928 11.011 12.222
119 10 11 +0.06 7.010 11.954 13.274
120 10 11 +0.06 7.460 10.303 12.786
121 11 9 +0.52 4.130 12.255 12.570
122 11 20 -0.50 4.648 12.101 13.641
123 11 19 -0.35 4.247 13.445 11.922
124 11 19 -0.35 3.424 11.239 12.003
125 11 1 +0.22 5.007 14.452 12.595
126 11 1 +0.22 3.356 10.027 12.758
127 11 11 +0.06 5.367 14.061 13.546
128 11 11 +0.06 5.856 14.742 11.976
129 11 11 +0.06 4.376 15.323 12.776
130 11 11 +0.06 2.769 9.289 12.209
131 11 11 +0.06 4.363 9.641 12.920
132 11 11 +0.06 2.883 10.223 13.720
133 12 9 +0.52 7.064 18.303 18.438
134 12 20 -0.50 6.545 17.248 18.676
135 12 19 -0.35 8.408 18.450 18.593
136 12 19 -0.35 6.310 19.352 18.013
137 12 1 +0.22 9.116 17.292 19.044
138 12 1 +0.22 4.909 19.102 17.880
139 12 11 +0.06 8.416 16.469 19.186
140 12 11 +0.06 9.862 17.011 18.301
141 12 11 +0.06 9.612 17.515 19.989
142 12 11 +0.06 4.409 20.009 17.535
143 12 11 +0.06 4.748 18.303 17.156
144 12 11 +0.06 4.498 18.807 18.845
145 13 9 +0.52 13.338 14.219 8.106
146 13 20 -0.50 12.397 13.474 8.133
147 13 19 -0.35 14.601 13.722 8.202
148 13 19 -0.35 13.142 15.559 7.980
149 13 1 +0.22 14.707 12.302 8.331
150 13 1 +0.22 11.781 15.986 7.887
151 13 11 +0.06 13.711 11.861 8.329
152 13 11 +0.06 15.283 11.903 7.496
153 13 11 +0.06 15.210 12.059 9.267
154 13 11 +0.06 11.747 17.072 7.790
155 13 11 +0.06 11.315 15.530 7.013
156 13 11 +0.06 11.242 15.686 8.785
157 14 9 +0.52 14.676 14.582 12.307
158 14 20 -0.50 15.384 15.551 12.306
159 14 19 -0.35 15.186 13.367 11.971
160 14 19 -0.35 13.364 14.700 12.645
161 14 1 +0.22 16.574 13.342 11.631
162 14 1 +0.22 12.920 16.016 12.983
163 14 11 +0.06 16.986 14.348 11.708
164 14 11 +0.06 17.104 12.679 12.316
165 14 11 +0.06 16.692 12.978 10.610
166 14 11 +0.06 11.858 15.989 13.235
167 14 11 +0.06 13.486 16.383 13.840
168 14 11 +0.06 13.073 16.682 12.134
169 15 9 +0.52 9.590 14.728 1.761
170 15 20 -0.50 10.017 15.012 2.846
171 15 19 -0.35 9.773 15.577 0.714
172 15 19 -0.35 8.924 13.556 1.578
173 15 1 +0.22 10.485 16.783 1.003
174 15 1 +0.22 8.781 12.729 2.736
175 15 11 +0.06 10.762 16.798 2.057
176 15 11 +0.06 11.385 16.829 0.390
177 15 11 +0.06 9.851 17.641 0.781
178 15 11 +0.06 8.234 11.823 2.471
179 15 11 +0.06 9.767 12.459 3.114
180 15 11 +0.06 8.232 13.272 3.506
181 16 9 +0.52 18.712 14.424 14.702
182 16 20 -0.50 18.325 13.659 13.864
183 16 19 -0.35 18.568 14.120 16.020
184 16 19 -0.35 19.296 15.597 14.335
185 16 1 +0.22 17.943 12.867 16.308
186 16 1 +0.22 19.405 15.829 12.929
187 16 11 +0.06 17.687 12.364 15.376
188 16 11 +0.06 18.629 12.242 16.881
189 16 11 +0.06 17.037 13.037 16.890
190 16 11 +0.06 19.885 16.793 12.755
191 16 11 +0.06 20.002 15.039 12.474
192 16 11 +0.06 18.410 15.835 12.483
193 17 9 +0.52 8.129 6.246 17.988
194 17 20 -0.50 8.559 5.139 17.810
195 17 19 -0.35 6.904 6.417 18.554
196 17 19 -0.35 8.868 7.328 17.623
197 17 1 +0.22 6.203 5.221 18.904
198 17 1 +0.22 10.141 7.049 17.037
199 17 11 +0.06 6.808 4.354 18.639
200 17 11 +0.06 6.008 5.215 19.976
201 17 11 +0.06 5.258 5.183 18.362
202 17 11 +0.06 10.640 7.986 16.787
203 17 11 +0.06 10.754 6.491 17.745
204 17 11 +0.06 10.004 6.459 16.131
205 18 9 +0.52 15.452 3.236 1.548
206 18 20 -0.50 15.475 2.380 2.389
207 18 19 -0.35 14.384 3.341 0.713
208 18 19 -0.35 16.496 4.100 1.429
209 18 1 +0.22 13.336 2.389 0.914
210 18 1 +0.22 17.573 3.911 2.350
211 18 11 +0.06 13.600 1.725 1.736
212 18 11 +0.06 12.410 2.912 1.153
213 18 11 +0.06 13.198 1.804 0.004
214 18 11 +0.06 18.347 4.657 2.162
215 18 11 +0.06 17.204 4.022 3.370
216 18 11 +0.06 17.992 2.913 2.222
217 19 9 +0.52 11.206 6.575 11.066
218 19 20 -0.50 11.189 6.216 12.211
219 19 19 -0.35 10.700 5.769 10.094
220 19 19 -0.35 11.732 7.786 10.741
221 19 1 +0.22 10.170 4.516 10.532
222 19 1 +0.22 12.239 8.562 11.829
223 19 11 +0.06 10.275 4.434 11.614
224 19 11 +0.06 9.115 4.453 10.263
225 19 11 +0.06 10.716 3.703 10.052
226 19 11 +0.06 12.632 9.507 11.451
227 19 11 +0.06 11.437 8.762 12.539
228 19 11 +0.06 13.037 8.012 12.328
229 20 9 +0.52 5.955 15.965 8.721
230 20 20 -0.50 7.047 16.422 8.526
231 20 19 -0.35 5.820 14.664 9.096
232 20 19 -0.35 4.853 16.747 8.569
233 20 1 +0.22 7.034 13.921 9.231
234 20 1 +0.22 5.095 18.099 8.173
235 20 11 +0.06 7.882 14.565 8.998
236 20 11 +0.06 7.125 13.557 10.254
237 20 11 +0.06 7.020 13.075 8.544
238 20 11 +0.06 4.144 18.627 8.082
239 20 11 +0.06 5.713 18.593 8.922
240 20 11 +0.06 5.609 18.111 7.212
241 21 9 +0.52 15.423 17.599 13.289
242 21 20 -0.50 16.329 17.527 12.506
243 21 19 -0.35 14.312 18.320 12.979
244 21 19 -0.35 15.507 16.960 14.487
245 21 1 +0.22 14.315 18.955 11.698
246 21 1 +0.22 16.712 16.228 14.723
247 21 11 +0.06 15.250 18.735 11.185
248 21 11 +0.06 13.478 18.584 11.106
249 21 11 +0.06 14.217 20.034 11.828
250 21 11 +0.06 16.667 15.761 15.708
251 21 11 +0.06 16.826 15.457 13.962
252 21 11 +0.06 17.564 16.907 14.683
253 22 9 +0.52 2.347 2.818 9.088
254 22 20 -0.50 1.611 2.001 8.606
255 22 19 -0.35 1.842 3.813 9.866
256 22 19 -0.35 3.685 2.748 8.856
257 22 1 +0.22 0.424 3.804 10.052
258 22 1 +0.22 4.122 1.669 8.027
259 22 11 +0.06 -0.009 2.962 9.511
260 22 11 +0.06 0.198 3.708 11.114
261 22 11 +0.06 0.002 4.735 9.674
262 22 11 +0.06 5.206 1.714 7.912
263 22 11 +0.06 3.846 0.720 8.488
264 22 11 +0.06 3.651 1.747 7.048
265 23 9 +0.52 14.313 13.387 1.418
266 23 20 -0.50 14.478 12.898 0.335
267 23 19 -0.35 13.076 13.384 1.985
268 23 19 -0.35 15.363 13.944 2.079
269 23 1 +0.22 12.036 12.776 1.215
270 23 1 +0.22 16.623 13.900 1.404
271 23 11 +0.06 12.446 12.411 0.273
272 23 11 +0.06 11.611 11.942 1.774
273 23 11 +0.06 11.257 13.511 1.012
274 23 11 +0.06 17.385 14.373 2.025
275 23 11 +0.06 16.900 12.863 1.218
276 23 11 +0.06 16.547 14.432 0.456
277 24 9 +0.52 9.704 8.629 10.566
278 24 20 -0.50 9.883 9.624 11.212
279 24 19 -0.35 9.131 7.538 11.142
280 24 19 -0.35 10.075 8.592 9.258
281 24 1 +0.22 8.775 7.672 12.520
282 24 1 +0.22 10.669 9.785 8.741
283 24 11 +0.06 9.042 8.669 12.870
284 24 11 +0.06 7.701 7.522 12.634
285 24 11 +0.06 9.310 6.925 13.107
286 24 11 +0.06 10.924 9.639 7.690
287 24 11 +0.06 9.965 10.612 8.831
288 24 11 +0.06 11.574 10.015 9.304
289 25 9 +0.52 16.109 2.111 14.683
290 25 20 -0.50 16.667 1.366 15.441
291 25 19 -0.35 16.803 3.114 14.082
292 25 19 -0.35 14.783 1.952 14.427
293 25 1 +0.22 18.192 3.201 14.413
294 25 1 +0.22 14.138 0.871 15.105
295 25 11 +0.06 18.448 2.412 15.119
296 25 11 +0.06 18.789 3.088 13.508
297 25 11 +0.06 18.397 4.173 14.864
298 25 11 +0.06 13.085 0.842 14.824
299 25 11 +0.06 14.614 -0.069 14.827
300 25 11 +0.06 14.222 1.016 16.182
301 26 9 +0.52 15.968 13.794 19.117
302 26 20 -0.50 16.460 12.699 19.116
303 26 19 -0.35 14.615 13.931 19.121
304 26 19 -0.35 16.764 14.897 19.115
305 26 1 +0.22 13.862 12.715 19.124
306 26 1 +0.22 18.172 14.653 19.110
307 26 11 +0.06 14.544 11.865 19.121
308 26 11 +0.06 13.236 12.677 20.016
309 26 11 +0.06 13.231 12.677 18.236
310 26 11 +0.06 18.706 15.605 19.109
311 26 11 +0.06 18.447 14.086 19.999
312 26 11 +0.06 18.441 14.086 18.219
313 27 9 +0.52 1.562 18.707 10.744
314 27 20 -0.50 0.376 18.571 10.865
315 27 19 -0.35 2.334 18.946 11.837
316 27 19 -0.35 2.134 18.621 9.513
317 27 1 +0.22 1.644 19.019 13.087
318 27 1 +0.22 1.243 18.367 8.424
319 27 11 +0.06 0.578 18.862 12.925
320 27 11 +0.06 2.027 18.250 13.759
321 27 11 +0.06 1.803 20.002 13.533
322 27 11 +0.06 1.810 18.319 7.493
323 27 11 +0.06 0.731 17.418 8.586
324 27 11 +0.06 0.508 19.169 8.360
325 28 9 +0.52 3.439 16.317 14.934
326 28 20 -0.50 3.935 15.227 15.003
327 28 19 -0.35 4.226 17.413 14.757
328 28 19 -0.35 2.090 16.458 15.033
329 28 1 +0.22 5.631 17.166 14.664
330 28 1 +0.22 1.346 15.251 15.218
331 28 11 +0.06 5.820 16.097 14.756
332 28 11 +0.06 5.999 17.518 13.700
333 28 11 +0.06 6.147 17.696 15.465
334 28 11 +0.06 0.283 15.485 15.284
335 28 11 +0.06 1.518 14.584 14.374
336 28 11 +0.06 1.667 14.763 16.138
337 29 9 +0.52 1.475 13.942 12.220
338 29 20 -0.50 0.347 14.164 11.875
339 29 19 -0.35 2.483 14.762 11.820
340 29 19 -0.35 1.744 12.868 13.011
341 29 1 +0.22 2.103 15.863 10.991
342 29 1 +0.22 0.621 12.065 13.380
343 29 11 +0.06 1.026 15.840 10.825
344 29 11 +0.06 2.375 16.798 11.481
345 29 11 +0.06 2.620 15.792 10.033
346 29 11 +0.06 0.955 11.239 14.010
347 29 11 +0.06 -0.097 12.673 13.931
348 29 11 +0.06 0.147 11.666 12.483
349 30 9 +0.52 15.955 9.461 17.275
350 30 20 -0.50 15.811 10.416 17.987
351 30 19 -0.35 16.765 8.440 17.663
352 30 19 -0.35 15.308 9.400 16.080
353 30 1 +0.22 17.402 8.594 18.934
354 30 1 +0.22 14.479 10.519 15.759
355 30 11 +0.06 17.107 9.545 19.376
356 30 11 +0.06 17.102 7.778 19.592
357 30 11 +0.06 18.484 8.574 18.803
358 30 11 +0.06 14.015 10.360 14.784
359 30 11 +0.06 13.703 10.628 16.516
360 30 11 +0.06 15.085 11.424 15.727
361 31 9 +0.52 12.765 5.544 15.619
362 31 20 -0.50 13.573 5.438 14.738
363 31 19 -0.35 12.259 6.767 15.933
364 31 19 -0.35 12.355 4.442 16.303
365 31 1 +0.22 12.750 7.866 15.160
366 31 1 +0.22 12.941 3.202 15.902
367 31 11 +0.06 13.472 7.502 14.429
368 31 11 +0.06 11.919 8.346 14.644
369 31 11 +0.06 13.233 8.587 15.820
370 31 11 +0.06 12.540 2.394 16.516
371 31 11 +0.06 12.709 3.011 14.854
372 31 11 +0.06 14.023 3.252 16.031
373 32 9 +0.52 16.176 19.137 16.505
374 32 20 -0.50 16.391 19.079 15.326
375 32 19 -0.35 17.213 19.157 17.385
376 32 19 -0.35 14.896 19.184 16.962
377 32 1 +0.22 18.522 19.104 16.812
378 32 1 +0.22 13.873 19.158 15.963
379 32 11 +0.06 18.442 19.056 15.726
380 32 11 +0.06 19.079 19.997 17.096
381 32 11 +0.06 19.044 18.219 17.177
382 32 11 +0.06 12.894 19.200 16.443
383 32 11 +0.06 13.989 20.017 15.301
384 32 11 +0.06 13.953 18.239 15.383
385 33 9 +0.52 15.365 15.884 6.988
386 33 20 -0.50 16.179 15.298 7.646
387 33 19 -0.35 14.743 16.982 7.495
388 33 19 -0.35 15.065 15.450 5.734
389 33 1 +0.22 15.124 17.362 8.820
390 33 1 +0.22 15.770 14.289 5.287
391 33 11 +0.06 15.877 16.669 9.195
392 33 11 +0.06 15.535 18.371 8.805
393 33 11 +0.06 14.250 17.336 9.470
394 33 11 +0.06 15.449 14.036 4.275
395 33 11 +0.06 16.841 14.490 5.288
396 33 11 +0.06 15.555 13.454 5.954
397 34 9 +0.52 8.531 3.303 8.237
398 34 20 -0.50 7.552 3.479 8.908
399 34 19 -0.35 9.170 4.364 7.674
400 34 19 -0.35 9.003 2.042 8.041
401 34 1 +0.22 8.600 5.649 7.937
402 34 1 +0.22 8.267 0.992 8.672
403 34 11 +0.06 7.720 5.534 8.569
404 34 11 +0.06 9.334 6.274 8.446
405 34 11 +0.06 8.314 6.119 6.996
406 34 11 +0.06 8.735 0.033 8.445
407 34 11 +0.06 8.262 1.147 9.751
408 34 11 +0.06 7.242 0.992 8.300
409 35 9 +0.52 3.041 13.408 6.787
410 35 20 -0.50 3.589 12.347 6.899
411 35 19 -0.35 3.749 14.502 6.397
412 35 19 -0.35 1.710 13.517 7.049
413 35 1 +0.22 5.140 14.289 6.144
414 35 1 +0.22 1.051 12.315 7.452
415 35 11 +0.06 5.386 13.242 6.318
416 35 11 +0.06 5.365 14.548 5.109
417 35 11 +0.06 5.731 14.917 6.811
418 35 11 +0.06 -0.005 12.522 7.634
419 35 11 +0.06 1.142 11.567 6.664
420 35 11 +0.06 1.508 11.937 8.366
421 36 9 +0.52 3.891 12.025 17.912
422 36 20 -0.50 3.187 11.725 18.837
423 36 19 -0.35 3.438 11.881 16.638
424 36 19 -0.35 5.141 12.511 18.139
425 36 1 +0.22 2.112 11.364 16.499
426 36 1 +0.22 5.529 12.627 19.510
427 36 11 +0.06 1.691 11.172 17.486
428 36 11 +0.06 1.492 12.090 15.974
429 36 11 +0.06 2.142 10.434 15.930
430 36 11 +0.06 6.543 13.024 19.569
431 36 11 +0.06 4.846 13.301 20.026
432 36 11 +0.06 5.496 11.645 19.982
433 37 9 +0.52 17.252 8.740 10.437
434 37 20 -0.50 16.759 7.709 10.069
435 37 19 -0.35 18.599 8.829 10.600
436 37 19 -0.35 16.463 9.818 10.690
437 37 1 +0.22 19.346 7.645 10.309
438 37 1 +0.22 15.060 9.629 10.490
439 37 11 +0.06 18.665 6.853 9.996
440 37 11 +0.06 20.056 7.850 9.508
441 37 11 +0.06 19.886 7.328 11.201
442 37 11 +0.06 14.531 10.554 10.723
443 37 11 +0.06 14.873 9.356 9.452
444 37 11 +0.06 14.703 8.833 11.145
445 38 9 +0.52 7.158 17.376 10.803
446 38 20 -0.50 6.913 16.204 10.718
447 38 19 -0.35 6.157 18.263 11.052
448 38 19 -0.35 8.436 17.817 10.652
449 38 1 +0.22 4.848 17.706 11.197
450 38 1 +0.22 9.419 16.812 10.393
451 38 11 +0.06 4.897 16.624 11.075
452 38 11 +0.06 4.460 17.943 12.188
453 38 11 +0.06 4.188 18.128 10.438
454 38 11 +0.06 10.399 17.279 10.290
455 38 11 +0.06 9.441 16.102 11.220
456 38 11 +0.06 9.169 16.287 9.471
457 39 9 +0.52 10.454 13.984 16.318
458 39 20 -0.50 10.764 13.777 15.177
459 39 19 -0.35 10.475 12.968 17.223
460 39 19 -0.35 10.082 15.233 16.706
461 39 1 +0.22 10.879 11.691 16.722
462 39 1 +0.22 10.092 16.235 15.685
463 39 11 +0.06 11.106 11.772 15.659
464 39 11 +0.06 11.766 11.355 17.259
465 39 11 +0.06 10.073 10.972 16.868
466 39 11 +0.06 9.778 17.189 16.110
467 39 11 +0.06 11.099 16.332 15.280
468 39 11 +0.06 9.405 15.949 14.888
469 40 9 +0.52 7.490 3.829 3.251
470 40 20 -0.50 8.626 4.216 3.250
471 40 19 -0.35 7.226 2.495 3.250
472 40 19 -0.35 6.467 4.725 3.252
473 40 1 +0.22 8.365 1.631 3.249
474 40 1 +0.22 6.843 6.105 3.252
475 40 11 +0.06 9.276 2.229 3.248
476 40 11 +0.06 8.344 1.001 4.139
477 40 11 +0.06 8.343 1.002 2.359
478 40 11 +0.06 5.946 6.726 3.253
479 40 11 +0.06 7.434 6.321 4.141
480 40 11 +0.06 7.433 6.322 2.361
481 41 9 +0.52 13.715 2.404 6.427
482 41 20 -0.50 12.659 2.968 6.355
483 41 19 -0.35 14.785 2.873 5.731
484 41 19 -0.35 13.843 1.296 7.206
485 41 1 +0.22 14.555 4.042 4.941
486 41 1 +0.22 12.664 0.879 7.899
487 41 11 +0.06 13.517 4.356 5.048
488 41 11 +0.06 15.213 4.844 5.278
489 41 11 +0.06 14.761 3.820 3.894
490 41 11 +0.06 12.884 -0.013 8.487
491 41 11 +0.06 12.330 1.677 8.563
492 41 11 +0.06 11.878 0.653 7.179
493 42 9 +0.52 6.649 9.607 5.948
494 42 20 -0.50 6.716 10.483 6.766
495 42 19 -0.35 7.715 8.790 5.737
496 42 19 -0.35 5.506 9.433 5.231
497 42 1 +0.22 8.871 9.050 6.537
498 42 1 +0.22 4.440 10.340 5.522
499 42 11 +0.06 8.675 9.894 7.198
500 42 11 +0.06 9.106 8.168 7.134
501 42 11 +0.06 9.716 9.285 5.889
502 42 11 +0.06 3.581 10.106 4.891
503 42 11 +0.06 4.156 10.245 6.570
504 42 11 +0.06 4.766 11.361 5.325
505 43 9 +0.52 8.501 13.215 14.287
506 43 20 -0.50 8.914 12.585 15.221
507 43 19 -0.35 7.580 14.196 14.482
508 43 19 -0.35 8.955 12.948 13.033
509 43 1 +0.22 7.163 14.405 15.834
510 43 1 +0.22 9.922 11.900 12.927
511 43 11 +0.06 7.686 13.706 16.487
512 43 11 +0.06 7.398 15.427 16.133
513 43 11 +0.06 6.088 14.241 15.912
514 43 11 +0.06 10.210 11.775 11.882
515 43 11 +0.06 10.802 12.154 13.517
516 43 11 +0.06 9.492 10.969 13.297
517 44 9 +0.52 15.345 3.062 12.023
518 44 20 -0.50 16.414 2.518 11.994
519 44 19 -0.35 15.273 4.417 12.114
520 44 19 -0.35 14.205 2.323 11.964
521 44 1 +0.22 16.523 5.108 12.171
522 44 1 +0.22 14.380 0.907 11.869
523 44 11 +0.06 17.340 4.388 12.128
524 44 11 +0.06 16.598 5.793 11.326
525 44 11 +0.06 16.585 5.672 13.102
526 44 11 +0.06 13.404 0.421 11.828
527 44 11 +0.06 14.941 0.669 10.965
528 44 11 +0.06 14.927 0.548 12.740
529 45 9 +0.52 15.249 3.214 9.025
530 45 20 -0.50 15.482 3.892 9.988
531 45 19 -0.35 16.204 2.379 8.535
532 45 19 -0.35 14.030 3.281 8.426
533 45 1 +0.22 17.452 2.377 9.231
534 45 1 +0.22 13.092 4.187 9.012
535 45 11 +0.06 17.406 3.078 10.064
536 45 11 +0.06 17.656 1.375 9.610
537 45 11 +0.06 18.249 2.676 8.549
538 45 11 +0.06 12.157 4.156 8.451
539 45 11 +0.06 12.904 3.898 10.046
540 45 11 +0.06 13.497 5.199 8.986
541 46 9 +0.52 6.151 1.199 15.746
542 46 20 -0.50 6.595 1.207 14.631
543 46 19 -0.35 4.836 0.804 16.121
544 46 19 -0.35 6.848 1.584 16.926
545 46 2 +0.22 4.720 0.944 17.533
546 46 2 +0.22 5.964 1.427 18.031
547 46 11 +0.06 3.978 1.721 17.718
548 46 11 +0.06 4.577 -0.055 17.944
549 46 11 +0.06 5.781 2.420 18.439
550 46 11 +0.06 6.379 0.644 18.665
551 47 9 +0.52 17.305 7.673 7.748
552 47 20 -0.50 17.775 8.724 7.409
553 47 19 -0.35 18.021 6.456 7.931
554 47 19 -0.35 15.933 7.424 8.036
555 47 2 +0.22 17.091 5.455 8.333
556 47 2 +0.22 15.801 6.053 8.397
557 47 11 +0.06 17.059 4.710 7.538
558 47 11 +0.06 17.358 5.158 9.347
559 47 11 +0.06 15.188 5.577 7.632
560 47 11 +0.06 15.487 6.026 9.441
561 48 9 +0.52 6.709 1.542 6.113
562 48 20 -0.50 7.096 0.408 6.184
563 48 19 -0.35 7.478 2.707 6.393
564 48 19 -0.35 5.402 1.959 5.733
565 48 2 +0.22 6.646 3.844 6.187
566 48 2 +0.22 5.363 3.381 5.779
567 48 11 +0.06 6.519 4.328 7.155
568 48 11 +0.06 7.066 4.401 5.349
569 48 11 +0.06 4.659 3.657 6.564
570 48 11 +0.06 5.206 3.730 4.758
571 49 9 +0.52 0.657 6.568 8.647
572 49 20 -0.50 0.133 6.092 7.677
573 49 19 -0.35 2.042 6.864 8.790
574 49 19 -0.35 0.001 6.936 9.856
575 49 2 +0.22 2.243 7.414 10.087
576 49 2 +0.22 0.981 7.459 10.746
577 49 11 +0.06 2.868 6.713 10.640
578 49 11 +0.06 2.569 8.445 9.951
579 49 11 +0.06 1.040 6.778 11.595
580 49 11 +0.06 0.741 8.510 10.906
581 50 9 +0.52 13.770 16.168 2.950
582 50 20 -0.50 14.565 16.436 2.092
583 50 19 -0.35 13.559 14.882 3.524
584 50 19 -0.35 12.872 17.080 3.573
585 50 2 +0.22 12.531 14.999 4.501
586 50 2 +0.22 12.106 16.358 4.532
587 50 11 +0.06 11.686 14.408 4.150
588 50 11 +0.06 12.983 14.784 5.469
589 50 11 +0.06 11.070 16.377 4.194
590 50 11 +0.06 12.367 16.753 5.513
591 51 9 +0.52 6.167 12.309 1.107
592 51 20 -0.50 6.568 12.646 0.027
593 51 19 -0.35 6.382 13.001 2.333
594 51 19 -0.35 5.392 11.148 1.387
595 51 2 +0.22 5.740 12.267 3.370
596 51 2 +0.22 5.128 11.122 2.786
597 51 11 +0.06 6.522 11.906 4.038
598 51 11 +0.06 4.938 12.895 3.758
599 51 11 +0.06 5.635 10.246 3.191
600 51 11 +0.06 4.052 11.235 2.911
601 52 9 +0.52 18.527 9.210 15.475
602 52 20 -0.50 18.860 8.688 16.503
603 52 19 -0.35 17.199 9.289 14.968
604 52 19 -0.35 19.392 9.859 14.548
605 52 2 +0.22 17.243 9.986 13.728
606 52 2 +0.22 18.598 10.339 13.468
607 52 11 +0.06 16.941 9.282 12.953
608 52 11 +0.06 16.690 10.916 13.863
609 52 11 +0.06 18.905 9.793 12.577
610 52 11 +0.06 18.654 11.427 13.487
611 53 9 +0.52 14.289 12.202 13.609
612 53 20 -0.50 14.456 11.360 12.771
613 53 19 -0.35 13.041 12.579 14.181
614 53 19 -0.35 15.306 13.000 14.207
615 53 2 +0.22 13.286 13.609 15.132
616 53 2 +0.22 14.685 13.870 15.149
617 53 11 +0.06 12.797 14.510 14.762
618 53 11 +0.06 13.023 13.210 16.112
619 53 11 +0.06 14.826 14.888 14.785
620 53 11 +0.06 15.052 13.587 16.136
621 54 9 +0.52 5.603 6.953 1.090
622 54 20 -0.50 6.359 7.885 1.088
623 54 19 -0.35 5.959 5.587 0.902
624 54 19 -0.35 4.194 7.017 1.280
625 54 2 +0.22 4.770 4.808 0.976
626 54 2 +0.22 3.679 5.692 1.209
627 54 11 +0.06 4.617 4.363 -0.007
628 54 11 +0.06 4.859 4.170 1.855
629 54 11 +0.06 3.035 5.645 0.331
630 54 11 +0.06 3.277 5.452 2.194
631 55 9 +0.52 3.338 8.403 7.450
632 55 20 -0.50 2.258 8.925 7.436
633 55 19 -0.35 3.821 7.454 6.505
634 55 19 -0.35 4.363 8.625 8.414
635 55 2 +0.22 5.144 7.089 6.885
636 55 2 +0.22 5.478 7.813 8.064
637 55 11 +0.06 5.120 6.033 7.153
638 55 11 +0.06 5.811 7.436 6.096
639 55 11 +0.06 5.605 7.082 8.863
640 55 11 +0.06 6.296 8.485 7.806
641 56 9 +0.52 13.956 17.180 19.183
642 56 20 -0.50 14.666 17.716 19.988
643 56 19 -0.35 13.348 15.900 19.324
644 56 19 -0.35 13.574 17.713 17.919
645 56 2 +0.22 12.590 15.642 18.147
646 56 2 +0.22 12.729 16.762 17.278
647 56 11 +0.06 13.053 14.790 17.648
648 56 11 +0.06 11.542 15.596 18.444
649 56 11 +0.06 13.255 16.414 16.389
650 56 11 +0.06 11.744 17.219 17.185
651 57 9 +0.52 14.605 11.191 3.034
652 57 20 -0.50 13.625 11.284 2.348
653 57 19 -0.35 15.804 11.946 2.888
654 57 19 -0.35 14.774 10.306 4.136
655 57 2 +0.22 16.713 11.527 3.900
656 57 2 +0.22 16.077 10.513 4.672
657 57 11 +0.06 17.561 11.062 3.397
658 57 11 +0.06 16.872 12.380 4.561
659 57 11 +0.06 16.639 9.593 4.515
660 57 11 +0.06 15.950 10.910 5.679
661 58 9 +0.52 4.322 4.562 11.653
662 58 20 -0.50 3.152 4.665 11.411
663 58 19 -0.35 4.920 4.641 12.944
664 58 19 -0.35 5.358 4.340 10.702
665 58 2 +0.22 6.325 4.468 12.789
666 58 2 +0.22 6.595 4.282 11.404
667 58 11 +0.06 6.797 5.404 13.085
668 58 11 +0.06 6.590 3.540 13.295
669 58 11 +0.06 7.190 5.134 11.077
670 58 11 +0.06 6.983 3.270 11.287
671 59 9 +0.52 17.567 6.245 16.815
672 59 20 -0.50 18.671 6.439 17.244
673 59 19 -0.35 17.236 5.941 15.464
674 59 19 -0.35 16.359 6.278 17.567
675 59 2 +0.22 15.823 5.787 15.381
676 59 2 +0.22 15.281 5.995 16.681
677 59 11 +0.06 15.449 6.590 14.746
678 59 11 +0.06 15.629 4.748 15.116
679 59 11 +0.06 14.663 6.892 16.631
680 59 11 +0.06 14.843 5.049 17.001
681 60 9 +0.52 1.163 12.231 0.881
682 60 20 -0.50 0.260 11.441 0.850
683 60 19 -0.35 1.035 13.649 0.902
684 60 19 -0.35 2.552 11.915 0.903
685 60 2 +0.22 2.343 14.209 0.937
686 60 2 +0.22 3.281 13.137 0.937
687 60 11 +0.06 2.483 14.755 0.004
688 60 11 +0.06 2.446 14.724 1.891
689 60 11 +0.06 3.842 13.202 0.005
690 60 11 +0.06 3.805 13.171 1.893
691 61 9 +0.52 5.509 8.023 14.760
692 61 20 -0.50 6.598 8.332 14.361
693 61 19 -0.35 4.539 8.906 15.315
694 61 19 -0.35 4.960 6.709 14.761
695 61 2 +0.22 3.391 8.137 15.659
696 61 2 +0.22 3.651 6.780 15.317
697 61 11 +0.06 3.290 8.180 16.744
698 61 11 +0.06 2.575 8.477 15.022
699 61 11 +0.06 3.667 6.212 16.247
700 61 11 +0.06 2.952 6.510 14.526
701 62 9 +0.52 13.830 2.470 18.771
702 62 20 -0.50 14.884 3.035 18.663
703 62 19 -0.35 12.548 3.089 18.800
704 62 19 -0.35 13.643 1.064 18.893
705 62 2 +0.22 11.569 2.065 18.940
706 62 2 +0.22 12.246 0.814 18.998
707 62 11 +0.06 11.087 2.213 19.906
708 62 11 +0.06 10.973 2.065 18.027
709 62 11 +0.06 12.067 0.399 19.990
710 62 11 +0.06 11.954 0.251 18.111
711 63 9 +0.52 10.880 4.831 4.693
712 63 20 -0.50 10.912 3.802 5.310
713 63 19 -0.35 11.933 5.359 3.892
714 63 19 -0.35 9.784 5.737 4.633
715 63 2 +0.22 11.486 6.592 3.337
716 63 2 +0.22 10.158 6.825 3.795
717 63 11 +0.06 12.113 7.378 3.758
718 63 11 +0.06 11.433 6.456 2.257
719 63 11 +0.06 10.188 7.717 4.421
720 63 11 +0.06 9.508 6.795 2.920
721 64 9 +0.52 13.533 14.506 10.318
722 64 20 -0.50 14.458 15.221 10.049
723 64 19 -0.35 13.526 13.084 10.247
724 64 19 -0.35 12.249 14.930 10.763
725 64 2 +0.22 12.238 12.629 10.648
726 64 2 +0.22 11.448 13.771 10.967
727 64 11 +0.06 11.780 12.156 9.779
728 64 11 +0.06 12.370 12.064 11.570
729 64 11 +0.06 10.636 13.810 10.242
730 64 11 +0.06 11.226 13.718 12.033
731 65 31 1.0 8.289 3.260 1.284
732 66 31 1.0 17.918 18.840 1.947
733 67 31 1.0 16.920 1.303 1.175
734 68 31 1.0 13.173 19.804 1.665
735 69 31 1.0 16.915 20.026 3.507
736 70 27 +1.34 13.852 7.833 5.763
737 70 26 -0.39 14.602 9.208 6.035
738 70 26 -0.39 13.102 6.457 5.492
739 70 26 -0.39 15.214 7.045 5.992
740 70 26 -0.39 12.490 8.621 5.535
741 70 26 -0.39 14.184 7.958 4.214
742 70 26 -0.39 13.519 7.708 7.313
743 71 27 +1.34 4.294 15.392 17.933
744 71 26 -0.39 5.607 14.724 18.531
745 71 26 -0.39 2.981 16.060 17.335
746 71 26 -0.39 5.176 16.164 16.859
747 71 26 -0.39 3.412 14.620 19.007
748 71 26 -0.39 4.454 16.611 18.941
749 71 26 -0.39 4.133 14.173 16.924
750 72 27 +1.34 8.970 18.516 13.540
751 72 26 -0.39 9.699 18.808 12.158
752 72 26 -0.39 8.240 18.224 14.922
753 72 26 -0.39 9.224 20.019 13.992
754 72 26 -0.39 8.716 17.013 13.088
755 72 26 -0.39 10.359 18.088 14.183
756 72 26 -0.39 7.580 18.944 12.897
757 73 27 +1.34 9.710 18.937 3.911
758 73 26 -0.39 11.153 18.450 3.456
759 73 26 -0.39 8.266 19.425 4.366
760 73 26 -0.39 10.376 20.009 4.877
761 73 26 -0.39 9.043 17.865 2.944
762 73 26 -0.39 9.720 17.869 5.089
763 73 26 -0.39 9.699 20.005 2.733
764 74 27 +1.34 2.303 4.853 5.949
765 74 26 -0.39 0.866 4.390 6.449
766 74 26 -0.39 3.739 5.316 5.449
767 74 26 -0.39 2.685 3.340 5.645
768 74 26 -0.39 1.920 6.367 6.252
769 74 26 -0.39 2.867 4.699 7.427
770 74 26 -0.39 1.738 5.007 4.470

Bonds

1 8 1 2
2 7 1 3
3 7 1 4
4 7 3 5
5 7 4 6
6 4 5 7
7 4 5 8
8 4 5 9
9 4 6 10
10 4 6 11
11 4 6 12
12 8 13 14
13 7 13 15
14 7 13 16
15 7 15 17
16 7 16 18
17 4 17 19
18 4 17 20
19 4 17 21
20 4 18 22
21 4 18 23
22 4 18 24
23 8 25 26
24 7 25 27
25 7 25 28
26 7 27 29
27 7 28 30
28 4 29 31
29 4 29 32
30 4 29 33
31 4 30 34
32 4 30 35
33 4 30 36
34 8 37 38
35 7 37 39
36 7 37 40
37 7 39 41
38 7 40 42
39 4 41 43
40 4 41 44
41 4 41 45
42 4 42 46
43 4 42 47
44 4 42 48
45 8 49 50
46 7 49 51
47 7 49 52
48 7 51 53
49 7 52 54
50 4 53 55
51 4 53 56
52 4 53 57
53 4 54 58
54 4 54 59
55 4 54 60
56 8 61 62
57 7 61 63
58 7 61 64
59 7 63 65
60 7 64 66
61 4 65 67
62 4 65 68
63 4 65 69
64 4 66 70
65 4 66 71
66 4 66 72
67 8 73 74
68 7 73 75
69 7 73 76
70 7 75 77
71 7 76 78
72 4 77 79
73 4 77 80
74 4 77 81
75 4 78 82
76 4 78 83
77 4 78 84
78 8 85 86
79 7 85 87
80 7 85 88
81 7 87 89
82 7 88 90
83 4 89 91
84 4 89 92
85 4 89 93
86 4 90 94
87 4 90 95
88 4 90 96
89 8 97 98
90 7 97 99
91 7 97 100
92 7 99 101
93 7 100 102
94 4 101 103
95 4 101 104
96 4 101 105
97 4 102 106
98 4 102 107
99 4 102 108
100 8 109 110
101 7 109 111
102 7 109 112
103 7 111 113
104 7 112 114
105 4 113 115
106 4 113 116
107 4 113 117
108 4 114 118
109 4 114 119
110 4 114 120
111 8 121 122
112 7 121 123
113 7 121 124
114 7 123 125
115 7 124 126
116 4 125 127
117 4 125 128
118 4 125 129
119 4 126 130
120 4 126 131
121 4 126 132
122 8 133 134
123 7 133 135
124 7 133 136
125 7 135 137
126 7 136 138
127 4 137 139
128 4 137 140
129 4 137 141
130 4 138 142
131 4 138 143
132 4 138 144
133 8 145 146
134 7 145 147
135 7 145 148
136 7 147 149
137 7 148 150
138 4 149 151
139 4 149 152
140 4 149 153
141 4 150 154
142 4 150 155
143 4 150 156
144 8 157 158
145 7 157 159
146 7 157 160
147 7 159 161
148 7 160 162
149 4 161 163
150 4 161 164
151 4 161 165
152 4 162 166
153 4 162 167
154 4 162 168
155 8 169 170
156 7 169 171
157 7 169 172
158 7 171 173
159 7 172 174
160 4 173 175
161 4 173 176
162 4 173 177
163 4 174 178
164 4 174 179
165 4 174 180
166 8 181 182
167 7 181 183
168 7 181 184
169 7 183 185
170 7 184 186
171 4 185 187
172 4 185 188
173 4 185 189
174 4 186 190
175 4 186 191
176 4 186 192
177 8 193 194
178 7 193 195
179 7 193 196
180 7 195 197
181 7 196 198
182 4 197 199
183 4 197 200
184 4 197 201
185 4 198 202
186 4 198 203
187 4 198 204
188 8 205 206
189 7 205 207
190 7 205 208
191 7 207 209
192 7 208 210
193 4 209 211
194 4 209 212
195 4 209 213
196 4 210 214
197 4 210 215
198 4 210 216
199 8 217 218
200 7 217 219
201 7 217 220
202 7 219 221
203 7 220 222
204 4 221 223
205 4 221 224
206 4 221 225
207 4 222 226
208 4 222 227
209 4 222 228
210 8 229 230
211 7 229 231
212 7 229 232
213 7 231 233
214 7 232 234
215 4 233 235
216 4 233 236
217 4 233 237
218 4 234 238
219 4 234 239
220 4 234 240
221 8 241 242
222 7 241 243
223 7 241 244
224 7 243 245
225 7 244 246
226 4 245 247
227 4 245 248
228 4 245 249
229 4 246 250
230 4 246 251
231 4 246 252
232 8 253 254
233 7 253 255
234 7 253 256
235 7 255 257
236 7 256 258
237 4 257 259
238 4 257 260
239 4 257 261
240 4 258 262
241 4 258 263
242 4 258 264
243 8 265 266
244 7 265 267
245 7 265 268
246 7 267 269
247 7 268 270
248 4 269 271
249 4 269 272
250 4 269 273
251 4 270 274
252 4 270 275
253 4 270 276
254 8 277 278
255 7 277 279
256 7 277 280
257 7 279 281
258 7 280 282
259 4 281 283
260 4 281 284
261 4 281 285
262 4 282 286
263 4 282 287
264 4 282 288
265 8 289 290
266 7 289 291
267 7 289 292
268 7 291 293
269 7 292 294
270 4 293 295
271 4 293 296
272 4 293 297
273 4 294 298
274 4 294 299
275 4 294 300
276 8 301 302
277 7 301 303
278 7 301 304
279 7 303 305
280 7 304 306
281 4 305 307
282 4 305 308
283 4 305 309
284 4 306 310
285 4 306 311
286 4 306 312
287 8 313 314
288 7 313 315
289 7 313 316
290 7 315 317
291 7 316 318
292 4 317 319
293 4 317 320
294 4 317 321
295 4 318 322
296 4 318 323
297 4 318 324
298 8 325 326
299 7 325 327
300 7 325 328
301 7 327 329
302 7 328 330
303 4 329 331
304 4 329 332
305 4 329 333
306 4 330 334
307 4 330 335
308 4 330 336
309 8 337 338
310 7 337 339
311 7 337 340
312 7 339 341
313 7 340 342
314 4 341 343
315 4 341 344
316 4 341 345
317 4 342 346
318 4 342 347
319 4 342 348
320 8 349 350
321 7 349 351
322 7 349 352
323 7 351 353
324 7 352 354
325 4 353 355
326 4 353 356
327 4 353 357
328 4 354 358
329 4 354 359
330 4 354 360
331 8 361 362
332 7 361 363
333 7 361 364
334 7 363 365
335 7 364 366
336 4 365 367
337 4 365 368
338 4 365 369
339 4 366 370
340 4 366 371
341 4 366 372
342 8 373 374
343 7 373 375
344 7 373 376
345 7 375 377
346 7 376 378
347 4 377 379
348 4 377 380
349 4 377 381
350 4 378 382
351 4 378 383
352 4 378 384
353 8 385 386
354 7 385 387
355 7 385 388
356 7 387 389
357 7 388 390
358 4 389 391
359 4 389 392
360 4 389 393
361 4 390 394
362 4 390 395
363 4 390 396
364 8 397 398
365 7 397 399
366 7 397 400
367 7 399 401
368 7 400 402
369 4 401 403
370 4 401 404
371 4 401 405
372 4 402 406
373 4 402 407
374 4 402 408
375 8 409 410
376 7 409 411
377 7 409 412
378 7 411 413
379 7 412 414
380 4 413 415
381 4 413 416
382 4 413 417
383 4 414 418
384 4 414 419
385 4 414 420
386 8 421 422
387 7 421 423
388 7 421 424
389 7 423 425
390 7 424 426
391 4 425 427
392 4 425 428
393 4 425 429
394 4 426 430
395 4 426 431
396 4 426 432
397 8 433 434
398 7 433 435
399 7 433 436
400 7 435 437
401 7 436 438
402 4 437 439
403 4 437 440
404 4 437 441
405 4 438 442
406 4 438 443
407 4 438 444
408 8 445 446
409 7 445 447
410 7 445 448
411 7 447 449
412 7 448 450
413 4 449 451
414 4 449 452
415 4 449 453
416 4 450 454
417 4 450 455
418 4 450 456
419 8 457 458
420 7 457 459
421 7 457 460
422 7 459 461
423 7 460 462
424 4 461 463
425 4 461 464
426 4 461 465
427 4 462 466
428 4 462 467
429 4 462 468
430 8 469 470
431 7 469 471
432 7 469 472
433 7 471 473
434 7 472 474
435 4 473 475
436 4 473 476
437 4 473 477
438 4 474 478
439 4 474 479
440 4 474 480
441 8 481 482
442 7 481 483
443 7 481 484
444 7 483 485
445 7 484 486
446 4 485 487
447 4 485 488
448 4 485 489
449 4 486 490
450 4 486 491
451 4 486 492
452 8 493 494
453 7 493 495
454 7 493 496
455 7 495 497
456 7 496 498
457 4 497 499
458 4 497 500
459 4 497 501
460 4 498 502
461 4 498 503
462 4 498 504
463 8 505 506
464 7 505 507
465 7 505 508
466 7 507 509
467 7 508 510
468 4 509 511
469 4 509 512
470 4 509 513
471 4 510 514
472 4 510 515
473 4 510 516
474 8 517 518
475 7 517 519
476 7 517 520
477 7 519 521
478 7 520 522
479 4 521 523
480 4 521 524
481 4 521 525
482 4 522 526
483 4 522 527
484 4 522 528
485 8 529 530
486 7 529 531
487 7 529 532
488 7 531 533
489 7 532 534
490 4 533 535
491 4 533 536
492 4 533 537
493 4 534 538
494 4 534 539
495 4 534 540
496 8 541 542
497 7 541 543
498 7 541 544
499 7 543 546
500 7 544 545
501 1 545 546
502 4 546 547
503 4 546 548
504 4 545 549
505 4 545 550
506 8 551 552
507 7 551 553
508 7 551 554
509 7 553 556
510 7 554 555
511 1 555 556
512 4 556 557
513 4 556 558
514 4 555 559
515 4 555 560
516 8 561 562
517 7 561 563
518 7 561 564
519 7 563 566
520 7 564 565
521 1 565 566
522 4 566 567
523 4 566 568
524 4 565 569
525 4 565 570
526 8 571 572
527 7 571 573
528 7 571 574
529 7 573 576
530 7 574 575
531 1 575 576
532 4 576 577
533 4 576 578
534 4 575 579
535 4 575 580
536 8 581 582
537 7 581 583
538 7 581 584
539 7 583 586
540 7 584 585
541 1 585 586
542 4 586 587
543 4 586 588
544 4 585 589
545 4 585 590
546 8 591 592
547 7 591 593
548 7 591 594
549 7 593 596
550 7 594 595
551 1 595 596
552 4 596 597
553 4 596 598
554 4 595 599
555 4 595 600
556 8 601 602
557 7 601 603
558 7 601 604
559 7 603 606
560 7 604 605
561 1 605 606
562 4 606 607
563 4 606 608
564 4 605 609
565 4 605 610
566 8 611 612
567 7 611 613
568 7 611 614
569 7 613 616
570 7 614 615
571 1 615 616
572 4 616 617
573 4 616 618
574 4 615 619
575 4 615 620
576 8 621 622
577 7 621 623
578 7 621 624
579 7 623 626
580 7 624 625
581 1 625 626
582 4 626 627
583 4 626 628
584 4 625 629
585 4 625 630
586 8 631 632
587 7 631 633
588 7 631 634
589 7 633 636
590 7 634 635
591 1 635 636
592 4 636 637
593 4 636 638
594 4 635 639
595 4 635 640
596 8 641 642
597 7 641 643
598 7 641 644
599 7 643 646
600 7 644 645
601 1 645 646
602 4 646 647
603 4 646 648
604 4 645 649
605 4 645 650
606 8 651 652
607 7 651 653
608 7 651 654
609 7 653 656
610 7 654 655
611 1 655 656
612 4 656 657
613 4 656 658
614 4 655 659
615 4 655 660
616 8 661 662
617 7 661 663
618 7 661 664
619 7 663 666
620 7 664 665
621 1 665 666
622 4 666 667
623 4 666 668
624 4 665 669
625 4 665 670
626 8 671 672
627 7 671 673
628 7 671 674
629 7 673 676
630 7 674 675
631 1 675 676
632 4 676 677
633 4 676 678
634 4 675 679
635 4 675 680
636 8 681 682
637 7 681 683
638 7 681 684
639 7 683 686
640 7 684 685
641 1 685 686
642 4 686 687
643 4 686 688
644 4 685 689
645 4 685 690
646 8 691 692
647 7 691 693
648 7 691 694
649 7 693 696
650 7 694 695
651 1 695 696
652 4 696 697
653 4 696 698
654 4 695 699
655 4 695 700
656 8 701 702
657 7 701 703
658 7 701 704
659 7 703 706
660 7 704 705
661 1 705 706
662 4 706 707
663 4 706 708
664 4 705 709
665 4 705 710
666 8 711 712
667 7 711 713
668 7 711 714
669 7 713 716
670 7 714 715
671 1 715 716
672 4 716 717
673 4 716 718
674 4 715 719
675 4 715 720
676 8 721 722
677 7 721 723
678 7 721 724
679 7 723 726
680 7 724 725
681 1 725 726
682 4 726 727
683 4 726 728
684 4 725 729
685 4 725 730
686 15 736 737
687 15 736 738
688 15 736 739
689 15 736 740
690 15 736 741
691 15 736 742
692 15 743 744
693 15 743 745
694 15 743 746
695 15 743 747
696 15 743 748
697 15 743 749
698 15 750 751
699 15 750 752
700 15 750 753
701 15 750 754
702 15 750 755
703 15 750 756
704 15 757 758
705 15 757 759
706 15 757 760
707 15 757 761
708 15 757 762
709 15 757 763
710 15 764 765
711 15 764 766
712 15 764 767
713 15 764 768
714 15 764 769
715 15 764 770

Angles

1 11 2 1 3
2 11 2 1 4
3 12 3 1 4
4 9 1 3 5
5 9 1 4 6
6 4 3 5 7
7 4 3 5 8
8 4 3 5 9
9 4 4 6 10
10 4 4 6 11
11 4 4 6 12
12 7 7 5 8
13 7 7 5 9
14 7 8 5 9
15 7 10 6 11
16 7 10 6 12
17 7 11 6 12
18 11 14 13 15
19 11 14 13 16
20 12 15 13 16
21 9 13 15 17
22 9 13 16 18
23 4 15 17 19
24 4 15 17 20
25 4 15 17 21
26 4 16 18 22
27 4 16 18 23
28 4 16 18 24
29 7 19 17 20
30 7 19 17 21
31 7 20 17 21
32 7 22 18 23
33 7 22 18 24
34 7 23 18 24
35 11 26 25 27
36 11 26 25 28
37 12 27 25 28
38 9 25 27 29
39 9 25 28 30
40 4 27 29 31
41 4 27 29 32
42 4 27 29 33
43 4 28 30 34
44 4 28 30 35
45 4 28 30 36
46 7 31 29 32
47 7 31 29 33
48 7 32 29 33
49 7 34 30 35
50 7 34 30 36
51 7 35 30 36
52 11 38 37 39
53 11 38 37 40
54 12 39 37 40
55 9 37 39 41
56 9 37 40 42
57 4 39 41 43
58 4 39 41 44
59 4 39 41 45
60 4 40 42 46
61 4 40 42 47
62 4 40 42 48
63 7 43 41 44
64 7 43 41 45
65 7 44 41 45
66 7 46 42 47
67 7 46 42 48
68 7 47 42 48
69 11 50 49 51
70 11 50 49 52
71 12 51 49 52
72 9 49 51 53
73 9 49 52 54
74 4 51 53 55
75 4 51 53 56
76 4 51 53 57
77 4 52 54 58
78 4 52 54 59
79 4 52 54 60
80 7 55 53 56
81 7 55 53 57
82 7 56 53 57
83 7 58 54 59
84 7 58 54 60
85 7 59 54 60
86 11 62 61 63
87 11 62 61 64
88 12 63 61 64
89 9 61 63 65
90 9 61 64 66
91 4 63 65 67
92 4 63 65 68
93 4 63 65 69
94 4 64 66 70
95 4 64 66 71
96 4 64 66 72
97 7 67 65 68
98 7 67 65 69
99 7 68 65 69
100 7 70 66 71
101 7 70 66 72
102 7 71 66 72
103 11 74 73 75
104 11 74 73 76
105 12 75 73 76
106 9 73 75 77
107 9 73 76 78
108 4 75 77 79
109 4 75 77 80
110 4 75 77 81
111 4 76 78 82
112 4 76 78 83
113 4 76 78 84
114 7 79 77 80
115 7 79 77 81
116 7 80 77 81
117 7 82 78 83
118 7 82 78 84
119 7 83 78 84
120 11 86 85 87
121 11 86 85 88
122 12 87 85 88
123 9 85 87 89
124 9 85 88 90
125 4 87 89 91
126 4 87 89 92
127 4 87 89 93
128 4 88 90 94
129 4 88 90 95
130 4 88 90 96
131 7 91 89 92
132 7 91 89 93
133 7 92 89 93
134 7 94 90 95
135 7 94 90 96
136 7 95 90 96
137 11 98 97 99
138 11 98 97 100
139 12 99 97 100
140 9 97 99 101
141 9 97 100 102
142 4 99 101 103
143 4 99 101 104
144 4 99 101 105
145 4 100 102 106
146 4 100 102 107
147 4 100 102 108
148 7 103 101 104
149 7 103 101 105
150 7 104 101 105
151 7 106 102 107
152 7 106 102 108
153 7 107 102 108
154 11 110 109 111
155 11 110 109 112
156 12 111 109 112
157 9 109 111 113
158 9 109 112 114
159 4 111 113 115
160 4 111 113 116
161 4 111 113 117
162 4 112 114 118
163 4 112 114 119
164 4 112 114 120
165 7 115 113 116
166 7 115 113 117
167 7 116 113 117
168 7 118 114 119
169 7 118 114 120
170 7 119 114 120
171 11 122 121 123
172 11 122 121 124
173 12 123 121 124
174 9 121 123 125
175 9 121 124 126
176 4 123 125 127
177 4 123 125 128
178 4 123 125 129
179 4 124 126 130
180 4 124 126 131
181 4 124 126 132
182 7 127 125 128
183 7 127 125 129
184 7 128 125 129
185 7 130 126 131
186 7 130 126 132
187 7 131 126 132
188 11 134 133 135
189 11 134 133 136
190 12 135 133 136
191 9 133 135 137
192 9 133 136 138
193 4 135 137 139
194 4 135 137 140
195 4 135 137 141
196 4 136 138 142
197 4 136 138 143
198 4 136 138 144
199 7 139 137 140
200 7 139 137 141
201 7 140 137 141
202 7 142 138 143
203 7 142 138 144
204 7 143 138 144
205 11 146 145 147
206 11 146 145 148
207 12 147 145 148
208 9 145 147 149
209 9 145 148 150
210 4 147 149 151
211 4 147 149 152
212 4 147 149 153
213 4 148 150 154
214 4 148 150 155
215 4 148 150 156
216 7 151 149 152
217 7 151 149 153
218 7 152 149 153
219 7 154 150 155
220 7 154 150 156
221 7 155 150 156
222 11 158 157 159
223 11 158 157 160
224 12 159 157 160
225 9 157 159 161
226 9 157 160 162
227 4 159 161 163
228 4 159 161 164
229 4 159 161 165
230 4 160 162 166
231 4 160 162 167
232 4 160 162 168
233 7 163 161 164
234 7 163 161 165
235 7 164 161 165
236 7 166 162 167
237 7 166 162 168
238 7 167 162 168
239 11 170 169 171
240 11 170 169 172
241 12 171 169 172
242 9 169 171 173
243 9 169 172 174
244 4 171 173 175
245 4 171 173 176
246 4 171 173 177
247 4 172 174 178
248 4 172 174 179
249 4 172 174 180
250 7 175 173 176
251 7 175 173 177
252 7 176 173 177
253 7 178 174 179
254 7 178 174 180
255 7 179 174 180
256 11 182 181 183
257 11 182 181 184
258 12 183 181 184
259 9 181 183 185
260 9 181 184 186
261 4 183 185 187
262 4 183 185 188
263 4 183 185 189
264 4 184 186 190
265 4 184 186 191
266 4 184 186 192
267 7 187 185 188
268 7 187 185 189
269 7 188 185 189
270 7 190 186 191
271 7 190 186 192
272 7 191 186 192
273 11 194 193 195
274 11 194 193 196
275 12 195 193 196
276 9 193 195 197
277 9 193 196 198
278 4 195 197 199
279 4 195 197 200
280 4 195 197 201
281 4 196 198 202
282 4 196 198 203
283 4 196 198 204
284 7 199 197 200
285 7 199 197 201
286 7 200 197 201
287 7 202 198 203
288 7 202 198 204
289 7 203 198 204
290 11 206 205 207
291 11 206 205 208
292 12 207 205 208
293 9 205 207 209
294 9 205 208 210
295 4 207 209 211
296 4 207 209 212
297 4 207 209 213
298 4 208 210 214
299 4 208 210 215
300 4 208 210 216
301 7 211 209 212
302 7 211 209 213
303 7 212 209 213
304 7 214 210 215
305 7 214 210 216
306 7 215 210 216
307 11 218 217 219
308 11 218 217 220
309 12 219 217 220
310 9 217 219 221
311 9 217 220 222
312 4 219 221 223
313 4 219 221 224
314 4 219 221 225
315 4 220 222 226
316 4 220 222 227
317 4 220 222 228
318 7 223 221 224
319 7 223 221 225
320 7 224 221 225
321 7 226 222 227
322 7 226 222 228
323 7 227 222 228
324 11 230 229 231
325 11 230 229 232
326 12 231 229 232
327 9 229 231 233
328 9 229 232 234
329 4 231 233 235
330 4 231 233 236
331 4 231 233 237
332 4 232 234 238
333 4 232 234 239
334 4 232 234 240
335 7 235 233 236
336 7 235 233 237
337 7 236 233 237
338 7 238 234 239
339 7 238 234 240
340 7 239 234 240
341 11 242 241 243
342 11 242 241 244
343 12 243 241 244
344 9 241 243 245
345 9 241 244 246
346 4 243 245 247
347 4 243 245 248
348 4 243 245 249
349 4 244 246 250
350 4 244 246 251
351 4 244 246 252
352 7 247 245 248
353 7 247 245 249
354 7 248 245 249
355 7 250 246 251
356 7 250 246 252
357 7 251 246 252
358 11 254 253 255
359 11 254 253 256
360 12 255 253 256
361 9 253 255 257
362 9 253 256 258
363 4 255 257 259
364 4 255 257 260
365 4 255 257 261
366 4 256 258 262
367 4 256 258 263
368 4 256 258 264
369 7 259 257 260
370 7 259 257 261
371 7 260 257 261
372 7 262 258 263
373 7 262 258 264
374 7 263 258 264
375 11 266 265 267
376 11 266 265 268
377 12 267 265 268
378 9 265 267 269
379 9 265 268 270
380 4 267 269 271
381 4 267 269 272
382 4 267 269 273
383 4 268 270 274
384 4 268 270 275
385 4 268 270 276
386 7 271 269 272
387 7 271 269 273
388 7 272 269 273
389 7 274 270 275
390 7 274 270 276
391 7 275 270 276
392 11 278 277 279
393 11 278 277 280
394 12 279 277 280
395 9 277 279 281
396 9 277 280 282
397 4 279 281 283
398 4 279 281 284
399 4 279 281 285
400 4 280 282 286
401 4 280 282 287
402 4 280 282 288
403 7 283 281 284
404 7 283 281 285
405 7 284 281 285
406 7 286 282 287
407 7 286 282 288
408 7 287 282 288
409 11 290 289 291
410 11 290 289 292
411 12 291 289 292
412 9 289 291 293
413 9 289 292 294
414 4 291 293 295
415 4 291 293 296
416 4 291 293 297
417 4 292 294 298
418 4 292 294 299
419 4 292 294 300
420 7 295 293 296
421 7 295 293 297
422 7 296 293 297
423 7 298 294 299
424 7 298 294 300
425 7 299 294 300
426 11 302 301 303
427 11 302 301 304
428 12 303 301 304
429 9 301 303 305
430 9 301 304 306
431 4 303 305 307
432 4 303 305 308
433 4 303 305 309
434 4 304 306 310
435 4 304 306 311
436 4 304 306 312
437 7 307 305 308
438 7 307 305 309
439 7 308 305 309
440 7 310 306 311
441 7 310 306 312
442 7 311 306 312
443 11 314 313 315
444 11 314 313 316
445 12 315 313 316
446 9 313 315 317
447 9 313 316 318
448 4 315 317 319
449 4 315 317 320
450 4 315 317 321
451 4 316 318 322
452 4 316 318 323
453 4 316 318 324
454 7 319 317 320
455 7 319 317 321
456 7 320 317 321
457 7 322 318 323
458 7 322 318 324
459 7 323 318 324
460 11 326 325 327
461 11 326 325 328
462 12 327 325 328
463 9 325 327 329
464 9 325 328 330
465 4 327 329 331
466 4 327 329 332
467 4 327 329 333
468 4 328 330 334
469 4 328 330 335
470 4 328 330 336
471 7 331 329 332
472 7 331 329 333
473 7 332 329 333
474 7 334 330 335
475 7 334 330 336
476 7 335 330 336
477 11 338 337 339
478 11 338 337 340
479 12 339 337 340
480 9 337 339 341
481 9 337 340 342
482 4 339 341 343
483 4 339 341 344
484 4 339 341 345
485 4 340 342 346
486 4 340 342 347
487 4 340 342 348
488 7 343 341 344
489 7 343 341 345
490 7 344 341 345
491 7 346 342 347
492 7 346 342 348
493 7 347 342 348
494 11 350 349 351
495 11 350 349 352
496 12 351 349 352
497 9 349 351 353
498 9 349 352 354
499 4 351 353 355
500 4 351 353 356
501 4 351 353 357
502 4 352 354 358
503 4 352 354 359
504 4 352 354 360
505 7 355 353 356
506 7 355 353 357
507 7 356 353 357
508 7 358 354 359
509 7 358 354 360
510 7 359 354 360
511 11 362 361 363
512 11 362 361 364
513 12 363 361 364
514 9 361 363 365
515 9 361 364 366
516 4 363 365 367
517 4 363 365 368
518 4 363 365 369
519 4 364 366 370
520 4 364 366 371
521 4 364 366 372
522 7 367 365 368
523 7 367 365 369
524 7 368 365 369
525 7 370 366 371
526 7 370 366 372
527 7 371 366 372
528 11 374 373 375
529 11 374 373 376
530 12 375 373 376
531 9 373 375 377
532 9 373 376 378
533 4 375 377 379
534 4 375 377 380
535 4 375 377 381
536 4 376 378 382
537 4 376 378 383
538 4 376 378 384
539 7 379 377 380
540 7 379 377 381
541 7 380 377 381
542 7 382 378 383
543 7 382 378 384
544 7 383 378 384
545 11 386 385 387
546 11 386 385 388
547 12 387 385 388
548 9 385 387 389
549 9 385 388 390
550 4 387 389 391
551 4 387 389 392
552 4 387 389 393
553 4 388 390 394
554 4 388 390 395
555 4 388 390 396
556 7 391 389 392
557 7 391 389 393
558 7 392 389 393
559 7 394 390 395
560 7 394 390 396
561 7 395 390 396
562 11 398 397 399
563 11 398 397 400
564 12 399 397 400
565 9 397 399 401
566 9 397 400 402
567 4 399 401 403
568 4 399 401 404
569 4 399 401 405
570 4 400 402 406
571 4 400 402 407
572 4 400 402 408
573 7 403 401 404
574 7 403 401 405
575 7 404 401 405
576 7 406 402 407
577 7 406 402 408
578 7 407 402 408
579 11 410 409 411
580 11 410 409 412
581 12 411 409 412
582 9 409 411 413
583 9 409 412 414
584 4 411 413 415
585 4 411 413 416
586 4 411 413 417
587 4 412 414 418
588 4 412 414 419
589 4 412 414 420
590 7 415 413 416
591 7 415 413 417
592 7 416 413 417
593 7 418 414 419
594 7 418 414 420
595 7 419 414 420
596 11 422 421 423
597 11 422 421 424
598 12 423 421 424
599 9 421 423 425
600 9 421 424 426
601 4 423 425 427
602 4 423 425 428
603 4 423 425 429
604 4 424 426 430
605 4 424 426 431
606 4 424 426 432
607 7 427 425 428
608 7 427 425 429
609 7 428 425 429
610 7 430 426 431
611 7 430 426 432
612 7 431 426 432
613 11 434 433 435
614 11 434 433 436
615 12 435 433 436
616 9 433 435 437
617 9 433 436 438
618 4 435 437 439
619 4 435 437 440
620 4 435 437 441
621 4 436 438 442
622 4 436 438 443
623 4 436 438 444
624 7 439 437 440
625 7 439 437 441
626 7 440 437 441
627 7 442 438 443
628 7 442 438 444
629 7 443 438 444
630 11 446 445 447
631 11 446 445 448
632 12 447 445 448
633 9 445 447 449
634 9 445 448 450
635 4 447 449 451
636 4 447 449 452
637 4 447 449 453
638 4 448 450 454
639 4 448 450 455
640 4 448 450 456
641 7 451 449 452
642 7 451 449 453
643 7 452 449 453
644 7 454 450 455
645 7 454 450 456
646 7 455 450 456
647 11 458 457 459
648 11 458 457 460
649 12 459 457 460
650 9 457 459 461
651 9 457 460 462
652 4 459 461 463
653 4 459 461 464
654 4 459 461 465
655 4 460 462 466
656 4 460 462 467
657 4 460 462 468
658 7 463 461 464
659 7 463 461 465
660 7 464 461 465
661 7 466 462 467
662 7 466 462 468
663 7 467 462 468
664 11 470 469 471
665 11 470 469 472
666 12 471 469 472
667 9 469 471 473
668 9 469 472 474
669 4 471 473 475
670 4 471 473 476
671 4 471 473 477
672 4 472 474 478
673 4 472 474 479
674 4 472 474 480
675 7 475 473 476
676 7 475 473 477
677 7 476 473 477
678 7 478 474 479
679 7 478 474 480
680 7 479 474 480
681 11 482 481 483
682 11 482 481 484
683 12 483 481 484
684 9 481 483 485
685 9 481 484 486
686 4 483 485 487
687 4 483 485 488
688 4 483 485 489
689 4 484 486 490
690 4 484 486 491
691 4 484 486 492
692 7 487 485 488
693 7 487 485 489
694 7 488 485 489
695 7 490 486 491
696 7 490 486 492
697 7 491 486 492
698 11 494 493 495
699 11 494 493 496
700 12 495 493 496
701 9 493 495 497
702 9 493 496 498
703 4 495 497 499
704 4 495 497 500
705 4 495 497 501
706 4 496 498 502
707 4 496 498 503
708 4 496 498 504
709 7 499 497 500
710 7 499 497 501
711 7 500 497 501
712 7 502 498 503
713 7 502 498 504
714 7 503 498 504
715 11 506 505 507
716 11 506 505 508
717 12 507 505 508
718 9 505 507 509
719 9 505 508 510
720 4 507 509 511
721 4 507 509 512
722 4 507 509 513
723 4 508 510 514
724 4 508 510 515
725 4 508 510 516
726 7 511 509 512
727 7 511 509 513
728 7 512 509 513
729 7 514 510 515
730 7 514 510 516
731 7 515 510 516
732 11 518 517 519
733 11 518 517 520
734 12 519 517 520
735 9 517 519 521
736 9 517 520 522
737 4 519 521 523
738 4 519 521 524
739 4 519 521 525
740 4 520 522 526
741 4 520 522 527
742 4 520 522 528
743 7 523 521 524
744 7 523 521 525
745 7 524 521 525
746 7 526 522 527
747 7 526 522 528
748 7 527 522 528
749 11 530 529 531
750 11 530 529 532
751 12 531 529 532
752 9 529 531 533
753 9 529 532 534
754 4 531 533 535
755 4 531 533 536
756 4 531 533 537
757 4 532 534 538
758 4 532 534 539
759 4 532 534 540
760 7 535 533 536
761 7 535 533 537
762 7 536 533 537
763 7 538 534 539
764 7 538 534 540
765 7 539 534 540
766 11 542 541 543
767 11 542 541 544
768 12 543 541 544
769 9 541 543 546
770 9 541 544 545
771 13 543 546 545
772 13 544 545 546
773 4 545 546 547
774 4 545 546 548
775 4 546 545 549
776 4 546 545 550
777 6 547 546 548
778 6 549 545 550
779 11 552 551 553
780 11 552 551 554
781 12 553 551 554
782 9 551 553 556
783 9 551 554 555
784 13 553 556 555
785 13 554 555 556
786 4 555 556 557
787 4 555 556 558
788 4 556 555 559
789 4 556 555 560
790 6 557 556 558
791 6 559 555 560
792 11 562 561 563
793 11 562 561 564
794 12 563 561 564
795 9 561 563 566
796 9 561 564 565
797 13 563 566 565
798 13 564 565 566
799 4 565 566 567
800 4 565 566 568
801 4 566 565 569
802 4 566 565 570
803 6 567 566 568
804 6 569 565 570
805 11 572 571 573
806 11 572 571 574
807 12 573 571 574
808 9 571 573 576
809 9 571 574 575
810 13 573 576 575
811 13 574 575 576
812 4 575 576 577
813 4 575 576 578
814 4 576 575 579
815 4 576 575 580
816 6 577 576 578
817 6 579 575 580
818 11 582 581 583
819 11 582 581 584
820 12 583 581 584
821 9 581 583 586
822 9 581 584 585
823 13 583 586 585
824 13 584 585 586
825 4 585 586 587
826 4 585 586 588
827 4 586 585 589
828 4 586 585 590
829 6 587 586 588
830 6 589 585 590
831 11 592 591 593
832 11 592 591 594
833 12 593 591 594
834 9 591 593 596
835 9 591 594 595
836 13 593 596 595
837 13 594 595 596
838 4 595 596 597
839 4 595 596 598
840 4 596 595 599
841 4 596 595 600
842 6 597 596 598
843 6 599 595 600
844 11 602 601 603
845 11 602 601 604
846 12 603 601 604
847 9 601 603 606
848 9 601 604 605
849 13 603 606 605
850 13 604 605 606
851 4 605 606 607
852 4 605 606 608
853 4 606 605 609
854 4 606 605 610
855 6 607 606 608
856 6 609 605 610
857 11 612 611 613
858 11 612 611 614
859 12 613 611 614
860 9 611 613 616
861 9 611 614 615
862 13 613 616 615
863 13 614 615 616
864 4 615 616 617
865 4 615 616 618
866 4 616 615 619
867 4 616 615 620
868 6 617 616 618
869 6 619 615 620
870 11 622 621 623
871 11 622 621 624
872 12 623 621 624
873 9 621 623 626
874 9 621 624 625
875 13 623 626 625
876 13 624 625 626
877 4 625 626 627
878 4 625 626 628
879 4 626 625 629
880 4 626 625 630
881 6 627 626 628
882 6 629 625 630
883 11 632 631 633
884 11 632 631 634
885 12 633 631 634
886 9 631 633 636
887 9 631 634 635
888 13 633 636 635
889 13 634 635 636
890 4 635 636 637
891 4 635 636 638
892 4 636 635 639
893 4 636 635 640
894 6 637 636 638
895 6 639 635 640
896 11 642 641 643
897 11 642 641 644
898 12 643 641 644
899 9 641 643 646
900 9 641 644 645
901 13 643 646 645
902 13 644 645 646
903 4 645 646 647
904 4 645 646 648
905 4 646 645 649
906 4 646 645 650
907 6 647 646 648
908 6 649 645 650
909 11 652 651 653
910 11 652 651 654
911 12 653 651 654
912 9 651 653 656
913 9 651 654 655
914 13 653 656 655
915 13 654 655 656
916 4 655 656 657
917 4 655 656 658
918 4 656 655 659
919 4 656 655 660
920 6 657 656 658
921 6 659 655 660
922 11 662 661 663
923 11 662 661 664
924 12 663 661 664
925 9 661 663 666
926 9 661 664 665
927 13 663 666 665
928 13 664 665 666
929 4 665 666 667
930 4 665 666 668
931 4 666 665 669
932 4 666 665 670
933 6 667 666 668
934 6 669 665 670
935 11 672 671 673
936 11 672 671 674
937 12 673 671 674
938 9 671 673 676
939 9 671 674 675
940 13 673 676 675
941 13 674 675 676
942 4 675 676 677
943 4 675 676 678
944 4 676 675 679
945 4 676 675 680
946 6 677 676 678
947 6 679 675 680
948 11 682 681 683
949 11 682 681 684
950 12 683 681 684
951 9 681 683 686
952 9 681 684 685
953 13 683 686 685
954 13 684 685 686
955 4 685 686 687
956 4 685 686 688
957 4 686 685 689
958 4 686 685 690
959 6 687 686 688
960 6 689 685 690
961 11 692 691 693
962 11 692 691 694
963 12 693 691 694
964 9 691 693 696
965 9 691 694 695
966 13 693 696 695
967 13 694 695 696
968 4 695 696 697
969 4 695 696 698
970 4 696 695 699
971 4 696 695 700
972 6 697 696 698
973 6 699 695 700
974 11 702 701 703
975 11 702 701 704
976 12 703 701 704
977 9 701 703 706
978 9 701 704 705
979 13 703 706 705
980 13 704 705 706
981 4 705 706 707
982 4 705 706 708
983 4 706 705 709
984 4 706 705 710
985 6 707 706 708
986 6 709 705 710
987 11 712 711 713
988 11 712 711 714
989 12 713 711 714
990 9 711 713 716
991 9 711 714 715
992 13 713 716 715
993 13 714 715 716
994 4 715 716 717
995 4 715 716 718
996 4 716 715 719
997 4 716 715 720
998 6 717 716 718
999 6 719 715 720
1000 11 722 721 723
1001 11 722 721 724
1002 12 723 721 724
1003 9 721 723 726
1004 9 721 724 725
1005 13 723 726 725
1006 13 724 725 726
1007 4 725 726 727
1008 4 725 726 728
1009 4 726 725 729
1010 4 726 725 730
1011 6 727 726 728
1012 6 729 725 730
1013 18 737 736 738
1014 18 739 736 740
1015 18 741 736 742
1016 17 737 736 739
1017 17 737 736 740
1018 17 737 736 741
1019 17 737 736 742
1020 17 738 736 739
1021 17 738 736 740
1022 17 738 736 741
1023 17 738 736 742
1024 17 739 736 741
1025 17 739 736 742
1026 17 740 736 741
1027 17 740 736 742
1028 18 744 743 745
1029 18 746 743 747
1030 18 748 743 749
1031 17 744 743 746
1032 17 744 743 747
1033 17 744 743 748
1034 17 744 743 749
1035 17 745 743 746
1036 17 745 743 747
1037 17 745 743 748
1038 17 745 743 749
1039 17 746 743 748
1040 17 746 743 749
1041 17 747 743 748
1042 17 747 743 749
1043 18 751 750 752
1044 18 753 750 754
1045 18 755 750 756
1046 17 751 750 753
1047 17 751 750 754
1048 17 751 750 755
1049 17 751 750 756
1050 17 752 750 753
1051 17 752 750 754
1052 17 752 750 755
1053 17 752 750 756
1054 17 753 750 755
1055 17 753 750 756
1056 17 754 750 755
1057 17 754 750 756
1058 18 758 757 759
1059 18 760 757 761
1060 18 762 757 763
1061 17 758 757 760
1062 17 758 757 761
1063 17 758 757 762
1064 17 758 757 763
1065 17 759 757 760
1066 17 759 757 761
1067 17 759 757 762
1068 17 759 757 763
1069 17 760 757 762
1070 17 760 757 763
1071 17 761 757 762
1072 17 761 757 763
1073 18 765 764 766
1074 18 767 764 768
1075 18 769 764 770
1076 17 765 764 767
1077 17 765 764 768
1078 17 765 764 769
1079 17 765 764 770
1080 17 766 764 767
1081 17 766 764 768
1082 17 766 764 769
1083 17 766 764 770
1084 17 767 764 769
1085 17 767 764 770
1086 17 768 764 769
1087 17 768 764 770

Dihedrals

1 8 2 1 3 5
2 8 2 1 4 6
3 6 1 3 5 7
4 6 1 3 5 8
5 6 1 3 5 9
6 6 1 4 6 10
7 6 1 4 6 11
8 6 1 4 6 12
9 8 14 13 15 17
10 8 14 13 16 18
11 6 13 15 17 19
12 6 13 15 17 20
13 6 13 15 17 21
14 6 13 16 18 22
15 6 13 16 18 23
16 6 13 16 18 24
17 8 26 25 27 29
18 8 26 25 28 30
19 6 25 27 29 31
20 6 25 27 29 32
21 6 25 27 29 33
22 6 25 28 30 34
23 6 25 28 30 35
24 6 25 28 30 36
25 8 38 37 39 41
26 8 38 37 40 42
27 6 37 39 41 43
28 6 37 39 41 44
29 6 37 39 41 45
30 6 37 40 42 46
31 6 37 40 42 47
32 6 37 40 42 48
33 8 50 49 51 53
34 8 50 49 52 54
35 6 49 51 53 55
36 6 49 51 53 56
37 6 49 51 53 57
38 6 49 52 54 58
39 6 49 52 54 59
40 6 49 52 54 60
41 8 62 61 63 65
42 8 62 61 64 66
43 6 61 63 65 67
44 6 61 63 65 68
45 6 61 63 65 69
46 6 61 64 66 70
47 6 61 64 66 71
48 6 61 64 66 72
49 8 74 73 75 77
50 8 74 73 76 78
51 6 73 75 77 79
52 6 73 75 77 80
53 6 73 75 77 81
54 6 73 76 78 82
55 6 73 76 78 83
56 6 73 76 78 84
57 8 86 85 87 89
58 8 86 85 88 90
59 6 85 87 89 91
60 6 85 87 89 92
61 6 85 87 89 93
62 6 85 88 90 94
63 6 85 88 90 95
64 6 85 88 90 96
65 8 98 97 99 101
66 8 98 97 100 102
67 6 97 99 101 103
68 6 97 99 101 104
69 6 97 99 101 105
70 6 97 100 102 106
71 6 97 100 102 107
72 6 97 100 102 108
73 8 110 109 111 113
74 8 110 109 112 114
75 6 109 111 113 115
76 6 109 111 113 116
77 6 109 111 113 117
78 6 109 112 114 118
79 6 109 112 114 119
80 6 109 112 114 120
81 8 122 121 123 125
82 8 122 121 124 126
83 6 121 123 125 127
84 6 121 123 125 128
85 6 121 123 125 129
86 6 121 124 126 130
87 6 121 124 126 131
88 6 121 124 126 132
89 8 134 133 135 137
90 8 134 133 136 138
91 6 133 135 137 139
92 6 133 135 137 140
93 6 133 135 137 141
94 6 133 136 138 142
95 6 133 136 138 143
96 6 133 136 138 144
97 8 146 145 147 149
98 8 146 145 148 150
99 6 145 147 149 151
100 6 145 147 149 152
101 6 145 147 149 153
102 6 145 148 150 154
103 6 145 148 150 155
104 6 145 148 150 156
105 8 158 157 159 161
106 8 158 157 160 162
107 6 157 159 161 163
108 6 157 159 161 164
109 6 157 159 161 165
110 6 157 160 162 166
111 6 157 160 162 167
112 6 157 160 162 168
113 8 170 169 171 173
114 8 170 169 172 174
115 6 169 171 173 175
116 6 169 171 173 176
117 6 169 171 173 177
118 6 169 172 174 178
119 6 169 172 174 179
120 6 169 172 174 180
121 8 182 181 183 185
122 8 182 181 184 186
123 6 181 183 185 187
124 6 181 183 185 188
125 6 181 183 185 189
126 6 181 184 186 190
127 6 181 184 186 191
128 6 181 184 186 192
129 8 194 193 195 197
130 8 194 193 196 198
131 6 193 195 197 199
132 6 193 195 197 200
133 6 193 195 197 201
134 6 193 196 198 202
135 6 193 196 198 203
136 6 193 196 198 204
137 8 206 205 207 209
138 8 206 205 208 210
139 6 205 207 209 211
140 6 205 207 209 212
141 6 205 207 209 213
142 6 205 208 210 214
143 6 205 208 210 215
144 6 205 208 210 216
145 8 218 217 219 221
146 8 218 217 220 222
147 6 217 219 221 223
148 6 217 219 221 224
149 6 217 219 221 225
150 6 217 220 222 226
151 6 217 220 222 227
152 6 217 220 222 228
153 8 230 229 231 233
154 8 230 229 232 234
155 6 229 231 233 235
156 6 229 231 233 236
157 6 229 231 233 237
158 6 229 232 234 238
159 6 229 232 234 239
160 6 229 232 234 240
161 8 242 241 243 245
162 8 242 241 244 246
163 6 241 243 245 247
164 6 241 243 245 248
165 6 241 243 245 249
166 6 241 244 246 250
167 6 241 244 246 251
168 6 241 244 246 252
169 8 254 253 255 257
170 8 254 253 256 258
171 6 253 255 257 259
172 6 253 255 257 260
173 6 253 255 257 261
174 6 253 256 258 262
175 6 253 256 258 263
176 6 253 256 258 264
177 8 266 265 267 269
178 8 266 265 268 270
179 6 265 267 269 271
180 6 265 267 269 272
181 6 265 267 269 273
182 6 265 268 270 274
183 6 265 268 270 275
184 6 265 268 270 276
185 8 278 277 279 281
186 8 278 277 280 282
187 6 277 279 281 283
188 6 277 279 281 284
189 6 277 279 281 285
190 6 277 280 282 286
191 6 277 280 282 287
192 6 277 280 282 288
193 8 290 289 291 293
194 8 290 289 292 294
195 6 289 291 293 295
196 6 289 291 293 296
197 6 289 291 293 297
198 6 289 292 294 298
199 6 289 292 294 299
200 6 289 292 294 300
201 8 302 301 303 305
202 8 302 301 304 306
203 6 301 303 305 307
204 6 301 303 305 308
205 6 301 303 305 309
206 6 301 304 306 310
207 6 301 304 306 311
208 6 301 304 306 312
209 8 314 313 315 317
210 8 314 313 316 318
211 6 313 315 317 319
212 6 313 315 317 320
213 6 313 315 317 321
214 6 313 316 318 322
215 6 313 316 318 323
216 6 313 316 318 324
217 8 326 325 327 329
218 8 326 325 328 330
219 6 325 327 329 331
220 6 325 327 329 332
221 6 325 327 329 333
222 6 325 328 330 334
223 6 325 328 330 335
224 6 325 328 330 336
225 8 338 337 339 341
226 8 338 337 340 342
227 6 337 339 341 343
228 6 337 339 341 344
229 6 337 339 341 345
230 6 337 340 342 346
231 6 337 340 342 347
232 6 337 340 342 348
233 8 350 349 351 353
234 8 350 349 352 354
235 6 349 351 353 355
236 6 349 351 353 356
237 6 349 351 353 357
238 6 349 352 354 358
239 6 349 352 354 359
240 6 349 352 354 360
241 8 362 361 363 365
242 8 362 361 364 366
243 6 361 363 365 367
244 6 361 363 365 368
245 6 361 363 365 369
246 6 361 364 366 370
247 6 361 364 366 371
248 6 361 364 366 372
249 8 374 373 375 377
250 8 374 373 376 378
251 6 373 375 377 379
252 6 373 375 377 380
253 6 373 375 377 381
254 6 373 376 378 382
255 6 373 376 378 383
256 6 373 376 378 384
257 8 386 385 387 389
258 8 386 385 388 390
259 6 385 387 389 391
260 6 385 387 389 392
261 6 385 387 389 393
262 6 385 388 390 394
263 6 385 388 390 395
264 6 385 388 390 396
265 8 398 397 399 401
266 8 398 397 400 402
267 6 397 399 401 403
268 6 397 399 401 404
269 6 397 399 401 405
270 6 397 400 402 406
271 6 397 400 402 407
272 6 397 400 402 408
273 8 410 409 411 413
274 8 410 409 412 414
275 6 409 411 413 415
276 6 409 411 413 416
277 6 409 411 413 417
278 6 409 412 414 418
279 6 409 412 414 419
280 6 409 412 414 420
281 8 422 421 423 425
282 8 422 421 424 426
283 6 421 423 425 427
284 6 421 423 425 428
285 6 421 423 425 429
286 6 421 424 426 430
287 6 421 424 426 431
288 6 421 424 426 432
289 8 434 433 435 437
290 8 434 433 436 438
291 6 433 435 437 439
292 6 433 435 437 440
293 6 433 435 437 441
294 6 433 436 438 442
295 6 433 436 438 443
296 6 433 436 438 444
297 8 446 445 447 449
298 8 446 445 448 450
299 6 445 447 449 451
300 6 445 447 449 452
301 6 445 447 449 453
302 6 445 448 450 454
303 6 445 448 450 455
304 6 445 448 450 456
305 8 458 457 459 461
306 8 458 457 460 462
307 6 457 459 461 463
308 6 457 459 461 464
309 6 457 459 461 465
310 6 457 460 462 466
311 6 457 460 462 467
312 6 457 460 462 468
313 8 470 469 471 473
314 8 470 469 472 474
315 6 469 471 473 475
316 6 469 471 473 476
317 6 469 471 473 477
318 6 469 472 474 478
319 6 469 472 474 479
320 6 469 472 474 480
321 8 482 481 483 485
322 8 482 481 484 486
323 6 481 483 485 487
324 6 481 483 485 488
325 6 481 483 485 489
326 6 481 484 486 490
327 6 481 484 486 491
328 6 481 484 486 492
329 8 494 493 495 497
330 8 494 493 496 498
331 6 493 495 497 499
332 6 493 495 497 500
333 6 493 495 497 501
334 6 493 496 498 502
335 6 493 496 498 503
336 6 493 496 498 504
337 8 506 505 507 509
338 8 506 505 508 510
339 6 505 507 509 511
340 6 505 507 509 512
341 6 505 507 509 513
342 6 505 508 510 514
343 6 505 508 510 515
344 6 505 508 510 516
345 8 518 517 519 521
346 8 518 517 520 522
347 6 517 519 521 523
348 6 517 519 521 524
349 6 517 519 521 525
350 6 517 520 522 526
351 6 517 520 522 527
352 6 517 520 522 528
353 8 530 529 531 533
354 8 530 529 532 534
355 6 529 531 533 535
356 6 529 531 533 536
357 6 529 531 533 537
358 6 529 532 534 538
359 6 529 532 534 539
360 6 529 532 534 540
361 8 542 541 543 546
362 8 542 541 544 545
363 5 541 543 546 545
364 7 543 546 545 544
365 7 541 544 545 546
366 8 552 551 553 556
367 8 552 551 554 555
368 5 551 553 556 555
369 7 553 556 555 554
370 7 551 554 555 556
371 8 562 561 563 566
372 8 562 561 564 565
373 5 561 563 566 565
374 7 563 566 565 564
375 7 561 564 565 566
376 8 572 571 573 576
377 8 572 571 574 575
378 5 571 573 576 575
379 7 573 576 575 574
380 7 571 574 575 576
381 8 582 581 583 586
382 8 582 581 584 585
383 5 581 583 586 585
384 7 583 586 585 584
385 7 581 584 585 586
386 8 592 591 593 596
387 8 592 591 594 595
388 5 591 593 596 595
389 7 593 596 595 594
390 7 591 594 595 596
391 8 602 601 603 606
392 8 602 601 604 605
393 5 601 603 606 605
394 7 603 606 605 604
395 7 601 604 605 606
396 8 612 611 613 616
397 8 612 611 614 615
398 5 611 613 616 615
399 7 613 616 615 614
400 7 611 614 615 616
401 8 622 621 623 626
402 8 622 621 624 625
403 5 621 623 626 625
404 7 623 626 625 624
405 7 621 624 625 626
406 8 632 631 633 636
407 8 632 631 634 635
408 5 631 633 636 635
409 7 633 636 635 634
410 7 631 634 635 636
411 8 642 641 643 646
412 8 642 641 644 645
413 5 641 643 646 645
414 7 643 646 645 644
415 7 641 644 645 646
416 8 652 651 653 656
417 8 652 651 654 655
418 5 651 653 656 655
419 7 653 656 655 654
420 7 651 654 655 656
421 8 662 661 663 666
422 8 662 661 664 665
423 5 661 663 666 665
424 7 663 666 665 664
425 7 661 664 665 666
426 8 672 671 673 676
427 8 672 671 674 675
428 5 671 673 676 675
429 7 673 676 675 674
430 7 671 674 675 676
431 8 682 681 683 686
432 8 682 681 684 685
433 5 681 683 686 685
434 7 683 686 685 684
435 7 681 684 685 686
436 8 692 691 693 696
437 8 692 691 694 695
438 5 691 693 696 695
439 7 693 696 695 694
440 7 691 694 695 696
441 8 702 701 703 706
442 8 702 701 704 705
443 5 701 703 706 705
444 7 703 706 705 704
445 7 701 704 705 706
446 8 712 711 713 716
447 8 712 711 714 715
448 5 711 713 716 715
449 7 713 716 715 714
450 7 711 714 715 716
451 8 722 721 723 726
452 8 722 721 724 725
453 5 721 723 726 725
454 7 723 726 725 724
455 7 721 724 725 726

