LAMMPS Description

770  atoms
715  bonds
1087  angles
455  dihedrals
0  impropers

31  atom types
17  bond types
18  angle types
9  dihedral types
2  improper types

0.0 20.000000 xlo xhi
0.0 20.000000 ylo yhi
0.0 20.000000 zlo zhi

Masses

1 12.011  # opls_135
2 12.011  # opls_136
3 12.011  # opls_137
4 12.011  # opls_138
5 12.011  # opls_141
6 12.011  # opls_142
7 12.011  # opls_145
8 12.011  # opls_146
9 12.011  # opls_209
10 12.011  # opls_212
11 1.008  # opls_140
12 1.008  # opls_139
13 1.008  # opls_143
14 1.008  # opls_148
15 1.008  # opls_154
16 1.008  # opls_160
17 1.008  # opls_210
18 15.999  # opls_154O
19 15.999  # opls_156
20 15.999  # opls_211
21 15.999  # opls_213
22 14.007  # opls_157
23 14.007  # opls_158
24 14.007  # opls_159
25 14.007  # opls_236
26 18.998  # opls_303
27 30.974  # opls_901
28 6.941  # opls_402
29 32.065  # opls_180
30 32.065  # opls_903
31 6.941  # Li

Atoms

1 1 9 +0.52 9.838 0.668 17.601
2 1 20 -0.50 10.257 1.248 18.564
3 1 19 -0.35 8.501 0.457 17.463
4 1 19 -0.35 10.699 0.221 16.648
5 1 1 +0.22 7.675 0.963 18.515
6 1 1 +0.22 12.084 0.489 16.879
7 1 11 +0.06 8.299 1.445 19.267
8 1 11 +0.06 6.971 1.688 18.108
9 1 11 +0.06 7.125 0.140 18.973
10 1 11 +0.06 12.675 0.088 16.055
11 1 11 +0.06 12.241 1.566 16.947
12 1 11 +0.06 12.395 0.018 17.811
13 2 9 +0.52 13.266 15.598 17.016
14 2 20 -0.50 13.918 16.519 17.424
15 2 19 -0.35 13.615 14.977 15.858
16 2 19 -0.35 12.176 15.175 17.713
17 2 1 +0.22 14.774 15.491 15.196
18 2 1 +0.22 11.888 15.889 18.918
19 2 11 +0.06 15.181 16.323 15.770
20 2 11 +0.06 15.524 14.704 15.115
21 2 11 +0.06 14.500 15.836 14.199
22 2 11 +0.06 10.999 15.465 19.388
23 2 11 +0.06 12.733 15.807 19.601
24 2 11 +0.06 11.709 16.939 18.685
25 3 9 +0.52 14.592 9.712 15.322
26 3 20 -0.50 14.420 9.900 16.494
27 3 19 -0.35 14.356 10.712 14.430
28 3 19 -0.35 15.024 8.499 14.884
29 3 1 +0.22 13.905 11.951 14.984
30 3 1 +0.22 15.245 7.511 15.894
31 3 11 +0.06 13.831 11.860 16.067
32 3 11 +0.06 14.614 12.740 14.733
33 3 11 +0.06 12.926 12.198 14.572
34 3 11 +0.06 15.587 6.585 15.428
35 3 11 +0.06 16.003 7.867 16.592
36 3 11 +0.06 14.315 7.324 16.431
37 4 9 +0.52 12.272 7.314 2.806
38 4 20 -0.50 13.467 7.226 2.871
39 4 19 -0.35 11.699 8.445 2.313
40 4 19 -0.35 11.491 6.283 3.226
41 4 1 +0.22 12.601 9.474 1.897
42 4 1 +0.22 12.183 5.137 3.728
43 4 11 +0.06 13.627 9.146 2.059
44 4 11 +0.06 12.449 9.683 0.837
45 4 11 +0.06 12.412 10.378 2.475
46 4 11 +0.06 11.459 4.380 4.033
47 4 11 +0.06 12.827 4.730 2.949
48 4 11 +0.06 12.789 5.425 4.587
49 5 9 +0.52 15.731 15.285 18.941
50 5 20 -0.50 15.229 15.254 20.031
51 5 19 -0.35 16.080 14.126 18.321
52 5 19 -0.35 15.950 16.478 18.327
53 5 1 +0.22 15.810 12.922 19.044
54 5 1 +0.22 15.551 17.641 19.057
55 5 11 +0.06 15.354 13.168 20.002
56 5 11 +0.06 15.129 12.296 18.467
57 5 11 +0.06 16.743 12.383 19.212
58 5 11 +0.06 15.774 18.533 18.470
59 5 11 +0.06 14.480 17.597 19.256
60 5 11 +0.06 16.094 17.683 20.001
61 6 9 +0.52 17.484 6.237 17.463
62 6 20 -0.50 17.295 5.233 18.092
63 6 19 -0.35 17.545 7.437 18.101
64 6 19 -0.35 17.637 6.176 16.113
65 6 1 +0.22 17.373 7.402 19.520
66 6 1 +0.22 17.557 4.871 15.533
67 6 11 +0.06 17.217 6.373 19.842
68 6 11 +0.06 18.263 7.804 20.004
69 6 11 +0.06 16.507 8.004 19.796
70 6 11 +0.06 17.694 4.945 14.453
71 6 11 +0.06 18.337 4.237 15.954
72 6 11 +0.06 16.581 4.437 15.745
73 7 9 +0.52 19.456 9.475 5.792
74 7 20 -0.50 18.630 9.513 4.923
75 7 19 -0.35 19.859 10.624 6.399
76 7 19 -0.35 19.991 8.283 6.170
77 7 1 +0.22 19.241 11.827 5.934
78 7 1 +0.22 19.506 7.131 5.475
79 7 11 +0.06 18.530 11.589 5.144
80 7 11 +0.06 18.719 12.309 6.761
81 7 11 +0.06 20.005 12.501 5.545
82 7 11 +0.06 20.002 6.239 5.860
83 7 11 +0.06 18.430 7.040 5.626
84 7 11 +0.06 19.717 7.232 4.411
85 8 9 +0.52 10.507 15.586 1.054
86 8 20 -0.50 9.498 15.455 0.418
87 8 19 -0.35 11.001 16.830 1.297
88 8 19 -0.35 11.157 14.491 1.532
89 8 1 +0.22 10.250 17.919 0.754
90 8 1 +0.22 10.562 13.227 1.227
91 8 11 +0.06 9.380 17.532 0.223
92 8 11 +0.06 9.920 18.572 1.563
93 8 11 +0.06 10.876 18.484 0.064
94 8 11 +0.06 11.166 12.427 1.658
95 8 11 +0.06 9.556 13.187 1.645
96 8 11 +0.06 10.512 13.100 0.146
97 9 9 +0.52 17.070 12.231 9.655
98 9 20 -0.50 16.854 11.051 9.657
99 9 19 -0.35 18.351 12.688 9.667
100 9 19 -0.35 16.034 13.112 9.639
101 9 1 +0.22 19.372 11.688 9.683
102 9 1 +0.22 14.724 12.539 9.627
103 9 11 +0.06 18.914 10.699 9.681
104 9 11 +0.06 20.002 11.798 8.799
105 9 11 +0.06 19.982 11.805 10.579
106 9 11 +0.06 13.978 13.335 9.615
107 9 11 +0.06 14.606 11.919 8.738
108 9 11 +0.06 14.586 11.926 10.518
109 10 9 +0.52 16.213 4.106 9.537
110 10 20 -0.50 15.825 3.783 8.448
111 10 19 -0.35 16.767 3.179 10.364
112 10 19 -0.35 16.097 5.399 9.945
113 10 1 +0.22 16.846 1.848 9.849
114 10 1 +0.22 15.502 6.300 9.008
115 10 11 +0.06 16.428 1.821 8.843
116 10 11 +0.06 17.889 1.531 9.817
117 10 11 +0.06 16.282 1.174 10.495
118 10 11 +0.06 15.462 7.300 9.440
119 10 11 +0.06 16.098 6.323 8.095
120 10 11 +0.06 14.491 5.966 8.773
121 11 9 +0.52 4.541 2.173 10.946
122 11 20 -0.50 4.078 1.887 9.876
123 11 19 -0.35 5.792 1.754 11.280
124 11 19 -0.35 3.815 2.916 11.824
125 11 1 +0.22 6.477 0.979 10.293
126 11 1 +0.22 2.513 3.309 11.385
127 11 11 +0.06 5.841 0.862 9.416
128 11 11 +0.06 7.399 1.487 10.008
129 11 11 +0.06 6.715 -0.002 10.703
130 11 11 +0.06 2.027 3.896 12.166
131 11 11 +0.06 2.599 3.911 10.480
132 11 11 +0.06 1.916 2.422 11.175
133 12 9 +0.52 6.443 12.528 16.021
134 12 20 -0.50 7.151 13.263 15.390
135 12 19 -0.35 5.106 12.493 15.773
136 12 19 -0.35 6.977 11.729 16.983
137 12 1 +0.22 4.637 13.367 14.743
138 12 1 +0.22 8.391 11.835 17.172
139 12 11 +0.06 5.477 13.925 14.329
140 12 11 +0.06 4.166 12.780 13.955
141 12 11 +0.06 3.909 14.063 15.161
142 12 11 +0.06 8.704 11.153 17.964
143 12 11 +0.06 8.902 11.574 16.245
144 12 11 +0.06 8.646 12.857 17.452
145 13 9 +0.52 9.904 15.576 3.650
146 13 20 -0.50 10.458 14.550 3.934
147 13 19 -0.35 8.550 15.605 3.523
148 13 19 -0.35 10.629 16.710 3.457
149 13 1 +0.22 7.874 14.365 3.745
150 13 1 +0.22 12.045 16.583 3.613
151 13 11 +0.06 8.602 13.591 3.987
152 13 11 +0.06 7.173 14.476 4.573
153 13 11 +0.06 7.328 14.082 2.844
154 13 11 +0.06 12.519 17.549 3.435
155 13 11 +0.06 12.271 16.249 4.625
156 13 11 +0.06 12.426 15.855 2.896
157 14 9 +0.52 7.392 17.730 9.303
158 14 20 -0.50 8.164 18.603 9.015
159 14 19 -0.35 6.118 17.764 8.828
160 14 19 -0.35 7.791 16.707 10.106
161 14 1 +0.22 5.791 18.878 7.993
162 14 1 +0.22 9.147 16.757 10.556
163 14 11 +0.06 6.663 19.522 7.887
164 14 11 +0.06 5.485 18.518 7.010
165 14 11 +0.06 4.974 19.442 8.443
166 14 11 +0.06 9.353 15.891 11.188
167 14 11 +0.06 9.817 16.745 9.697
168 14 11 +0.06 9.307 17.670 11.130
169 15 9 +0.52 8.429 12.517 9.913
170 15 20 -0.50 8.950 11.547 10.390
171 15 19 -0.35 7.074 12.584 9.815
172 15 19 -0.35 9.195 13.551 9.469
173 15 1 +0.22 6.355 11.451 10.308
174 15 1 +0.22 10.608 13.390 9.613
175 15 11 +0.06 7.058 10.710 10.688
176 15 11 +0.06 5.688 11.765 11.112
177 15 11 +0.06 5.768 11.014 9.500
178 15 11 +0.06 11.116 14.275 9.226
179 15 11 +0.06 10.855 13.263 10.667
180 15 11 +0.06 10.934 12.512 9.055
181 16 9 +0.52 10.025 7.022 17.094
182 16 20 -0.50 8.890 7.324 17.340
183 16 19 -0.35 10.520 5.829 17.519
184 16 19 -0.35 10.817 7.875 16.388
185 16 1 +0.22 9.614 5.001 18.253
186 16 1 +0.22 10.210 9.104 15.984
187 16 11 +0.06 8.650 5.503 18.338
188 16 11 +0.06 9.484 4.053 17.731
189 16 11 +0.06 10.017 4.815 19.249
190 16 11 +0.06 10.934 9.703 15.430
191 16 11 +0.06 9.350 8.894 15.347
192 16 11 +0.06 9.882 9.656 16.865
193 17 9 +0.52 1.396 13.622 14.485
194 17 20 -0.50 0.805 13.144 13.557
195 17 19 -0.35 1.449 12.960 15.672
196 17 19 -0.35 2.012 14.828 14.351
197 17 1 +0.22 0.773 11.701 15.717
198 17 1 +0.22 1.901 15.448 13.067
199 17 11 +0.06 0.318 11.497 14.748
200 17 11 +0.06 1.487 10.913 15.957
201 17 11 +0.06 -0.003 11.733 16.482
202 17 11 +0.06 2.430 16.402 13.078
203 17 11 +0.06 2.340 14.799 12.310
204 17 11 +0.06 0.850 15.619 12.835
205 18 9 +0.52 5.577 10.327 1.680
206 18 20 -0.50 4.614 9.675 1.978
207 18 19 -0.35 6.693 9.714 1.203
208 18 19 -0.35 5.551 11.680 1.821
209 18 1 +0.22 6.625 8.290 1.090
210 18 1 +0.22 4.335 12.234 2.330
211 18 11 +0.06 5.647 7.945 1.423
212 18 11 +0.06 6.779 8.000 0.050
213 18 11 +0.06 7.400 7.839 1.710
214 18 11 +0.06 4.431 13.319 2.399
215 18 11 +0.06 3.513 11.985 1.660
216 18 11 +0.06 4.135 11.824 3.320
217 19 9 +0.52 8.966 12.504 12.504
218 19 20 -0.50 8.170 11.987 13.238
219 19 19 -0.35 10.134 11.872 12.214
220 19 19 -0.35 8.699 13.723 11.962
221 19 1 +0.22 10.326 10.596 12.830
222 19 1 +0.22 7.446 14.309 12.324
223 19 11 +0.06 9.460 10.356 13.447
224 19 11 +0.06 10.446 9.835 12.060
225 19 11 +0.06 11.220 10.625 13.454
226 19 11 +0.06 7.342 15.278 11.833
227 19 11 +0.06 6.633 13.655 12.010
228 19 11 +0.06 7.407 14.445 13.405
229 20 9 +0.52 9.222 5.842 8.959
230 20 20 -0.50 9.237 4.861 8.268
231 20 19 -0.35 10.334 6.618 9.064
232 20 19 -0.35 8.091 6.179 9.637
233 20 1 +0.22 11.473 6.184 8.316
234 20 1 +0.22 6.974 5.304 9.464
235 20 11 +0.06 11.226 5.271 7.775
236 20 11 +0.06 11.758 6.961 7.606
237 20 11 +0.06 12.303 5.991 8.996
238 20 11 +0.06 6.130 5.671 10.051
239 20 11 +0.06 6.695 5.272 8.411
240 20 11 +0.06 7.240 4.302 9.801
241 21 9 +0.52 2.670 14.381 19.036
242 21 20 -0.50 1.852 14.350 18.158
243 21 19 -0.35 3.052 13.229 19.650
244 21 19 -0.35 3.215 15.568 19.416
245 21 1 +0.22 2.425 12.032 19.183
246 21 1 +0.22 2.752 16.723 18.713
247 21 11 +0.06 1.725 12.276 18.384
248 21 11 +0.06 3.185 11.348 18.804
249 21 11 +0.06 1.888 11.559 20.005
250 21 11 +0.06 3.255 17.611 19.100
251 21 11 +0.06 2.973 16.617 17.651
252 21 11 +0.06 1.676 16.827 18.852
253 22 9 +0.52 7.129 3.745 5.586
254 22 20 -0.50 8.052 3.930 6.330
255 22 19 -0.35 7.111 4.339 4.363
256 22 19 -0.35 6.100 2.940 5.967
257 22 1 +0.22 8.235 5.166 4.052
258 22 1 +0.22 6.207 2.360 7.269
259 22 11 +0.06 8.930 5.167 4.892
260 22 11 +0.06 8.737 4.778 3.165
261 22 11 +0.06 7.895 6.184 3.860
262 22 11 +0.06 5.332 1.739 7.464
263 22 11 +0.06 7.106 1.746 7.322
264 22 11 +0.06 6.264 3.151 8.017
265 23 9 +0.52 6.311 6.729 14.410
266 23 20 -0.50 6.047 5.649 13.959
267 23 19 -0.35 5.842 7.088 15.635
268 23 19 -0.35 7.080 7.595 13.696
269 23 1 +0.22 5.043 6.113 16.310
270 23 1 +0.22 7.526 7.130 12.420
271 23 11 +0.06 4.954 5.222 15.689
272 23 11 +0.06 5.514 5.850 17.257
273 23 11 +0.06 4.051 6.524 16.500
274 23 11 +0.06 8.130 7.903 11.941
275 23 11 +0.06 8.127 6.230 12.549
276 23 11 +0.06 6.664 6.904 11.792
277 24 9 +0.52 13.241 8.327 10.886
278 24 20 -0.50 12.353 7.719 10.355
279 24 19 -0.35 14.089 7.689 11.737
280 24 19 -0.35 13.399 9.655 10.637
281 24 1 +0.22 13.844 6.295 11.937
282 24 1 +0.22 12.461 10.238 9.729
283 24 11 +0.06 12.983 5.988 11.342
284 24 11 +0.06 14.720 5.724 11.629
285 24 11 +0.06 13.642 6.109 12.992
286 24 11 +0.06 12.684 11.299 9.607
287 24 11 +0.06 12.530 9.740 8.763
288 24 11 +0.06 11.452 10.124 10.126
289 25 9 +0.52 14.884 17.768 8.721
290 25 20 -0.50 15.222 17.204 7.718
291 25 19 -0.35 15.689 18.714 9.275
292 25 19 -0.35 13.694 17.462 9.305
293 25 1 +0.22 16.919 18.967 8.591
294 25 1 +0.22 12.916 16.456 8.650
295 25 11 +0.06 16.986 18.327 7.712
296 25 11 +0.06 16.954 20.013 8.283
297 25 11 +0.06 17.756 18.758 9.258
298 25 11 +0.06 11.990 16.295 9.204
299 25 11 +0.06 12.680 16.780 7.637
300 25 11 +0.06 13.482 15.525 8.612
301 26 9 +0.52 17.182 5.180 3.143
302 26 20 -0.50 18.202 4.664 3.508
303 26 19 -0.35 16.004 4.859 3.744
304 26 19 -0.35 17.203 6.086 2.129
305 26 1 +0.22 16.082 3.898 4.800
306 26 1 +0.22 18.486 6.359 1.559
307 26 11 +0.06 17.117 3.587 4.934
308 26 11 +0.06 15.714 4.344 5.724
309 26 11 +0.06 15.471 3.031 4.547
310 26 11 +0.06 18.380 7.094 0.761
311 26 11 +0.06 19.149 6.753 2.329
312 26 11 +0.06 18.907 5.440 1.152
313 27 9 +0.52 15.623 14.195 2.862
314 27 20 -0.50 14.514 14.412 2.456
315 27 19 -0.35 15.888 14.284 4.194
316 27 19 -0.35 16.613 13.862 1.992
317 27 1 +0.22 14.785 14.640 5.030
318 27 1 +0.22 16.238 13.794 0.613
319 27 11 +0.06 13.895 14.781 4.418
320 27 11 +0.06 14.606 13.844 5.754
321 27 11 +0.06 15.014 15.566 5.558
322 27 11 +0.06 17.107 13.521 0.013
323 27 11 +0.06 15.458 13.044 0.484
324 27 11 +0.06 15.866 14.766 0.289
325 28 9 +0.52 8.463 19.462 12.087
326 28 20 -0.50 8.321 18.587 12.895
327 28 19 -0.35 7.396 19.903 11.367
328 28 19 -0.35 9.691 20.014 11.890
329 28 1 +0.22 6.148 19.264 11.643
330 28 1 +0.22 10.751 19.486 12.691
331 28 11 +0.06 6.289 18.507 12.414
332 28 11 +0.06 5.428 20.006 11.990
333 28 11 +0.06 5.772 18.792 10.735
334 28 11 +0.06 11.681 20.000 12.449
335 28 11 +0.06 10.519 19.634 13.746
336 28 11 +0.06 10.863 18.420 12.491
337 29 9 +0.52 2.157 7.442 14.505
338 29 20 -0.50 2.220 6.955 13.410
339 29 19 -0.35 2.031 6.643 15.599
340 29 19 -0.35 2.211 8.793 14.653
341 29 1 +0.22 1.983 5.237 15.344
342 29 1 +0.22 2.343 9.550 13.447
343 29 11 +0.06 2.060 5.058 14.272
344 29 11 +0.06 2.813 4.747 15.855
345 29 11 +0.06 1.040 4.833 15.714
346 29 11 +0.06 2.376 10.614 13.687
347 29 11 +0.06 3.264 9.266 12.937
348 29 11 +0.06 1.492 9.352 12.796
349 30 9 +0.52 4.748 6.463 3.464
350 30 20 -0.50 5.709 5.996 4.010
351 30 19 -0.35 3.881 5.652 2.802
352 30 19 -0.35 4.526 7.805 3.507
353 30 1 +0.22 4.197 4.257 2.811
354 30 1 +0.22 5.492 8.576 4.226
355 30 11 +0.06 5.117 4.096 3.372
356 30 11 +0.06 3.383 3.703 3.279
357 30 11 +0.06 4.331 3.908 1.786
358 30 11 +0.06 5.212 9.630 4.194
359 30 11 +0.06 5.526 8.243 5.263
360 30 11 +0.06 6.474 8.448 3.770
361 31 9 +0.52 11.108 11.504 3.946
362 31 20 -0.50 11.205 10.680 4.813
363 31 19 -0.35 9.919 11.687 3.312
364 31 19 -0.35 12.187 12.256 3.598
365 31 1 +0.22 8.843 10.851 3.745
366 31 1 +0.22 13.393 11.992 4.320
367 31 11 +0.06 9.191 10.193 4.541
368 31 11 +0.06 8.028 11.473 4.118
369 31 11 +0.06 8.487 10.252 2.907
370 31 11 +0.06 14.185 12.650 3.958
371 31 11 +0.06 13.228 12.174 5.383
372 31 11 +0.06 13.688 10.954 4.171
373 32 9 +0.52 15.870 3.940 0.627
374 32 20 -0.50 14.839 3.685 1.185
375 32 19 -0.35 16.781 2.957 0.398
376 32 19 -0.35 16.127 5.214 0.224
377 32 1 +0.22 16.423 1.651 0.857
378 32 1 +0.22 15.111 6.178 0.508
379 32 11 +0.06 15.440 1.688 1.327
380 32 11 +0.06 16.395 0.963 0.012
381 32 11 +0.06 17.160 1.306 1.582
382 32 11 +0.06 15.425 7.157 0.142
383 32 11 +0.06 14.184 5.887 0.014
384 32 11 +0.06 14.949 6.230 1.585
385 33 9 +0.52 19.041 16.664 19.229
386 33 20 -0.50 19.835 16.835 18.346
387 33 19 -0.35 18.693 15.401 19.595
388 33 19 -0.35 18.489 17.733 19.863
389 33 1 +0.22 19.325 14.342 18.872
390 33 1 +0.22 18.916 19.020 19.409
391 33 11 +0.06 20.000 14.763 18.127
392 33 11 +0.06 19.891 13.717 19.563
393 33 11 +0.06 18.566 13.738 18.375
394 33 11 +0.06 18.410 19.795 19.986
395 33 11 +0.06 19.993 19.114 19.542
396 33 11 +0.06 18.668 19.134 18.354
397 34 9 +0.52 11.602 14.802 13.356
398 34 20 -0.50 11.744 13.610 13.372
399 34 19 -0.35 12.407 15.572 12.575
400 34 19 -0.35 10.637 15.382 14.119
401 34 1 +0.22 13.391 14.873 11.809
402 34 1 +0.22 9.842 14.492 14.906
403 34 11 +0.06 13.311 13.804 12.002
404 34 11 +0.06 13.229 15.064 10.748
405 34 11 +0.06 14.385 15.220 12.092
406 34 11 +0.06 9.107 15.066 15.472
407 34 11 +0.06 9.327 13.789 14.252
408 34 11 +0.06 10.483 13.944 15.596
409 35 9 +0.52 14.334 3.064 18.251
410 35 20 -0.50 14.007 3.450 19.339
411 35 19 -0.35 13.595 3.398 17.160
412 35 19 -0.35 15.445 2.292 18.110
413 35 1 +0.22 12.446 4.212 17.407
414 35 1 +0.22 16.158 1.993 19.313
415 35 11 +0.06 12.372 4.423 18.474
416 35 11 +0.06 12.538 5.148 16.857
417 35 11 +0.06 11.550 3.685 17.079
418 35 11 +0.06 17.024 1.372 19.078
419 35 11 +0.06 16.492 2.920 19.778
420 35 11 +0.06 15.503 1.457 20.000
421 36 9 +0.52 11.964 5.094 13.987
422 36 20 -0.50 11.867 4.801 12.828
423 36 19 -0.35 12.442 4.187 14.881
424 36 19 -0.35 11.595 6.334 14.408
425 36 1 +0.22 12.804 2.912 14.345
426 36 1 +0.22 11.104 7.218 13.397
427 36 11 +0.06 12.621 2.902 13.271
428 36 11 +0.06 13.861 2.724 14.535
429 36 11 +0.06 12.206 2.134 14.822
430 36 11 +0.06 10.841 8.176 13.848
431 36 11 +0.06 11.876 7.373 12.643
432 36 11 +0.06 10.221 6.783 12.930
433 37 9 +0.52 1.789 12.838 10.173
434 37 20 -0.50 0.725 12.285 10.109
435 37 19 -0.35 2.936 12.107 10.165
436 37 19 -0.35 1.847 14.194 10.253
437 37 1 +0.22 2.774 10.689 10.078
438 37 1 +0.22 0.590 14.876 10.255
439 37 11 +0.06 1.713 10.445 10.032
440 37 11 +0.06 3.271 10.321 9.179
441 37 11 +0.06 3.218 10.218 10.956
442 37 11 +0.06 0.760 15.952 10.322
443 37 11 +0.06 0.052 14.651 9.334
444 37 11 +0.06 -0.001 14.548 11.111
445 38 9 +0.52 13.333 2.705 5.771
446 38 20 -0.50 13.211 1.517 5.895
447 38 19 -0.35 13.290 3.267 4.533
448 38 19 -0.35 13.513 3.488 6.868
449 38 1 +0.22 13.097 2.364 3.441
450 38 1 +0.22 13.544 2.808 8.125
451 38 11 +0.06 13.016 1.346 3.821
452 38 11 +0.06 12.182 2.627 2.909
453 38 11 +0.06 13.945 2.432 2.759
454 38 11 +0.06 13.693 3.532 8.927
455 38 11 +0.06 12.601 2.285 8.280
456 38 11 +0.06 14.364 2.089 8.130
457 39 9 +0.52 5.792 2.913 15.631
458 39 20 -0.50 4.665 2.655 15.311
459 39 19 -0.35 6.796 2.824 14.718
460 39 19 -0.35 6.066 3.294 16.908
461 39 1 +0.22 6.412 2.415 13.402
462 39 1 +0.22 4.947 3.358 17.796
463 39 11 +0.06 5.336 2.243 13.375
464 39 11 +0.06 6.673 3.196 12.688
465 39 11 +0.06 6.934 1.495 13.141
466 39 11 +0.06 5.285 3.673 18.784
467 39 11 +0.06 4.221 4.077 17.415
468 39 11 +0.06 4.482 2.375 17.868
469 40 9 +0.52 10.478 7.650 0.568
470 40 20 -0.50 9.848 7.509 1.580
471 40 19 -0.35 11.089 6.580 -0.006
472 40 19 -0.35 10.581 8.880 -0.003
473 40 1 +0.22 10.925 5.329 0.666
474 40 1 +0.22 9.905 9.943 0.673
475 40 11 +0.06 10.312 5.471 1.556
476 40 11 +0.06 10.437 4.618 -0.001
477 40 11 +0.06 11.902 4.941 0.956
478 40 11 +0.06 10.056 10.876 0.127
479 40 11 +0.06 8.839 9.723 0.724
480 40 11 +0.06 10.304 10.045 1.682
481 41 9 +0.52 9.031 11.288 6.614
482 41 20 -0.50 8.163 12.028 6.242
483 41 19 -0.35 10.317 11.727 6.681
484 41 19 -0.35 8.729 10.010 6.969
485 41 1 +0.22 10.537 13.084 6.288
486 41 1 +0.22 7.352 9.640 6.866
487 41 11 +0.06 9.590 13.536 5.994
488 41 11 +0.06 10.961 13.640 7.124
489 41 11 +0.06 11.229 13.110 5.446
490 41 11 +0.06 7.230 8.601 7.175
491 41 11 +0.06 6.753 10.282 7.512
492 41 11 +0.06 7.021 9.752 5.834
493 42 9 +0.52 8.314 0.539 2.019
494 42 20 -0.50 7.837 1.162 1.111
495 42 19 -0.35 9.651 0.288 2.043
496 42 19 -0.35 7.519 0.085 3.024
497 42 1 +0.22 10.405 0.806 0.944
498 42 1 +0.22 6.128 0.398 2.913
499 42 11 +0.06 9.738 1.330 0.259
500 42 11 +0.06 11.161 1.497 1.316
501 42 11 +0.06 10.892 -0.016 0.418
502 42 11 +0.06 5.593 -0.015 3.769
503 42 11 +0.06 5.999 1.480 2.892
504 42 11 +0.06 5.730 -0.034 1.995
505 43 9 +0.52 18.233 13.347 14.663
506 43 20 -0.50 17.281 13.198 13.948
507 43 19 -0.35 18.332 12.639 15.821
508 43 19 -0.35 19.214 14.223 14.316
509 43 1 +0.22 17.253 11.743 16.101
510 43 1 +0.22 19.022 14.920 13.083
511 43 11 +0.06 16.518 11.796 15.298
512 43 11 +0.06 17.637 10.725 16.176
513 43 11 +0.06 16.783 12.024 17.043
514 43 11 +0.06 19.866 15.591 12.909
515 43 11 +0.06 18.956 14.203 12.265
516 43 11 +0.06 18.102 15.502 13.132
517 44 9 +0.52 6.350 16.901 17.387
518 44 20 -0.50 7.343 16.227 17.385
519 44 19 -0.35 6.449 18.258 17.418
520 44 19 -0.35 5.126 16.309 17.358
521 44 1 +0.22 7.777 18.788 17.447
522 44 1 +0.22 5.122 14.880 17.327
523 44 11 +0.06 8.496 17.969 17.438
524 44 11 +0.06 7.935 19.420 16.572
525 44 11 +0.06 7.911 19.381 18.352
526 44 11 +0.06 4.092 14.519 17.305
527 44 11 +0.06 5.646 14.533 16.436
528 44 11 +0.06 5.622 14.495 18.215
529 45 9 +0.52 17.227 7.248 11.361
530 45 20 -0.50 17.706 8.005 10.563
531 45 19 -0.35 17.644 5.954 11.406
532 45 19 -0.35 16.267 7.683 12.221
533 45 1 +0.22 18.656 5.589 10.464
534 45 1 +0.22 15.894 9.058 12.099
535 45 11 +0.06 18.918 6.455 9.857
536 45 11 +0.06 19.540 5.239 10.998
537 45 11 +0.06 18.283 4.793 9.820
538 45 11 +0.06 15.122 9.292 12.834
539 45 11 +0.06 16.765 9.689 12.275
540 45 11 +0.06 15.507 9.242 11.096
541 46 9 +0.52 0.745 6.436 1.698
542 46 20 -0.50 -0.001 5.500 1.789
543 46 19 -0.35 1.931 6.638 2.460
544 46 19 -0.35 0.599 7.540 0.810
545 46 2 +0.22 2.518 7.866 2.043
546 46 2 +0.22 1.695 8.423 1.023
547 46 11 +0.06 2.478 8.546 2.893
548 46 11 +0.06 3.476 7.623 1.583
549 46 11 +0.06 1.285 9.354 1.416
550 46 11 +0.06 2.283 8.431 0.105
551 47 9 +0.52 18.422 1.802 4.855
552 47 20 -0.50 18.258 2.062 3.696
553 47 19 -0.35 18.905 2.696 5.853
554 47 19 -0.35 18.169 0.545 5.476
555 47 2 +0.22 18.950 1.992 7.090
556 47 2 +0.22 18.495 0.663 6.856
557 47 11 +0.06 19.998 1.924 7.383
558 47 11 +0.06 18.227 2.465 7.755
559 47 11 +0.06 19.338 -0.002 7.044
560 47 11 +0.06 17.568 0.539 7.416
561 48 9 +0.52 16.397 10.784 6.382
562 48 20 -0.50 16.385 11.710 5.619
563 48 19 -0.35 17.542 10.028 6.764
564 48 19 -0.35 15.268 10.246 7.064
565 48 2 +0.22 17.121 9.024 7.681
566 48 2 +0.22 15.715 9.159 7.867
567 48 11 +0.06 17.289 8.060 7.201
568 48 11 +0.06 17.593 9.247 8.638
569 48 11 +0.06 15.252 8.256 7.470
570 48 11 +0.06 15.556 9.442 8.907
571 49 9 +0.52 13.857 19.579 7.970
572 49 20 -0.50 13.730 19.831 9.136
573 49 19 -0.35 15.090 19.417 7.277
574 49 19 -0.35 12.799 19.390 7.034
575 49 2 +0.22 14.796 19.128 5.915
576 49 2 +0.22 13.380 19.111 5.765
577 49 11 +0.06 15.171 19.962 5.322
578 49 11 +0.06 15.150 18.116 5.718
579 49 11 +0.06 13.118 19.938 5.104
580 49 11 +0.06 13.098 18.092 5.500
581 50 9 +0.52 19.266 19.088 16.237
582 50 20 -0.50 20.013 20.010 16.414
583 50 19 -0.35 17.872 19.181 15.962
584 50 19 -0.35 19.618 17.709 16.266
585 50 2 +0.22 17.363 17.859 15.822
586 50 2 +0.22 18.442 16.949 16.010
587 50 11 +0.06 16.661 17.697 16.640
588 50 11 +0.06 17.030 17.752 14.789
589 50 11 +0.06 18.225 16.378 16.912
590 50 11 +0.06 18.594 16.433 15.062
591 51 9 +0.52 2.367 14.305 7.677
592 51 20 -0.50 2.932 13.574 8.443
593 51 19 -0.35 1.562 13.900 6.574
594 51 19 -0.35 2.384 15.728 7.710
595 51 2 +0.22 1.081 15.073 5.926
596 51 2 +0.22 1.589 16.203 6.628
597 51 11 +0.06 1.522 15.091 4.929
598 51 11 +0.06 -0.002 15.083 6.044
599 51 11 +0.06 2.258 16.729 5.947
600 51 11 +0.06 0.734 16.721 7.062
601 52 9 +0.52 7.188 16.832 13.716
602 52 20 -0.50 8.292 16.458 13.431
603 52 19 -0.35 5.967 16.303 13.208
604 52 19 -0.35 6.868 17.883 14.623
605 52 2 +0.22 4.894 17.026 13.800
606 52 2 +0.22 5.451 18.003 14.675
607 52 11 +0.06 4.390 17.566 12.998
608 52 11 +0.06 4.336 16.323 14.419
609 52 11 +0.06 5.197 18.981 14.266
610 52 11 +0.06 5.143 17.739 15.687
611 53 9 +0.52 9.364 2.011 14.742
612 53 20 -0.50 9.508 0.820 14.727
613 53 19 -0.35 9.083 2.834 13.614
614 53 19 -0.35 9.444 2.850 15.890
615 53 2 +0.22 8.989 4.181 14.065
616 53 2 +0.22 9.213 4.191 15.472
617 53 11 +0.06 9.811 4.731 13.607
618 53 11 +0.06 7.961 4.503 13.902
619 53 11 +0.06 10.135 4.745 15.645
620 53 11 +0.06 8.285 4.517 15.941
621 54 9 +0.52 14.459 8.992 18.619
622 54 20 -0.50 15.552 9.460 18.455
623 54 19 -0.35 13.263 9.724 18.865
624 54 19 -0.35 14.131 7.606 18.603
625 54 2 +0.22 12.196 8.791 19.000
626 54 2 +0.22 12.733 7.482 18.838
627 54 11 +0.06 11.835 8.864 20.026
628 54 11 +0.06 11.513 8.962 18.168
629 54 11 +0.06 12.613 6.967 19.791
630 54 11 +0.06 12.291 7.065 17.933
631 55 9 +0.52 5.907 6.459 6.737
632 55 20 -0.50 6.866 6.558 6.022
633 55 19 -0.35 5.378 7.482 7.574
634 55 19 -0.35 5.099 5.298 6.897
635 55 2 +0.22 4.243 6.953 8.252
636 55 2 +0.22 4.071 5.603 7.833
637 55 11 +0.06 4.486 6.931 9.314
638 55 11 +0.06 3.373 7.510 7.903
639 55 11 +0.06 4.236 4.974 8.708
640 55 11 +0.06 3.123 5.553 7.297
641 56 9 +0.52 4.723 14.809 8.770
642 56 20 -0.50 4.599 15.748 9.506
643 56 19 -0.35 5.104 13.491 9.151
644 56 19 -0.35 4.516 14.817 7.361
645 56 2 +0.22 5.131 12.685 7.978
646 56 2 +0.22 4.768 13.504 6.871
647 56 11 +0.06 6.166 12.379 7.823
648 56 11 +0.06 4.351 11.932 8.088
649 56 11 +0.06 5.639 13.567 6.220
650 56 11 +0.06 3.824 13.120 6.485
651 57 9 +0.52 10.343 18.759 7.924
652 57 20 -0.50 10.651 18.810 9.082
653 57 19 -0.35 9.307 19.510 7.299
654 57 19 -0.35 10.949 17.936 6.932
655 57 2 +0.22 9.273 19.151 5.922
656 57 2 +0.22 10.288 18.179 5.695
657 57 11 +0.06 8.315 18.662 5.741
658 57 11 +0.06 9.547 20.039 5.353
659 57 11 +0.06 9.787 17.253 5.413
660 57 11 +0.06 11.019 18.630 5.024
661 58 9 +0.52 13.316 16.591 0.400
662 58 20 -0.50 12.527 15.779 0.001
663 58 19 -0.35 14.707 16.625 0.097
664 58 19 -0.35 13.026 17.689 1.259
665 58 2 +0.22 15.276 17.744 0.769
666 58 2 +0.22 14.237 18.401 1.487
667 58 11 +0.06 15.976 17.352 1.507
668 58 11 +0.06 15.623 18.436 0.002
669 58 11 +0.06 14.470 18.305 2.547
670 58 11 +0.06 14.116 19.389 1.042
671 59 9 +0.52 2.787 1.280 5.505
672 59 20 -0.50 3.880 1.271 5.010
673 59 19 -0.35 2.025 0.134 5.871
674 59 19 -0.35 2.025 2.438 5.831
675 59 2 +0.22 0.792 0.583 6.423
676 59 2 +0.22 0.792 2.007 6.398
677 59 11 +0.06 -0.000 0.252 5.751
678 59 11 +0.06 0.780 0.282 7.470
679 59 11 +0.06 -0.000 2.315 5.715
680 59 11 +0.06 0.780 2.345 7.434
681 60 9 +0.52 10.525 8.791 7.319
682 60 20 -0.50 10.397 9.439 8.321
683 60 19 -0.35 9.757 7.648 6.958
684 60 19 -0.35 11.470 9.032 6.281
685 60 2 +0.22 10.227 7.182 5.698
686 60 2 +0.22 11.287 8.037 5.280
687 60 11 +0.06 10.659 6.194 5.862
688 60 11 +0.06 9.413 7.309 4.984
689 60 11 +0.06 12.194 7.434 5.256
690 60 11 +0.06 10.948 8.548 4.378
691 61 9 +0.52 15.413 11.073 1.868
692 61 20 -0.50 14.300 11.446 2.117
693 61 19 -0.35 16.620 11.688 2.307
694 61 19 -0.35 15.758 9.937 1.082
695 61 2 +0.22 17.711 10.933 1.792
696 61 2 +0.22 17.178 9.850 1.035
697 61 11 +0.06 18.247 11.577 1.095
698 61 11 +0.06 18.232 10.500 2.645
699 61 11 +0.06 17.475 10.009 -0.002
700 61 11 +0.06 17.460 8.931 1.548
701 62 9 +0.52 9.099 2.653 2.619
702 62 20 -0.50 9.866 2.105 3.361
703 62 19 -0.35 9.418 3.213 1.349
704 62 19 -0.35 7.710 2.859 2.854
705 62 2 +0.22 8.227 3.764 0.799
706 62 2 +0.22 7.170 3.545 1.729
707 62 11 +0.06 8.374 4.842 0.730
708 62 11 +0.06 7.990 3.188 -0.095
709 62 11 +0.06 6.843 4.524 2.078
710 62 11 +0.06 6.459 2.870 1.252
711 63 9 +0.52 6.969 9.824 15.884
712 63 20 -0.50 7.547 9.606 16.913
713 63 19 -0.35 5.702 9.295 15.508
714 63 19 -0.35 7.431 10.657 14.826
715 63 2 +0.22 5.381 9.801 14.216
716 63 2 +0.22 6.449 10.643 13.795
717 63 11 +0.06 5.356 8.950 13.536
718 63 11 +0.06 4.501 10.434 14.330
719 63 11 +0.06 6.905 10.170 12.925
720 63 11 +0.06 6.049 11.654 13.719
721 64 9 +0.52 18.282 11.295 12.453
722 64 20 -0.50 18.018 12.264 11.796
723 64 19 -0.35 18.027 11.132 13.845
724 64 19 -0.35 18.903 10.105 11.978
725 64 2 +0.22 18.491 9.843 14.229
726 64 2 +0.22 19.033 9.208 13.075
727 64 11 +0.06 19.314 9.993 14.928
728 64 11 +0.06 17.618 9.265 14.532
729 64 11 +0.06 20.099 9.073 13.255
730 64 11 +0.06 18.403 8.345 12.860
731 65 31 1.0 7.772 7.553 19.902
732 66 31 1.0 1.885 17.703 14.766
733 67 31 1.0 3.169 12.096 16.736
734 68 31 1.0 6.025 8.772 10.822
735 69 31 1.0 5.355 5.233 0.326
736 70 27 +1.34 7.675 15.542 7.214
737 70 26 -0.39 8.589 15.489 5.915
738 70 26 -0.39 6.760 15.595 8.513
739 70 26 -0.39 6.379 15.636 6.298
740 70 26 -0.39 8.971 15.448 8.130
741 70 26 -0.39 7.782 17.128 7.224
742 70 26 -0.39 7.567 13.956 7.203
743 71 27 +1.34 15.833 8.458 3.942
744 71 26 -0.39 16.173 9.976 3.616
745 71 26 -0.39 15.492 6.939 4.268
746 71 26 -0.39 14.301 8.841 4.130
747 71 26 -0.39 17.364 8.074 3.754
748 71 26 -0.39 16.092 8.732 5.487
749 71 26 -0.39 15.574 8.184 2.397
750 72 27 +1.34 16.648 15.807 10.516
751 72 26 -0.39 16.523 14.824 11.759
752 72 26 -0.39 16.773 16.790 9.272
753 72 26 -0.39 17.525 14.725 9.749
754 72 26 -0.39 15.771 16.888 11.283
755 72 26 -0.39 17.969 16.432 11.143
756 72 26 -0.39 15.328 15.181 9.889
757 73 27 +1.34 10.657 3.244 10.375
758 73 26 -0.39 10.723 3.325 8.789
759 73 26 -0.39 10.592 3.162 11.962
760 73 26 -0.39 9.359 4.161 10.369
761 73 26 -0.39 11.956 2.326 10.382
762 73 26 -0.39 11.573 4.539 10.479
763 73 26 -0.39 9.742 1.948 10.271
764 74 27 +1.34 11.856 17.825 15.273
765 74 26 -0.39 12.456 16.463 14.717
766 74 26 -0.39 11.255 19.188 15.830
767 74 26 -0.39 11.270 17.053 16.534
768 74 26 -0.39 12.441 18.598 14.013
769 74 26 -0.39 10.505 17.554 14.480
770 74 26 -0.39 13.207 18.097 16.067

Bonds

1 8 1 2
2 7 1 3
3 7 1 4
4 7 3 5
5 7 4 6
6 4 5 7
7 4 5 8
8 4 5 9
9 4 6 10
10 4 6 11
11 4 6 12
12 8 13 14
13 7 13 15
14 7 13 16
15 7 15 17
16 7 16 18
17 4 17 19
18 4 17 20
19 4 17 21
20 4 18 22
21 4 18 23
22 4 18 24
23 8 25 26
24 7 25 27
25 7 25 28
26 7 27 29
27 7 28 30
28 4 29 31
29 4 29 32
30 4 29 33
31 4 30 34
32 4 30 35
33 4 30 36
34 8 37 38
35 7 37 39
36 7 37 40
37 7 39 41
38 7 40 42
39 4 41 43
40 4 41 44
41 4 41 45
42 4 42 46
43 4 42 47
44 4 42 48
45 8 49 50
46 7 49 51
47 7 49 52
48 7 51 53
49 7 52 54
50 4 53 55
51 4 53 56
52 4 53 57
53 4 54 58
54 4 54 59
55 4 54 60
56 8 61 62
57 7 61 63
58 7 61 64
59 7 63 65
60 7 64 66
61 4 65 67
62 4 65 68
63 4 65 69
64 4 66 70
65 4 66 71
66 4 66 72
67 8 73 74
68 7 73 75
69 7 73 76
70 7 75 77
71 7 76 78
72 4 77 79
73 4 77 80
74 4 77 81
75 4 78 82
76 4 78 83
77 4 78 84
78 8 85 86
79 7 85 87
80 7 85 88
81 7 87 89
82 7 88 90
83 4 89 91
84 4 89 92
85 4 89 93
86 4 90 94
87 4 90 95
88 4 90 96
89 8 97 98
90 7 97 99
91 7 97 100
92 7 99 101
93 7 100 102
94 4 101 103
95 4 101 104
96 4 101 105
97 4 102 106
98 4 102 107
99 4 102 108
100 8 109 110
101 7 109 111
102 7 109 112
103 7 111 113
104 7 112 114
105 4 113 115
106 4 113 116
107 4 113 117
108 4 114 118
109 4 114 119
110 4 114 120
111 8 121 122
112 7 121 123
113 7 121 124
114 7 123 125
115 7 124 126
116 4 125 127
117 4 125 128
118 4 125 129
119 4 126 130
120 4 126 131
121 4 126 132
122 8 133 134
123 7 133 135
124 7 133 136
125 7 135 137
126 7 136 138
127 4 137 139
128 4 137 140
129 4 137 141
130 4 138 142
131 4 138 143
132 4 138 144
133 8 145 146
134 7 145 147
135 7 145 148
136 7 147 149
137 7 148 150
138 4 149 151
139 4 149 152
140 4 149 153
141 4 150 154
142 4 150 155
143 4 150 156
144 8 157 158
145 7 157 159
146 7 157 160
147 7 159 161
148 7 160 162
149 4 161 163
150 4 161 164
151 4 161 165
152 4 162 166
153 4 162 167
154 4 162 168
155 8 169 170
156 7 169 171
157 7 169 172
158 7 171 173
159 7 172 174
160 4 173 175
161 4 173 176
162 4 173 177
163 4 174 178
164 4 174 179
165 4 174 180
166 8 181 182
167 7 181 183
168 7 181 184
169 7 183 185
170 7 184 186
171 4 185 187
172 4 185 188
173 4 185 189
174 4 186 190
175 4 186 191
176 4 186 192
177 8 193 194
178 7 193 195
179 7 193 196
180 7 195 197
181 7 196 198
182 4 197 199
183 4 197 200
184 4 197 201
185 4 198 202
186 4 198 203
187 4 198 204
188 8 205 206
189 7 205 207
190 7 205 208
191 7 207 209
192 7 208 210
193 4 209 211
194 4 209 212
195 4 209 213
196 4 210 214
197 4 210 215
198 4 210 216
199 8 217 218
200 7 217 219
201 7 217 220
202 7 219 221
203 7 220 222
204 4 221 223
205 4 221 224
206 4 221 225
207 4 222 226
208 4 222 227
209 4 222 228
210 8 229 230
211 7 229 231
212 7 229 232
213 7 231 233
214 7 232 234
215 4 233 235
216 4 233 236
217 4 233 237
218 4 234 238
219 4 234 239
220 4 234 240
221 8 241 242
222 7 241 243
223 7 241 244
224 7 243 245
225 7 244 246
226 4 245 247
227 4 245 248
228 4 245 249
229 4 246 250
230 4 246 251
231 4 246 252
232 8 253 254
233 7 253 255
234 7 253 256
235 7 255 257
236 7 256 258
237 4 257 259
238 4 257 260
239 4 257 261
240 4 258 262
241 4 258 263
242 4 258 264
243 8 265 266
244 7 265 267
245 7 265 268
246 7 267 269
247 7 268 270
248 4 269 271
249 4 269 272
250 4 269 273
251 4 270 274
252 4 270 275
253 4 270 276
254 8 277 278
255 7 277 279
256 7 277 280
257 7 279 281
258 7 280 282
259 4 281 283
260 4 281 284
261 4 281 285
262 4 282 286
263 4 282 287
264 4 282 288
265 8 289 290
266 7 289 291
267 7 289 292
268 7 291 293
269 7 292 294
270 4 293 295
271 4 293 296
272 4 293 297
273 4 294 298
274 4 294 299
275 4 294 300
276 8 301 302
277 7 301 303
278 7 301 304
279 7 303 305
280 7 304 306
281 4 305 307
282 4 305 308
283 4 305 309
284 4 306 310
285 4 306 311
286 4 306 312
287 8 313 314
288 7 313 315
289 7 313 316
290 7 315 317
291 7 316 318
292 4 317 319
293 4 317 320
294 4 317 321
295 4 318 322
296 4 318 323
297 4 318 324
298 8 325 326
299 7 325 327
300 7 325 328
301 7 327 329
302 7 328 330
303 4 329 331
304 4 329 332
305 4 329 333
306 4 330 334
307 4 330 335
308 4 330 336
309 8 337 338
310 7 337 339
311 7 337 340
312 7 339 341
313 7 340 342
314 4 341 343
315 4 341 344
316 4 341 345
317 4 342 346
318 4 342 347
319 4 342 348
320 8 349 350
321 7 349 351
322 7 349 352
323 7 351 353
324 7 352 354
325 4 353 355
326 4 353 356
327 4 353 357
328 4 354 358
329 4 354 359
330 4 354 360
331 8 361 362
332 7 361 363
333 7 361 364
334 7 363 365
335 7 364 366
336 4 365 367
337 4 365 368
338 4 365 369
339 4 366 370
340 4 366 371
341 4 366 372
342 8 373 374
343 7 373 375
344 7 373 376
345 7 375 377
346 7 376 378
347 4 377 379
348 4 377 380
349 4 377 381
350 4 378 382
351 4 378 383
352 4 378 384
353 8 385 386
354 7 385 387
355 7 385 388
356 7 387 389
357 7 388 390
358 4 389 391
359 4 389 392
360 4 389 393
361 4 390 394
362 4 390 395
363 4 390 396
364 8 397 398
365 7 397 399
366 7 397 400
367 7 399 401
368 7 400 402
369 4 401 403
370 4 401 404
371 4 401 405
372 4 402 406
373 4 402 407
374 4 402 408
375 8 409 410
376 7 409 411
377 7 409 412
378 7 411 413
379 7 412 414
380 4 413 415
381 4 413 416
382 4 413 417
383 4 414 418
384 4 414 419
385 4 414 420
386 8 421 422
387 7 421 423
388 7 421 424
389 7 423 425
390 7 424 426
391 4 425 427
392 4 425 428
393 4 425 429
394 4 426 430
395 4 426 431
396 4 426 432
397 8 433 434
398 7 433 435
399 7 433 436
400 7 435 437
401 7 436 438
402 4 437 439
403 4 437 440
404 4 437 441
405 4 438 442
406 4 438 443
407 4 438 444
408 8 445 446
409 7 445 447
410 7 445 448
411 7 447 449
412 7 448 450
413 4 449 451
414 4 449 452
415 4 449 453
416 4 450 454
417 4 450 455
418 4 450 456
419 8 457 458
420 7 457 459
421 7 457 460
422 7 459 461
423 7 460 462
424 4 461 463
425 4 461 464
426 4 461 465
427 4 462 466
428 4 462 467
429 4 462 468
430 8 469 470
431 7 469 471
432 7 469 472
433 7 471 473
434 7 472 474
435 4 473 475
436 4 473 476
437 4 473 477
438 4 474 478
439 4 474 479
440 4 474 480
441 8 481 482
442 7 481 483
443 7 481 484
444 7 483 485
445 7 484 486
446 4 485 487
447 4 485 488
448 4 485 489
449 4 486 490
450 4 486 491
451 4 486 492
452 8 493 494
453 7 493 495
454 7 493 496
455 7 495 497
456 7 496 498
457 4 497 499
458 4 497 500
459 4 497 501
460 4 498 502
461 4 498 503
462 4 498 504
463 8 505 506
464 7 505 507
465 7 505 508
466 7 507 509
467 7 508 510
468 4 509 511
469 4 509 512
470 4 509 513
471 4 510 514
472 4 510 515
473 4 510 516
474 8 517 518
475 7 517 519
476 7 517 520
477 7 519 521
478 7 520 522
479 4 521 523
480 4 521 524
481 4 521 525
482 4 522 526
483 4 522 527
484 4 522 528
485 8 529 530
486 7 529 531
487 7 529 532
488 7 531 533
489 7 532 534
490 4 533 535
491 4 533 536
492 4 533 537
493 4 534 538
494 4 534 539
495 4 534 540
496 8 541 542
497 7 541 543
498 7 541 544
499 7 543 546
500 7 544 545
501 1 545 546
502 4 546 547
503 4 546 548
504 4 545 549
505 4 545 550
506 8 551 552
507 7 551 553
508 7 551 554
509 7 553 556
510 7 554 555
511 1 555 556
512 4 556 557
513 4 556 558
514 4 555 559
515 4 555 560
516 8 561 562
517 7 561 563
518 7 561 564
519 7 563 566
520 7 564 565
521 1 565 566
522 4 566 567
523 4 566 568
524 4 565 569
525 4 565 570
526 8 571 572
527 7 571 573
528 7 571 574
529 7 573 576
530 7 574 575
531 1 575 576
532 4 576 577
533 4 576 578
534 4 575 579
535 4 575 580
536 8 581 582
537 7 581 583
538 7 581 584
539 7 583 586
540 7 584 585
541 1 585 586
542 4 586 587
543 4 586 588
544 4 585 589
545 4 585 590
546 8 591 592
547 7 591 593
548 7 591 594
549 7 593 596
550 7 594 595
551 1 595 596
552 4 596 597
553 4 596 598
554 4 595 599
555 4 595 600
556 8 601 602
557 7 601 603
558 7 601 604
559 7 603 606
560 7 604 605
561 1 605 606
562 4 606 607
563 4 606 608
564 4 605 609
565 4 605 610
566 8 611 612
567 7 611 613
568 7 611 614
569 7 613 616
570 7 614 615
571 1 615 616
572 4 616 617
573 4 616 618
574 4 615 619
575 4 615 620
576 8 621 622
577 7 621 623
578 7 621 624
579 7 623 626
580 7 624 625
581 1 625 626
582 4 626 627
583 4 626 628
584 4 625 629
585 4 625 630
586 8 631 632
587 7 631 633
588 7 631 634
589 7 633 636
590 7 634 635
591 1 635 636
592 4 636 637
593 4 636 638
594 4 635 639
595 4 635 640
596 8 641 642
597 7 641 643
598 7 641 644
599 7 643 646
600 7 644 645
601 1 645 646
602 4 646 647
603 4 646 648
604 4 645 649
605 4 645 650
606 8 651 652
607 7 651 653
608 7 651 654
609 7 653 656
610 7 654 655
611 1 655 656
612 4 656 657
613 4 656 658
614 4 655 659
615 4 655 660
616 8 661 662
617 7 661 663
618 7 661 664
619 7 663 666
620 7 664 665
621 1 665 666
622 4 666 667
623 4 666 668
624 4 665 669
625 4 665 670
626 8 671 672
627 7 671 673
628 7 671 674
629 7 673 676
630 7 674 675
631 1 675 676
632 4 676 677
633 4 676 678
634 4 675 679
635 4 675 680
636 8 681 682
637 7 681 683
638 7 681 684
639 7 683 686
640 7 684 685
641 1 685 686
642 4 686 687
643 4 686 688
644 4 685 689
645 4 685 690
646 8 691 692
647 7 691 693
648 7 691 694
649 7 693 696
650 7 694 695
651 1 695 696
652 4 696 697
653 4 696 698
654 4 695 699
655 4 695 700
656 8 701 702
657 7 701 703
658 7 701 704
659 7 703 706
660 7 704 705
661 1 705 706
662 4 706 707
663 4 706 708
664 4 705 709
665 4 705 710
666 8 711 712
667 7 711 713
668 7 711 714
669 7 713 716
670 7 714 715
671 1 715 716
672 4 716 717
673 4 716 718
674 4 715 719
675 4 715 720
676 8 721 722
677 7 721 723
678 7 721 724
679 7 723 726
680 7 724 725
681 1 725 726
682 4 726 727
683 4 726 728
684 4 725 729
685 4 725 730
686 15 736 737
687 15 736 738
688 15 736 739
689 15 736 740
690 15 736 741
691 15 736 742
692 15 743 744
693 15 743 745
694 15 743 746
695 15 743 747
696 15 743 748
697 15 743 749
698 15 750 751
699 15 750 752
700 15 750 753
701 15 750 754
702 15 750 755
703 15 750 756
704 15 757 758
705 15 757 759
706 15 757 760
707 15 757 761
708 15 757 762
709 15 757 763
710 15 764 765
711 15 764 766
712 15 764 767
713 15 764 768
714 15 764 769
715 15 764 770

Angles

1 11 2 1 3
2 11 2 1 4
3 12 3 1 4
4 9 1 3 5
5 9 1 4 6
6 4 3 5 7
7 4 3 5 8
8 4 3 5 9
9 4 4 6 10
10 4 4 6 11
11 4 4 6 12
12 7 7 5 8
13 7 7 5 9
14 7 8 5 9
15 7 10 6 11
16 7 10 6 12
17 7 11 6 12
18 11 14 13 15
19 11 14 13 16
20 12 15 13 16
21 9 13 15 17
22 9 13 16 18
23 4 15 17 19
24 4 15 17 20
25 4 15 17 21
26 4 16 18 22
27 4 16 18 23
28 4 16 18 24
29 7 19 17 20
30 7 19 17 21
31 7 20 17 21
32 7 22 18 23
33 7 22 18 24
34 7 23 18 24
35 11 26 25 27
36 11 26 25 28
37 12 27 25 28
38 9 25 27 29
39 9 25 28 30
40 4 27 29 31
41 4 27 29 32
42 4 27 29 33
43 4 28 30 34
44 4 28 30 35
45 4 28 30 36
46 7 31 29 32
47 7 31 29 33
48 7 32 29 33
49 7 34 30 35
50 7 34 30 36
51 7 35 30 36
52 11 38 37 39
53 11 38 37 40
54 12 39 37 40
55 9 37 39 41
56 9 37 40 42
57 4 39 41 43
58 4 39 41 44
59 4 39 41 45
60 4 40 42 46
61 4 40 42 47
62 4 40 42 48
63 7 43 41 44
64 7 43 41 45
65 7 44 41 45
66 7 46 42 47
67 7 46 42 48
68 7 47 42 48
69 11 50 49 51
70 11 50 49 52
71 12 51 49 52
72 9 49 51 53
73 9 49 52 54
74 4 51 53 55
75 4 51 53 56
76 4 51 53 57
77 4 52 54 58
78 4 52 54 59
79 4 52 54 60
80 7 55 53 56
81 7 55 53 57
82 7 56 53 57
83 7 58 54 59
84 7 58 54 60
85 7 59 54 60
86 11 62 61 63
87 11 62 61 64
88 12 63 61 64
89 9 61 63 65
90 9 61 64 66
91 4 63 65 67
92 4 63 65 68
93 4 63 65 69
94 4 64 66 70
95 4 64 66 71
96 4 64 66 72
97 7 67 65 68
98 7 67 65 69
99 7 68 65 69
100 7 70 66 71
101 7 70 66 72
102 7 71 66 72
103 11 74 73 75
104 11 74 73 76
105 12 75 73 76
106 9 73 75 77
107 9 73 76 78
108 4 75 77 79
109 4 75 77 80
110 4 75 77 81
111 4 76 78 82
112 4 76 78 83
113 4 76 78 84
114 7 79 77 80
115 7 79 77 81
116 7 80 77 81
117 7 82 78 83
118 7 82 78 84
119 7 83 78 84
120 11 86 85 87
121 11 86 85 88
122 12 87 85 88
123 9 85 87 89
124 9 85 88 90
125 4 87 89 91
126 4 87 89 92
127 4 87 89 93
128 4 88 90 94
129 4 88 90 95
130 4 88 90 96
131 7 91 89 92
132 7 91 89 93
133 7 92 89 93
134 7 94 90 95
135 7 94 90 96
136 7 95 90 96
137 11 98 97 99
138 11 98 97 100
139 12 99 97 100
140 9 97 99 101
141 9 97 100 102
142 4 99 101 103
143 4 99 101 104
144 4 99 101 105
145 4 100 102 106
146 4 100 102 107
147 4 100 102 108
148 7 103 101 104
149 7 103 101 105
150 7 104 101 105
151 7 106 102 107
152 7 106 102 108
153 7 107 102 108
154 11 110 109 111
155 11 110 109 112
156 12 111 109 112
157 9 109 111 113
158 9 109 112 114
159 4 111 113 115
160 4 111 113 116
161 4 111 113 117
162 4 112 114 118
163 4 112 114 119
164 4 112 114 120
165 7 115 113 116
166 7 115 113 117
167 7 116 113 117
168 7 118 114 119
169 7 118 114 120
170 7 119 114 120
171 11 122 121 123
172 11 122 121 124
173 12 123 121 124
174 9 121 123 125
175 9 121 124 126
176 4 123 125 127
177 4 123 125 128
178 4 123 125 129
179 4 124 126 130
180 4 124 126 131
181 4 124 126 132
182 7 127 125 128
183 7 127 125 129
184 7 128 125 129
185 7 130 126 131
186 7 130 126 132
187 7 131 126 132
188 11 134 133 135
189 11 134 133 136
190 12 135 133 136
191 9 133 135 137
192 9 133 136 138
193 4 135 137 139
194 4 135 137 140
195 4 135 137 141
196 4 136 138 142
197 4 136 138 143
198 4 136 138 144
199 7 139 137 140
200 7 139 137 141
201 7 140 137 141
202 7 142 138 143
203 7 142 138 144
204 7 143 138 144
205 11 146 145 147
206 11 146 145 148
207 12 147 145 148
208 9 145 147 149
209 9 145 148 150
210 4 147 149 151
211 4 147 149 152
212 4 147 149 153
213 4 148 150 154
214 4 148 150 155
215 4 148 150 156
216 7 151 149 152
217 7 151 149 153
218 7 152 149 153
219 7 154 150 155
220 7 154 150 156
221 7 155 150 156
222 11 158 157 159
223 11 158 157 160
224 12 159 157 160
225 9 157 159 161
226 9 157 160 162
227 4 159 161 163
228 4 159 161 164
229 4 159 161 165
230 4 160 162 166
231 4 160 162 167
232 4 160 162 168
233 7 163 161 164
234 7 163 161 165
235 7 164 161 165
236 7 166 162 167
237 7 166 162 168
238 7 167 162 168
239 11 170 169 171
240 11 170 169 172
241 12 171 169 172
242 9 169 171 173
243 9 169 172 174
244 4 171 173 175
245 4 171 173 176
246 4 171 173 177
247 4 172 174 178
248 4 172 174 179
249 4 172 174 180
250 7 175 173 176
251 7 175 173 177
252 7 176 173 177
253 7 178 174 179
254 7 178 174 180
255 7 179 174 180
256 11 182 181 183
257 11 182 181 184
258 12 183 181 184
259 9 181 183 185
260 9 181 184 186
261 4 183 185 187
262 4 183 185 188
263 4 183 185 189
264 4 184 186 190
265 4 184 186 191
266 4 184 186 192
267 7 187 185 188
268 7 187 185 189
269 7 188 185 189
270 7 190 186 191
271 7 190 186 192
272 7 191 186 192
273 11 194 193 195
274 11 194 193 196
275 12 195 193 196
276 9 193 195 197
277 9 193 196 198
278 4 195 197 199
279 4 195 197 200
280 4 195 197 201
281 4 196 198 202
282 4 196 198 203
283 4 196 198 204
284 7 199 197 200
285 7 199 197 201
286 7 200 197 201
287 7 202 198 203
288 7 202 198 204
289 7 203 198 204
290 11 206 205 207
291 11 206 205 208
292 12 207 205 208
293 9 205 207 209
294 9 205 208 210
295 4 207 209 211
296 4 207 209 212
297 4 207 209 213
298 4 208 210 214
299 4 208 210 215
300 4 208 210 216
301 7 211 209 212
302 7 211 209 213
303 7 212 209 213
304 7 214 210 215
305 7 214 210 216
306 7 215 210 216
307 11 218 217 219
308 11 218 217 220
309 12 219 217 220
310 9 217 219 221
311 9 217 220 222
312 4 219 221 223
313 4 219 221 224
314 4 219 221 225
315 4 220 222 226
316 4 220 222 227
317 4 220 222 228
318 7 223 221 224
319 7 223 221 225
320 7 224 221 225
321 7 226 222 227
322 7 226 222 228
323 7 227 222 228
324 11 230 229 231
325 11 230 229 232
326 12 231 229 232
327 9 229 231 233
328 9 229 232 234
329 4 231 233 235
330 4 231 233 236
331 4 231 233 237
332 4 232 234 238
333 4 232 234 239
334 4 232 234 240
335 7 235 233 236
336 7 235 233 237
337 7 236 233 237
338 7 238 234 239
339 7 238 234 240
340 7 239 234 240
341 11 242 241 243
342 11 242 241 244
343 12 243 241 244
344 9 241 243 245
345 9 241 244 246
346 4 243 245 247
347 4 243 245 248
348 4 243 245 249
349 4 244 246 250
350 4 244 246 251
351 4 244 246 252
352 7 247 245 248
353 7 247 245 249
354 7 248 245 249
355 7 250 246 251
356 7 250 246 252
357 7 251 246 252
358 11 254 253 255
359 11 254 253 256
360 12 255 253 256
361 9 253 255 257
362 9 253 256 258
363 4 255 257 259
364 4 255 257 260
365 4 255 257 261
366 4 256 258 262
367 4 256 258 263
368 4 256 258 264
369 7 259 257 260
370 7 259 257 261
371 7 260 257 261
372 7 262 258 263
373 7 262 258 264
374 7 263 258 264
375 11 266 265 267
376 11 266 265 268
377 12 267 265 268
378 9 265 267 269
379 9 265 268 270
380 4 267 269 271
381 4 267 269 272
382 4 267 269 273
383 4 268 270 274
384 4 268 270 275
385 4 268 270 276
386 7 271 269 272
387 7 271 269 273
388 7 272 269 273
389 7 274 270 275
390 7 274 270 276
391 7 275 270 276
392 11 278 277 279
393 11 278 277 280
394 12 279 277 280
395 9 277 279 281
396 9 277 280 282
397 4 279 281 283
398 4 279 281 284
399 4 279 281 285
400 4 280 282 286
401 4 280 282 287
402 4 280 282 288
403 7 283 281 284
404 7 283 281 285
405 7 284 281 285
406 7 286 282 287
407 7 286 282 288
408 7 287 282 288
409 11 290 289 291
410 11 290 289 292
411 12 291 289 292
412 9 289 291 293
413 9 289 292 294
414 4 291 293 295
415 4 291 293 296
416 4 291 293 297
417 4 292 294 298
418 4 292 294 299
419 4 292 294 300
420 7 295 293 296
421 7 295 293 297
422 7 296 293 297
423 7 298 294 299
424 7 298 294 300
425 7 299 294 300
426 11 302 301 303
427 11 302 301 304
428 12 303 301 304
429 9 301 303 305
430 9 301 304 306
431 4 303 305 307
432 4 303 305 308
433 4 303 305 309
434 4 304 306 310
435 4 304 306 311
436 4 304 306 312
437 7 307 305 308
438 7 307 305 309
439 7 308 305 309
440 7 310 306 311
441 7 310 306 312
442 7 311 306 312
443 11 314 313 315
444 11 314 313 316
445 12 315 313 316
446 9 313 315 317
447 9 313 316 318
448 4 315 317 319
449 4 315 317 320
450 4 315 317 321
451 4 316 318 322
452 4 316 318 323
453 4 316 318 324
454 7 319 317 320
455 7 319 317 321
456 7 320 317 321
457 7 322 318 323
458 7 322 318 324
459 7 323 318 324
460 11 326 325 327
461 11 326 325 328
462 12 327 325 328
463 9 325 327 329
464 9 325 328 330
465 4 327 329 331
466 4 327 329 332
467 4 327 329 333
468 4 328 330 334
469 4 328 330 335
470 4 328 330 336
471 7 331 329 332
472 7 331 329 333
473 7 332 329 333
474 7 334 330 335
475 7 334 330 336
476 7 335 330 336
477 11 338 337 339
478 11 338 337 340
479 12 339 337 340
480 9 337 339 341
481 9 337 340 342
482 4 339 341 343
483 4 339 341 344
484 4 339 341 345
485 4 340 342 346
486 4 340 342 347
487 4 340 342 348
488 7 343 341 344
489 7 343 341 345
490 7 344 341 345
491 7 346 342 347
492 7 346 342 348
493 7 347 342 348
494 11 350 349 351
495 11 350 349 352
496 12 351 349 352
497 9 349 351 353
498 9 349 352 354
499 4 351 353 355
500 4 351 353 356
501 4 351 353 357
502 4 352 354 358
503 4 352 354 359
504 4 352 354 360
505 7 355 353 356
506 7 355 353 357
507 7 356 353 357
508 7 358 354 359
509 7 358 354 360
510 7 359 354 360
511 11 362 361 363
512 11 362 361 364
513 12 363 361 364
514 9 361 363 365
515 9 361 364 366
516 4 363 365 367
517 4 363 365 368
518 4 363 365 369
519 4 364 366 370
520 4 364 366 371
521 4 364 366 372
522 7 367 365 368
523 7 367 365 369
524 7 368 365 369
525 7 370 366 371
526 7 370 366 372
527 7 371 366 372
528 11 374 373 375
529 11 374 373 376
530 12 375 373 376
531 9 373 375 377
532 9 373 376 378
533 4 375 377 379
534 4 375 377 380
535 4 375 377 381
536 4 376 378 382
537 4 376 378 383
538 4 376 378 384
539 7 379 377 380
540 7 379 377 381
541 7 380 377 381
542 7 382 378 383
543 7 382 378 384
544 7 383 378 384
545 11 386 385 387
546 11 386 385 388
547 12 387 385 388
548 9 385 387 389
549 9 385 388 390
550 4 387 389 391
551 4 387 389 392
552 4 387 389 393
553 4 388 390 394
554 4 388 390 395
555 4 388 390 396
556 7 391 389 392
557 7 391 389 393
558 7 392 389 393
559 7 394 390 395
560 7 394 390 396
561 7 395 390 396
562 11 398 397 399
563 11 398 397 400
564 12 399 397 400
565 9 397 399 401
566 9 397 400 402
567 4 399 401 403
568 4 399 401 404
569 4 399 401 405
570 4 400 402 406
571 4 400 402 407
572 4 400 402 408
573 7 403 401 404
574 7 403 401 405
575 7 404 401 405
576 7 406 402 407
577 7 406 402 408
578 7 407 402 408
579 11 410 409 411
580 11 410 409 412
581 12 411 409 412
582 9 409 411 413
583 9 409 412 414
584 4 411 413 415
585 4 411 413 416
586 4 411 413 417
587 4 412 414 418
588 4 412 414 419
589 4 412 414 420
590 7 415 413 416
591 7 415 413 417
592 7 416 413 417
593 7 418 414 419
594 7 418 414 420
595 7 419 414 420
596 11 422 421 423
597 11 422 421 424
598 12 423 421 424
599 9 421 423 425
600 9 421 424 426
601 4 423 425 427
602 4 423 425 428
603 4 423 425 429
604 4 424 426 430
605 4 424 426 431
606 4 424 426 432
607 7 427 425 428
608 7 427 425 429
609 7 428 425 429
610 7 430 426 431
611 7 430 426 432
612 7 431 426 432
613 11 434 433 435
614 11 434 433 436
615 12 435 433 436
616 9 433 435 437
617 9 433 436 438
618 4 435 437 439
619 4 435 437 440
620 4 435 437 441
621 4 436 438 442
622 4 436 438 443
623 4 436 438 444
624 7 439 437 440
625 7 439 437 441
626 7 440 437 441
627 7 442 438 443
628 7 442 438 444
629 7 443 438 444
630 11 446 445 447
631 11 446 445 448
632 12 447 445 448
633 9 445 447 449
634 9 445 448 450
635 4 447 449 451
636 4 447 449 452
637 4 447 449 453
638 4 448 450 454
639 4 448 450 455
640 4 448 450 456
641 7 451 449 452
642 7 451 449 453
643 7 452 449 453
644 7 454 450 455
645 7 454 450 456
646 7 455 450 456
647 11 458 457 459
648 11 458 457 460
649 12 459 457 460
650 9 457 459 461
651 9 457 460 462
652 4 459 461 463
653 4 459 461 464
654 4 459 461 465
655 4 460 462 466
656 4 460 462 467
657 4 460 462 468
658 7 463 461 464
659 7 463 461 465
660 7 464 461 465
661 7 466 462 467
662 7 466 462 468
663 7 467 462 468
664 11 470 469 471
665 11 470 469 472
666 12 471 469 472
667 9 469 471 473
668 9 469 472 474
669 4 471 473 475
670 4 471 473 476
671 4 471 473 477
672 4 472 474 478
673 4 472 474 479
674 4 472 474 480
675 7 475 473 476
676 7 475 473 477
677 7 476 473 477
678 7 478 474 479
679 7 478 474 480
680 7 479 474 480
681 11 482 481 483
682 11 482 481 484
683 12 483 481 484
684 9 481 483 485
685 9 481 484 486
686 4 483 485 487
687 4 483 485 488
688 4 483 485 489
689 4 484 486 490
690 4 484 486 491
691 4 484 486 492
692 7 487 485 488
693 7 487 485 489
694 7 488 485 489
695 7 490 486 491
696 7 490 486 492
697 7 491 486 492
698 11 494 493 495
699 11 494 493 496
700 12 495 493 496
701 9 493 495 497
702 9 493 496 498
703 4 495 497 499
704 4 495 497 500
705 4 495 497 501
706 4 496 498 502
707 4 496 498 503
708 4 496 498 504
709 7 499 497 500
710 7 499 497 501
711 7 500 497 501
712 7 502 498 503
713 7 502 498 504
714 7 503 498 504
715 11 506 505 507
716 11 506 505 508
717 12 507 505 508
718 9 505 507 509
719 9 505 508 510
720 4 507 509 511
721 4 507 509 512
722 4 507 509 513
723 4 508 510 514
724 4 508 510 515
725 4 508 510 516
726 7 511 509 512
727 7 511 509 513
728 7 512 509 513
729 7 514 510 515
730 7 514 510 516
731 7 515 510 516
732 11 518 517 519
733 11 518 517 520
734 12 519 517 520
735 9 517 519 521
736 9 517 520 522
737 4 519 521 523
738 4 519 521 524
739 4 519 521 525
740 4 520 522 526
741 4 520 522 527
742 4 520 522 528
743 7 523 521 524
744 7 523 521 525
745 7 524 521 525
746 7 526 522 527
747 7 526 522 528
748 7 527 522 528
749 11 530 529 531
750 11 530 529 532
751 12 531 529 532
752 9 529 531 533
753 9 529 532 534
754 4 531 533 535
755 4 531 533 536
756 4 531 533 537
757 4 532 534 538
758 4 532 534 539
759 4 532 534 540
760 7 535 533 536
761 7 535 533 537
762 7 536 533 537
763 7 538 534 539
764 7 538 534 540
765 7 539 534 540
766 11 542 541 543
767 11 542 541 544
768 12 543 541 544
769 9 541 543 546
770 9 541 544 545
771 13 543 546 545
772 13 544 545 546
773 4 545 546 547
774 4 545 546 548
775 4 546 545 549
776 4 546 545 550
777 6 547 546 548
778 6 549 545 550
779 11 552 551 553
780 11 552 551 554
781 12 553 551 554
782 9 551 553 556
783 9 551 554 555
784 13 553 556 555
785 13 554 555 556
786 4 555 556 557
787 4 555 556 558
788 4 556 555 559
789 4 556 555 560
790 6 557 556 558
791 6 559 555 560
792 11 562 561 563
793 11 562 561 564
794 12 563 561 564
795 9 561 563 566
796 9 561 564 565
797 13 563 566 565
798 13 564 565 566
799 4 565 566 567
800 4 565 566 568
801 4 566 565 569
802 4 566 565 570
803 6 567 566 568
804 6 569 565 570
805 11 572 571 573
806 11 572 571 574
807 12 573 571 574
808 9 571 573 576
809 9 571 574 575
810 13 573 576 575
811 13 574 575 576
812 4 575 576 577
813 4 575 576 578
814 4 576 575 579
815 4 576 575 580
816 6 577 576 578
817 6 579 575 580
818 11 582 581 583
819 11 582 581 584
820 12 583 581 584
821 9 581 583 586
822 9 581 584 585
823 13 583 586 585
824 13 584 585 586
825 4 585 586 587
826 4 585 586 588
827 4 586 585 589
828 4 586 585 590
829 6 587 586 588
830 6 589 585 590
831 11 592 591 593
832 11 592 591 594
833 12 593 591 594
834 9 591 593 596
835 9 591 594 595
836 13 593 596 595
837 13 594 595 596
838 4 595 596 597
839 4 595 596 598
840 4 596 595 599
841 4 596 595 600
842 6 597 596 598
843 6 599 595 600
844 11 602 601 603
845 11 602 601 604
846 12 603 601 604
847 9 601 603 606
848 9 601 604 605
849 13 603 606 605
850 13 604 605 606
851 4 605 606 607
852 4 605 606 608
853 4 606 605 609
854 4 606 605 610
855 6 607 606 608
856 6 609 605 610
857 11 612 611 613
858 11 612 611 614
859 12 613 611 614
860 9 611 613 616
861 9 611 614 615
862 13 613 616 615
863 13 614 615 616
864 4 615 616 617
865 4 615 616 618
866 4 616 615 619
867 4 616 615 620
868 6 617 616 618
869 6 619 615 620
870 11 622 621 623
871 11 622 621 624
872 12 623 621 624
873 9 621 623 626
874 9 621 624 625
875 13 623 626 625
876 13 624 625 626
877 4 625 626 627
878 4 625 626 628
879 4 626 625 629
880 4 626 625 630
881 6 627 626 628
882 6 629 625 630
883 11 632 631 633
884 11 632 631 634
885 12 633 631 634
886 9 631 633 636
887 9 631 634 635
888 13 633 636 635
889 13 634 635 636
890 4 635 636 637
891 4 635 636 638
892 4 636 635 639
893 4 636 635 640
894 6 637 636 638
895 6 639 635 640
896 11 642 641 643
897 11 642 641 644
898 12 643 641 644
899 9 641 643 646
900 9 641 644 645
901 13 643 646 645
902 13 644 645 646
903 4 645 646 647
904 4 645 646 648
905 4 646 645 649
906 4 646 645 650
907 6 647 646 648
908 6 649 645 650
909 11 652 651 653
910 11 652 651 654
911 12 653 651 654
912 9 651 653 656
913 9 651 654 655
914 13 653 656 655
915 13 654 655 656
916 4 655 656 657
917 4 655 656 658
918 4 656 655 659
919 4 656 655 660
920 6 657 656 658
921 6 659 655 660
922 11 662 661 663
923 11 662 661 664
924 12 663 661 664
925 9 661 663 666
926 9 661 664 665
927 13 663 666 665
928 13 664 665 666
929 4 665 666 667
930 4 665 666 668
931 4 666 665 669
932 4 666 665 670
933 6 667 666 668
934 6 669 665 670
935 11 672 671 673
936 11 672 671 674
937 12 673 671 674
938 9 671 673 676
939 9 671 674 675
940 13 673 676 675
941 13 674 675 676
942 4 675 676 677
943 4 675 676 678
944 4 676 675 679
945 4 676 675 680
946 6 677 676 678
947 6 679 675 680
948 11 682 681 683
949 11 682 681 684
950 12 683 681 684
951 9 681 683 686
952 9 681 684 685
953 13 683 686 685
954 13 684 685 686
955 4 685 686 687
956 4 685 686 688
957 4 686 685 689
958 4 686 685 690
959 6 687 686 688
960 6 689 685 690
961 11 692 691 693
962 11 692 691 694
963 12 693 691 694
964 9 691 693 696
965 9 691 694 695
966 13 693 696 695
967 13 694 695 696
968 4 695 696 697
969 4 695 696 698
970 4 696 695 699
971 4 696 695 700
972 6 697 696 698
973 6 699 695 700
974 11 702 701 703
975 11 702 701 704
976 12 703 701 704
977 9 701 703 706
978 9 701 704 705
979 13 703 706 705
980 13 704 705 706
981 4 705 706 707
982 4 705 706 708
983 4 706 705 709
984 4 706 705 710
985 6 707 706 708
986 6 709 705 710
987 11 712 711 713
988 11 712 711 714
989 12 713 711 714
990 9 711 713 716
991 9 711 714 715
992 13 713 716 715
993 13 714 715 716
994 4 715 716 717
995 4 715 716 718
996 4 716 715 719
997 4 716 715 720
998 6 717 716 718
999 6 719 715 720
1000 11 722 721 723
1001 11 722 721 724
1002 12 723 721 724
1003 9 721 723 726
1004 9 721 724 725
1005 13 723 726 725
1006 13 724 725 726
1007 4 725 726 727
1008 4 725 726 728
1009 4 726 725 729
1010 4 726 725 730
1011 6 727 726 728
1012 6 729 725 730
1013 18 737 736 738
1014 18 739 736 740
1015 18 741 736 742
1016 17 737 736 739
1017 17 737 736 740
1018 17 737 736 741
1019 17 737 736 742
1020 17 738 736 739
1021 17 738 736 740
1022 17 738 736 741
1023 17 738 736 742
1024 17 739 736 741
1025 17 739 736 742
1026 17 740 736 741
1027 17 740 736 742
1028 18 744 743 745
1029 18 746 743 747
1030 18 748 743 749
1031 17 744 743 746
1032 17 744 743 747
1033 17 744 743 748
1034 17 744 743 749
1035 17 745 743 746
1036 17 745 743 747
1037 17 745 743 748
1038 17 745 743 749
1039 17 746 743 748
1040 17 746 743 749
1041 17 747 743 748
1042 17 747 743 749
1043 18 751 750 752
1044 18 753 750 754
1045 18 755 750 756
1046 17 751 750 753
1047 17 751 750 754
1048 17 751 750 755
1049 17 751 750 756
1050 17 752 750 753
1051 17 752 750 754
1052 17 752 750 755
1053 17 752 750 756
1054 17 753 750 755
1055 17 753 750 756
1056 17 754 750 755
1057 17 754 750 756
1058 18 758 757 759
1059 18 760 757 761
1060 18 762 757 763
1061 17 758 757 760
1062 17 758 757 761
1063 17 758 757 762
1064 17 758 757 763
1065 17 759 757 760
1066 17 759 757 761
1067 17 759 757 762
1068 17 759 757 763
1069 17 760 757 762
1070 17 760 757 763
1071 17 761 757 762
1072 17 761 757 763
1073 18 765 764 766
1074 18 767 764 768
1075 18 769 764 770
1076 17 765 764 767
1077 17 765 764 768
1078 17 765 764 769
1079 17 765 764 770
1080 17 766 764 767
1081 17 766 764 768
1082 17 766 764 769
1083 17 766 764 770
1084 17 767 764 769
1085 17 767 764 770
1086 17 768 764 769
1087 17 768 764 770

Dihedrals

1 8 2 1 3 5
2 8 2 1 4 6
3 6 1 3 5 7
4 6 1 3 5 8
5 6 1 3 5 9
6 6 1 4 6 10
7 6 1 4 6 11
8 6 1 4 6 12
9 8 14 13 15 17
10 8 14 13 16 18
11 6 13 15 17 19
12 6 13 15 17 20
13 6 13 15 17 21
14 6 13 16 18 22
15 6 13 16 18 23
16 6 13 16 18 24
17 8 26 25 27 29
18 8 26 25 28 30
19 6 25 27 29 31
20 6 25 27 29 32
21 6 25 27 29 33
22 6 25 28 30 34
23 6 25 28 30 35
24 6 25 28 30 36
25 8 38 37 39 41
26 8 38 37 40 42
27 6 37 39 41 43
28 6 37 39 41 44
29 6 37 39 41 45
30 6 37 40 42 46
31 6 37 40 42 47
32 6 37 40 42 48
33 8 50 49 51 53
34 8 50 49 52 54
35 6 49 51 53 55
36 6 49 51 53 56
37 6 49 51 53 57
38 6 49 52 54 58
39 6 49 52 54 59
40 6 49 52 54 60
41 8 62 61 63 65
42 8 62 61 64 66
43 6 61 63 65 67
44 6 61 63 65 68
45 6 61 63 65 69
46 6 61 64 66 70
47 6 61 64 66 71
48 6 61 64 66 72
49 8 74 73 75 77
50 8 74 73 76 78
51 6 73 75 77 79
52 6 73 75 77 80
53 6 73 75 77 81
54 6 73 76 78 82
55 6 73 76 78 83
56 6 73 76 78 84
57 8 86 85 87 89
58 8 86 85 88 90
59 6 85 87 89 91
60 6 85 87 89 92
61 6 85 87 89 93
62 6 85 88 90 94
63 6 85 88 90 95
64 6 85 88 90 96
65 8 98 97 99 101
66 8 98 97 100 102
67 6 97 99 101 103
68 6 97 99 101 104
69 6 97 99 101 105
70 6 97 100 102 106
71 6 97 100 102 107
72 6 97 100 102 108
73 8 110 109 111 113
74 8 110 109 112 114
75 6 109 111 113 115
76 6 109 111 113 116
77 6 109 111 113 117
78 6 109 112 114 118
79 6 109 112 114 119
80 6 109 112 114 120
81 8 122 121 123 125
82 8 122 121 124 126
83 6 121 123 125 127
84 6 121 123 125 128
85 6 121 123 125 129
86 6 121 124 126 130
87 6 121 124 126 131
88 6 121 124 126 132
89 8 134 133 135 137
90 8 134 133 136 138
91 6 133 135 137 139
92 6 133 135 137 140
93 6 133 135 137 141
94 6 133 136 138 142
95 6 133 136 138 143
96 6 133 136 138 144
97 8 146 145 147 149
98 8 146 145 148 150
99 6 145 147 149 151
100 6 145 147 149 152
101 6 145 147 149 153
102 6 145 148 150 154
103 6 145 148 150 155
104 6 145 148 150 156
105 8 158 157 159 161
106 8 158 157 160 162
107 6 157 159 161 163
108 6 157 159 161 164
109 6 157 159 161 165
110 6 157 160 162 166
111 6 157 160 162 167
112 6 157 160 162 168
113 8 170 169 171 173
114 8 170 169 172 174
115 6 169 171 173 175
116 6 169 171 173 176
117 6 169 171 173 177
118 6 169 172 174 178
119 6 169 172 174 179
120 6 169 172 174 180
121 8 182 181 183 185
122 8 182 181 184 186
123 6 181 183 185 187
124 6 181 183 185 188
125 6 181 183 185 189
126 6 181 184 186 190
127 6 181 184 186 191
128 6 181 184 186 192
129 8 194 193 195 197
130 8 194 193 196 198
131 6 193 195 197 199
132 6 193 195 197 200
133 6 193 195 197 201
134 6 193 196 198 202
135 6 193 196 198 203
136 6 193 196 198 204
137 8 206 205 207 209
138 8 206 205 208 210
139 6 205 207 209 211
140 6 205 207 209 212
141 6 205 207 209 213
142 6 205 208 210 214
143 6 205 208 210 215
144 6 205 208 210 216
145 8 218 217 219 221
146 8 218 217 220 222
147 6 217 219 221 223
148 6 217 219 221 224
149 6 217 219 221 225
150 6 217 220 222 226
151 6 217 220 222 227
152 6 217 220 222 228
153 8 230 229 231 233
154 8 230 229 232 234
155 6 229 231 233 235
156 6 229 231 233 236
157 6 229 231 233 237
158 6 229 232 234 238
159 6 229 232 234 239
160 6 229 232 234 240
161 8 242 241 243 245
162 8 242 241 244 246
163 6 241 243 245 247
164 6 241 243 245 248
165 6 241 243 245 249
166 6 241 244 246 250
167 6 241 244 246 251
168 6 241 244 246 252
169 8 254 253 255 257
170 8 254 253 256 258
171 6 253 255 257 259
172 6 253 255 257 260
173 6 253 255 257 261
174 6 253 256 258 262
175 6 253 256 258 263
176 6 253 256 258 264
177 8 266 265 267 269
178 8 266 265 268 270
179 6 265 267 269 271
180 6 265 267 269 272
181 6 265 267 269 273
182 6 265 268 270 274
183 6 265 268 270 275
184 6 265 268 270 276
185 8 278 277 279 281
186 8 278 277 280 282
187 6 277 279 281 283
188 6 277 279 281 284
189 6 277 279 281 285
190 6 277 280 282 286
191 6 277 280 282 287
192 6 277 280 282 288
193 8 290 289 291 293
194 8 290 289 292 294
195 6 289 291 293 295
196 6 289 291 293 296
197 6 289 291 293 297
198 6 289 292 294 298
199 6 289 292 294 299
200 6 289 292 294 300
201 8 302 301 303 305
202 8 302 301 304 306
203 6 301 303 305 307
204 6 301 303 305 308
205 6 301 303 305 309
206 6 301 304 306 310
207 6 301 304 306 311
208 6 301 304 306 312
209 8 314 313 315 317
210 8 314 313 316 318
211 6 313 315 317 319
212 6 313 315 317 320
213 6 313 315 317 321
214 6 313 316 318 322
215 6 313 316 318 323
216 6 313 316 318 324
217 8 326 325 327 329
218 8 326 325 328 330
219 6 325 327 329 331
220 6 325 327 329 332
221 6 325 327 329 333
222 6 325 328 330 334
223 6 325 328 330 335
224 6 325 328 330 336
225 8 338 337 339 341
226 8 338 337 340 342
227 6 337 339 341 343
228 6 337 339 341 344
229 6 337 339 341 345
230 6 337 340 342 346
231 6 337 340 342 347
232 6 337 340 342 348
233 8 350 349 351 353
234 8 350 349 352 354
235 6 349 351 353 355
236 6 349 351 353 356
237 6 349 351 353 357
238 6 349 352 354 358
239 6 349 352 354 359
240 6 349 352 354 360
241 8 362 361 363 365
242 8 362 361 364 366
243 6 361 363 365 367
244 6 361 363 365 368
245 6 361 363 365 369
246 6 361 364 366 370
247 6 361 364 366 371
248 6 361 364 366 372
249 8 374 373 375 377
250 8 374 373 376 378
251 6 373 375 377 379
252 6 373 375 377 380
253 6 373 375 377 381
254 6 373 376 378 382
255 6 373 376 378 383
256 6 373 376 378 384
257 8 386 385 387 389
258 8 386 385 388 390
259 6 385 387 389 391
260 6 385 387 389 392
261 6 385 387 389 393
262 6 385 388 390 394
263 6 385 388 390 395
264 6 385 388 390 396
265 8 398 397 399 401
266 8 398 397 400 402
267 6 397 399 401 403
268 6 397 399 401 404
269 6 397 399 401 405
270 6 397 400 402 406
271 6 397 400 402 407
272 6 397 400 402 408
273 8 410 409 411 413
274 8 410 409 412 414
275 6 409 411 413 415
276 6 409 411 413 416
277 6 409 411 413 417
278 6 409 412 414 418
279 6 409 412 414 419
280 6 409 412 414 420
281 8 422 421 423 425
282 8 422 421 424 426
283 6 421 423 425 427
284 6 421 423 425 428
285 6 421 423 425 429
286 6 421 424 426 430
287 6 421 424 426 431
288 6 421 424 426 432
289 8 434 433 435 437
290 8 434 433 436 438
291 6 433 435 437 439
292 6 433 435 437 440
293 6 433 435 437 441
294 6 433 436 438 442
295 6 433 436 438 443
296 6 433 436 438 444
297 8 446 445 447 449
298 8 446 445 448 450
299 6 445 447 449 451
300 6 445 447 449 452
301 6 445 447 449 453
302 6 445 448 450 454
303 6 445 448 450 455
304 6 445 448 450 456
305 8 458 457 459 461
306 8 458 457 460 462
307 6 457 459 461 463
308 6 457 459 461 464
309 6 457 459 461 465
310 6 457 460 462 466
311 6 457 460 462 467
312 6 457 460 462 468
313 8 470 469 471 473
314 8 470 469 472 474
315 6 469 471 473 475
316 6 469 471 473 476
317 6 469 471 473 477
318 6 469 472 474 478
319 6 469 472 474 479
320 6 469 472 474 480
321 8 482 481 483 485
322 8 482 481 484 486
323 6 481 483 485 487
324 6 481 483 485 488
325 6 481 483 485 489
326 6 481 484 486 490
327 6 481 484 486 491
328 6 481 484 486 492
329 8 494 493 495 497
330 8 494 493 496 498
331 6 493 495 497 499
332 6 493 495 497 500
333 6 493 495 497 501
334 6 493 496 498 502
335 6 493 496 498 503
336 6 493 496 498 504
337 8 506 505 507 509
338 8 506 505 508 510
339 6 505 507 509 511
340 6 505 507 509 512
341 6 505 507 509 513
342 6 505 508 510 514
343 6 505 508 510 515
344 6 505 508 510 516
345 8 518 517 519 521
346 8 518 517 520 522
347 6 517 519 521 523
348 6 517 519 521 524
349 6 517 519 521 525
350 6 517 520 522 526
351 6 517 520 522 527
352 6 517 520 522 528
353 8 530 529 531 533
354 8 530 529 532 534
355 6 529 531 533 535
356 6 529 531 533 536
357 6 529 531 533 537
358 6 529 532 534 538
359 6 529 532 534 539
360 6 529 532 534 540
361 8 542 541 543 546
362 8 542 541 544 545
363 5 541 543 546 545
364 7 543 546 545 544
365 7 541 544 545 546
366 8 552 551 553 556
367 8 552 551 554 555
368 5 551 553 556 555
369 7 553 556 555 554
370 7 551 554 555 556
371 8 562 561 563 566
372 8 562 561 564 565
373 5 561 563 566 565
374 7 563 566 565 564
375 7 561 564 565 566
376 8 572 571 573 576
377 8 572 571 574 575
378 5 571 573 576 575
379 7 573 576 575 574
380 7 571 574 575 576
381 8 582 581 583 586
382 8 582 581 584 585
383 5 581 583 586 585
384 7 583 586 585 584
385 7 581 584 585 586
386 8 592 591 593 596
387 8 592 591 594 595
388 5 591 593 596 595
389 7 593 596 595 594
390 7 591 594 595 596
391 8 602 601 603 606
392 8 602 601 604 605
393 5 601 603 606 605
394 7 603 606 605 604
395 7 601 604 605 606
396 8 612 611 613 616
397 8 612 611 614 615
398 5 611 613 616 615
399 7 613 616 615 614
400 7 611 614 615 616
401 8 622 621 623 626
402 8 622 621 624 625
403 5 621 623 626 625
404 7 623 626 625 624
405 7 621 624 625 626
406 8 632 631 633 636
407 8 632 631 634 635
408 5 631 633 636 635
409 7 633 636 635 634
410 7 631 634 635 636
411 8 642 641 643 646
412 8 642 641 644 645
413 5 641 643 646 645
414 7 643 646 645 644
415 7 641 644 645 646
416 8 652 651 653 656
417 8 652 651 654 655
418 5 651 653 656 655
419 7 653 656 655 654
420 7 651 654 655 656
421 8 662 661 663 666
422 8 662 661 664 665
423 5 661 663 666 665
424 7 663 666 665 664
425 7 661 664 665 666
426 8 672 671 673 676
427 8 672 671 674 675
428 5 671 673 676 675
429 7 673 676 675 674
430 7 671 674 675 676
431 8 682 681 683 686
432 8 682 681 684 685
433 5 681 683 686 685
434 7 683 686 685 684
435 7 681 684 685 686
436 8 692 691 693 696
437 8 692 691 694 695
438 5 691 693 696 695
439 7 693 696 695 694
440 7 691 694 695 696
441 8 702 701 703 706
442 8 702 701 704 705
443 5 701 703 706 705
444 7 703 706 705 704
445 7 701 704 705 706
446 8 712 711 713 716
447 8 712 711 714 715
448 5 711 713 716 715
449 7 713 716 715 714
450 7 711 714 715 716
451 8 722 721 723 726
452 8 722 721 724 725
453 5 721 723 726 725
454 7 723 726 725 724
455 7 721 724 725 726

