LAMMPS data file via write_data, version 23 Jun 2022, timestep = 1000

770 atoms
31 atom types
715 bonds
17 bond types
1087 angles
18 angle types
455 dihedrals
9 dihedral types
0 impropers
2 improper types

-0.6831351756278554 20.683135175627882 xlo xhi
-0.6831351756278554 20.683135175627882 ylo yhi
-0.6831351756278554 20.683135175627882 zlo zhi

Masses

1 12.011
2 12.011
3 12.011
4 12.011
5 12.011
6 12.011
7 12.011
8 12.011
9 12.011
10 12.011
11 1.008
12 1.008
13 1.008
14 1.008
15 1.008
16 1.008
17 1.008
18 15.999
19 15.999
20 15.999
21 15.999
22 14.007
23 14.007
24 14.007
25 14.007
26 18.998
27 30.974
28 6.941
29 32.065
30 32.065
31 6.941

Pair Coeffs # lj/cut/coul/cut

1 0.066 3.5
2 0.066 3.5
3 0.066 3.5
4 0.066 3.5
5 0.07 3.55
6 0.07 3.55
7 0.07 3.55
8 0.07 3.55
9 0.105 3.75
10 0.105 3.75
11 0.03 2.5
12 0.03 2.5
13 0.03 2.5
14 0.03 2.42
15 0.03 2.5
16 0.03 2.5
17 0.03 2.5
18 0.17 3
19 0.17 3
20 0.17 2.96
21 0.17 3
22 0.17 3.25
23 0.17 3.25
24 0.17 3.25
25 0.17 3.25
26 0.255 2.95
27 0.2 3.7
28 0.0025 1.506
29 0.25 3.55
30 0.25 3.55
31 0.00034 2.126

Bond Coeffs # harmonic

1 268 1.529
2 414 1.33
3 320 1.4
4 340 1.09
5 340 1.08
6 340 1.08
7 320 1.41
8 570 1.229
9 320 1.36
10 300 1.47
11 440 1.27
12 350 1.34
13 340 0.96
14 340 1.01
15 420 1.56
16 200 1.81
17 300 1.43

Angle Coeffs # harmonic

1 50 109.5
2 80 120
3 60 120
4 37.5 110.7
5 40 120
6 33 106.4
7 33 107.8
8 35 120
9 60 109.5
10 60 124
11 80 123
12 80 120.4
13 50 109.5
14 50 109.5
15 50 109.5
16 50 120
17 80 90
18 80 180

Atoms # full

359 30 11 0.06 0.1120111774119853 1.660517065934509 2.8893631779622893 0 0 0
392 33 11 0.06 3.4196820646095603 2.9446395278399224 1.492748317600145 0 0 0
389 33 1 0.22 4.14881629321311 2.2000171524466494 1.3445014151853636 0 0 0
393 33 11 0.06 4.523330017387907 2.3145235373075614 0.32337120497733474 0 0 0
391 33 11 0.06 3.6935647290586786 1.1866789259820703 1.3226062659989788 0 0 0
740 70 26 -0.39 1.6908045488309114 -0.4072074257409658 -0.05645960421629348 1 0 0
351 30 19 -0.35 1.9631089038957286 2.2875159507399108 4.267686986715968 0 0 0
742 70 26 -0.39 -0.1347677947894882 0.19022755185980744 1.0133123656921184 1 0 0
364 31 19 -0.35 1.845747812354431 3.6154236837189453 -0.6127310755468197 0 0 0
718 63 11 0.06 1.4705071115659316 19.97620954837525 4.182377493882304 0 0 0
362 31 20 -0.5 3.3562619505712643 4.266514043388433 19.1797093429783 0 0 -1
387 33 19 -0.35 5.272235286661556 2.346830570806834 2.1071605830231688 0 0 0
385 33 9 0.52 5.053529153112965 2.861472591475401 3.427870525194529 0 0 0
388 33 19 -0.35 4.821788199415409 1.861477876441815 4.485451787888427 0 0 0
390 33 1 0.22 5.911657062111499 1.742284926284761 5.34265221078812 0 0 0
395 33 11 0.06 5.671746193131782 2.259576222313175 6.293487667812759 0 0 0
394 33 11 0.06 6.782524673780704 2.2972133805099073 4.912326100993744 0 0 0
386 33 20 -0.5 5.395347885660064 4.011230120270056 3.587756453351984 0 0 0
622 54 20 -0.5 9.941621276908002 4.525231866036377 -0.6448048644033559 0 0 0
621 54 9 0.52 8.777219672174276 4.851991614948583 -0.40748505899369697 0 0 0
163 14 11 0.06 5.891407995023394 0.4250604994099323 19.76996242665885 0 0 0
267 23 19 -0.35 11.383400612365923 1.2747278465337573 1.6047149795446138 0 0 0
501 42 11 0.06 10.64575981223489 7.5917630985111035 4.869778459109571 0 0 0
624 54 19 -0.35 7.743384857188454 4.030282285573151 20.5267601885716 0 0 -1
627 54 11 0.06 7.362606844198641 5.051071550461249 1.7038164068464439 0 0 0
625 54 2 0.22 6.602564139444343 4.695325752221742 -0.3862361568666259 0 0 0
626 54 2 0.22 7.098016050826785 5.550226309071086 0.8055853295787188 0 0 0
623 54 19 -0.35 8.503807363718241 5.742821473138935 0.6395898228748338 0 0 0
274 23 11 0.06 8.568650037886902 19.514107453894866 0.13033757175372673 0 -1 0
269 23 1 0.22 11.740757536731989 2.390766172633979 0.8058372935985276 0 0 0
272 23 11 0.06 12.504266424636562 3.0635112804628224 1.361512104017999 0 0 0
271 23 11 0.06 10.84735960888353 2.9822077461568783 0.5480355653585651 0 0 0
273 23 11 0.06 12.23095974056747 2.1902750345876036 -0.1483395644013027 0 0 0
700 61 11 0.06 14.673854630881104 3.9098179280991996 -0.12817347656766243 0 0 1
317 27 1 0.22 15.175227425475104 -0.018981126976105656 1.5006976975395094 0 0 0
321 27 11 0.06 15.85148928941438 -0.09013762618068022 0.6293604583504682 0 0 0
320 27 11 0.06 14.261018227764659 0.16759345583403096 1.0073948518371985 0 0 0
47 4 11 0.06 13.11366265897775 3.376376515802157 5.449740618082335 0 0 0
499 42 11 0.06 9.865146964821752 6.101257447807055 4.26381634123679 0 0 0
691 61 9 0.52 14.013566077284164 2.5380386754432798 18.927327711174428 0 0 0
694 61 19 -0.35 14.475494711182291 2.245186529835676 20.24730878673872 0 0 0
695 61 2 0.22 15.3928423055756 3.384235345559296 20.610533869191556 0 0 0
315 27 19 -0.35 15.416337468787221 1.0598411973267268 2.33212527586084 0 0 0
48 4 11 0.06 13.671790448359006 2.5842572432690645 6.894060574175395 0 0 0
313 27 9 0.52 16.0884522152066 0.6893354780495704 3.4918281500578665 0 0 0
141 12 11 0.06 -0.2295041228074482 5.311864324337477 1.9462538640426308 1 0 0
314 27 20 -0.5 17.15899108872064 1.239510163724482 3.7570320055268054 0 0 0
139 12 11 0.06 1.080353491758742 6.065464166743025 2.684833531046538 1 0 0
137 12 1 0.22 0.004434658336125219 6.0950779256745315 2.6804433170182036 1 0 0
140 12 11 0.06 -0.3142003212701198 5.597716811175913 3.587425126860065 1 0 0
319 27 11 0.06 15.122767993236831 20.411282744138802 2.079482223644814 0 -1 0
699 61 11 0.06 16.301227831629895 3.472945326516803 -0.11748971017409049 0 0 1
410 35 20 -0.5 18.700745520579368 3.316840197381302 19.960279917604844 0 0 0
416 35 11 0.06 17.60857272298084 20.509423082325284 20.63357988692851 0 -1 0
361 31 9 0.52 2.6843049648690127 4.582650954884925 20.159102799602316 0 0 -1
363 31 19 -0.35 3.1352991311957474 5.590871390904931 -0.29106503170874215 0 0 0
365 31 1 0.22 2.6986151021989224 6.875251042324024 20.470652814099374 0 0 -1
367 31 11 0.06 1.7159931074765615 7.113191735288255 -0.4850720246659336 0 0 0
369 31 11 0.06 2.6089057445519654 6.875062813286928 19.402946960217896 0 0 -1
144 12 11 0.06 18.482451360627664 9.979308554725064 4.720182643111402 0 0 0
143 12 11 0.06 18.892143627787775 11.001223969985729 3.453435519038857 0 0 0
355 30 11 0.06 1.3415824583549258 3.6889148006239285 5.7749298182221835 0 0 0
539 45 11 0.06 4.948908083292415 8.24742647706208 2.9933633330422 0 0 0
628 54 11 0.06 6.419493585829355 6.355585504596451 0.8055340775117801 0 0 0
303 26 19 -0.35 8.486641660571195 9.58064078038322 2.6807865160199587 0 0 0
234 20 1 0.22 10.369892044887164 10.88267001054158 5.92069016782138 0 0 0
239 20 11 0.06 9.893755712194078 11.841173359928689 5.787153659855871 0 0 0
495 42 19 -0.35 10.876450388785523 7.152096733156253 2.8835193409426547 0 0 0
305 26 1 0.22 9.207622806441035 9.489419002985786 1.4985705528360582 0 0 0
630 54 11 0.06 6.382082804006861 5.27314205219556 20.086110209414308 0 0 -1
308 26 11 0.06 8.847827819886634 8.504282449058014 1.1789174078389026 0 0 0
496 42 19 -0.35 12.355694633898013 7.398198865122932 1.0913387572697923 0 0 0
493 42 9 0.52 12.049953793386345 6.7426755877968905 2.2096764195028658 0 0 0
494 42 20 -0.5 13.058786717858844 6.459399214925338 2.8386094073633736 0 0 0
497 42 1 0.22 10.77955325959733 6.704036123470128 4.212762182433268 0 0 0
733 67 31 1 14.595128776236887 6.910454174730553 3.3335739146076007 0 0 0
671 59 9 0.52 14.483076540785683 9.825956692557018 3.1828032990913893 0 0 0
672 59 20 -0.5 14.670825962722745 8.69029995348736 3.705032513728713 0 0 0
674 59 19 -0.35 13.555508007234106 10.6983792361083 3.711660623371972 0 0 0
602 52 20 -0.5 15.637130997426253 6.883556463783062 1.9222635877316936 0 0 0
673 59 19 -0.35 14.636929892998547 9.961683746413401 1.8212895873294168 0 0 0
38 4 20 -0.5 14.526630203396492 5.834422848153258 4.810435161308275 0 0 0
240 20 11 0.06 11.240475743199761 11.002145980650882 6.475127782259575 0 0 0
498 42 1 0.22 11.81347113590136 6.6428786705474785 -0.01540025247698773 0 0 0
504 42 11 0.06 11.64683092266528 5.520882853217543 0.2319295645903432 0 0 0
502 42 11 0.06 10.856222446018306 7.118425638419201 -0.4358022888097287 0 0 0
142 12 11 0.06 20.249840751729714 10.139415029106097 4.315261398407384 0 0 0
138 12 1 0.22 19.223357073615432 10.04275149187173 3.9011437326181433 0 0 0
135 12 19 -0.35 -0.5827226839414369 7.4032096724507905 2.5513385189514497 1 0 0
603 52 19 -0.35 16.78103738596228 8.416789704268382 0.5084459059197526 0 0 0
608 52 11 0.06 18.83190907926317 8.881856714022524 -0.021594430291937305 0 0 0
601 52 9 0.52 16.629760015963377 7.211740680459172 1.2776740862967695 0 0 0
133 12 9 0.52 19.640089231279987 7.720352323674625 3.256274432875602 0 0 0
134 12 20 -0.5 19.108670354160587 6.9042635335624105 4.044183325876983 0 0 0
136 12 19 -0.35 19.119238165553988 9.029560894178282 2.862275789616603 0 0 0
466 39 11 0.06 0.4416089556986136 12.566967701247714 0.27377830422073035 0 0 0
460 39 19 -0.35 0.44744826425228457 11.80950675576111 2.195674593740935 0 0 0
462 39 1 0.22 -0.13644044536910338 11.96353780572626 0.9634348059775377 0 0 0
457 39 9 0.52 1.828656205919427 11.52229236717941 2.247537146256351 0 0 0
459 39 19 -0.35 2.5947234085022584 12.423062568570034 2.9631325981070535 0 0 0
461 39 1 0.22 2.458278709768757 12.01883765459917 4.368999151059888 0 0 0
458 39 20 -0.5 2.3099087865399195 10.525021572695358 1.7300990416337774 0 0 0
467 39 11 0.06 -0.4243079124117903 10.990742697986615 0.5504807569162551 0 0 0
465 39 11 0.06 3.483254350336238 11.789255586432258 4.667404292931943 0 0 0
463 39 11 0.06 2.0471368324823227 12.786284120994601 5.060349553582116 0 0 0
464 39 11 0.06 1.8695953167391233 11.148932612053462 4.5764331606214705 0 0 0
103 9 11 0.06 0.1721262978063084 15.374871357293747 20.213011170718794 0 0 -1
309 26 11 0.06 8.850470053647584 10.206047336166373 0.7675755923854704 0 0 0
307 26 11 0.06 10.265322745181674 9.485107216492922 1.5889086369786831 0 0 0
301 26 9 0.52 8.18161950771316 10.882628011230484 3.0171305950364116 0 0 0
302 26 20 -0.5 8.9490828266976 11.674825254894227 3.5273445393626925 0 0 0
187 16 11 0.06 9.865602451374192 13.951685487468776 1.8954035731757939 0 0 0
304 26 19 -0.35 6.896595360324016 11.337152426386256 2.729072078376206 0 0 0
183 16 19 -0.35 9.41539053711974 15.16681072534111 3.591127644316458 0 0 0
185 16 1 0.22 10.333758764313687 14.558902824664825 2.690657860633697 0 0 0
306 26 1 0.22 6.875736733042666 12.563456446637025 2.060098552225123 0 0 0
311 26 11 0.06 5.889384530770601 12.778940466923368 1.6329050961827902 0 0 0
310 26 11 0.06 7.671617812300202 12.695519749299258 1.3682835000899973 0 0 0
312 26 11 0.06 6.929051913696168 13.242712374485226 2.9548252075148262 0 0 0
169 15 9 0.52 11.202590948319502 12.638004681101656 20.61121503045328 0 0 0
648 56 11 0.06 5.406386111819 15.84894448008882 -0.31777619640904153 0 0 0
171 15 19 -0.35 10.22422059149611 13.652333891207462 -0.4602340943938708 0 0 1
675 59 2 0.22 12.70230239370114 10.908719190094674 2.6511744278718723 0 0 0
680 59 11 0.06 11.646845767303642 10.779215893155698 2.6228261387290446 0 0 0
188 16 11 0.06 10.900385213919218 15.279172437387837 2.063308386916143 0 0 0
330 28 1 0.22 15.440675005407881 13.798084237517864 2.5450660904007134 0 0 0
334 28 11 0.06 15.687710422775544 14.172949535736342 1.5474064814595865 0 0 0
328 28 19 -0.35 14.837878286869186 14.87147208368019 3.2858873664789936 0 0 0
189 16 11 0.06 11.129680435155429 14.04528108345217 3.140718389339687 0 0 0
335 28 11 0.06 16.296415767288437 13.339139774363261 3.074231835926149 0 0 0
679 59 11 0.06 12.751527225972831 11.834873147285107 3.2795218297285897 0 0 0
676 59 2 0.22 13.486625137356642 10.64117446390018 1.334894123480265 0 0 0
677 59 11 0.06 13.777338719192246 11.50596715260475 0.7845929335988728 0 0 0
170 15 20 -0.5 12.463392425640984 12.7762274788015 20.548219062457065 0 0 0
325 28 9 0.52 13.675945440915145 15.42143191713179 2.7286916096171083 0 0 0
336 28 11 0.06 14.74236138336581 13.01379817548929 2.1986856412063736 0 0 0
468 39 11 0.06 20.326530552100465 12.570453681172916 1.0912032537804894 -1 0 0
380 32 11 0.06 18.513508888336403 15.095017715470815 1.0777632572512055 0 0 0
377 32 1 0.22 18.16703362124816 15.88501921956952 1.7647431354422505 0 0 0
381 32 11 0.06 19.008262423406407 16.409942989393613 2.217796810864741 0 0 0
720 63 11 0.06 4.154561561213742 20.29050615157659 4.373239949116554 0 0 0
100 9 19 -0.35 -0.1192587390917218 16.02414525230641 2.775256381624805 0 0 0
647 56 11 0.06 4.031055794226904 15.13553479316435 0.41171731754838214 0 0 0
737 70 26 -0.39 0.5687965178561163 19.49154853960816 0.9625398065470463 1 -1 0
97 9 9 0.52 0.9702630568984596 15.638855692703006 1.9624232384882605 0 0 0
98 9 20 -0.5 2.139859901056009 15.970293183596537 2.2652677032394286 0 0 0
716 63 2 0.22 2.2246574498635776 19.307912799574204 3.790686732818486 0 0 0
717 63 11 0.06 1.7893231503703895 18.810229203825642 2.9233655308562216 0 0 0
736 70 27 1.34 0.23369720617656897 20.516010676709854 -0.09198783346583672 1 -1 0
711 63 9 0.52 3.9327033984181954 17.990465505390198 4.451791280884113 0 0 0
719 63 11 0.06 3.8790831563929666 20.553548062039688 2.5978184425559716 0 0 0
715 63 2 0.22 3.674378961929836 19.881961012504043 3.4388085913139212 0 0 0
99 9 19 -0.35 0.6159134854632926 14.962664473583969 0.806132051329389 0 0 0
105 9 11 0.06 1.2164047625924066 16.54226346471367 -0.4422567815251825 0 0 0
101 9 1 0.22 0.374634431024665 15.870440291938477 -0.23348795609768752 0 0 0
268 23 19 -0.35 9.786621795794447 -0.1610267486160054 0.4313454505337806 0 0 0
182 16 20 -0.5 8.154916225232592 16.38635912972969 2.1504660056287155 0 0 0
646 56 2 0.22 4.421779331530217 16.0920910435419 0.11720210378204943 0 0 0
714 63 19 -0.35 4.629042643152825 18.94248890991443 3.7029808166964244 0 0 0
276 23 11 0.06 10.230046390760972 19.055020582568837 0.34697502036544914 0 -1 0
181 16 9 0.52 8.850787549142305 16.37645140408182 3.170207364017246 0 0 0
645 56 2 0.22 4.593675684216337 16.909389761374136 1.3512331069483747 0 0 0
649 56 11 0.06 4.60024834400113 16.153543867615795 2.184822477910677 0 0 0
650 56 11 0.06 5.59683397777199 17.204051386702645 1.3752704757649457 0 0 0
191 16 11 0.06 6.820831908457982 17.311683308066662 4.156723306132103 0 0 0
186 16 1 0.22 7.704507421967648 17.88341357247107 4.44637974492177 0 0 0
184 16 19 -0.35 8.98261167272724 17.45625062111361 4.035102893457619 0 0 0
190 16 11 0.06 7.38642594565907 18.805277067159246 3.9895856013533395 0 0 0
173 15 1 0.22 10.562823254688512 14.949452645524374 20.380242373628143 0 0 0
175 15 11 0.06 9.800382314850088 15.643850534548902 20.63371771788518 0 0 0
270 23 1 0.22 9.61266445002285 19.857670138496374 -0.06210249933044509 0 -1 0
275 23 11 0.06 9.744884563593857 19.94970316223249 20.226737787616663 0 -1 -1
644 56 19 -0.35 4.67355703821252 18.325601234728254 0.9259852639871125 0 0 0
265 23 9 0.52 11.118997711323614 0.14687717873508854 0.7866655722487075 0 0 0
266 23 20 -0.5 12.056584801404956 -0.5785355721143425 0.49728359874590256 0 0 0
176 15 11 0.06 11.505465650771892 15.206561722306754 -0.5327570231061642 0 0 1
326 28 20 -0.5 13.361039086913454 15.20513052593988 1.5333508281327726 0 0 0
331 28 11 0.06 11.98395649266515 18.2085462045668 3.41749517901183 0 0 0
327 28 19 -0.35 12.876889780305207 16.224754718077726 3.5511707745433387 0 0 0
332 28 11 0.06 13.481133898282803 18.001214483932586 2.6508863343539755 0 0 0
329 28 1 0.22 12.567138073980162 17.457850249524405 2.8904376221054906 0 0 0
5 1 1 0.22 13.999881874028576 17.19614693229432 -0.5870765725276581 0 0 1
7 1 11 0.06 15.05489097698745 17.134187450400468 -0.46853437938332426 0 0 1
9 1 11 0.06 13.519644972785537 16.261965417166223 -0.6705385688925922 0 0 1
8 1 11 0.06 13.673484260716902 17.829540969297113 0.2631931605594322 0 0 1
375 32 19 -0.35 17.512178881491998 16.874456309231434 0.9688952805907869 0 0 0
374 32 20 -0.5 16.10690672190973 17.96041637639035 2.409651072910308 0 0 0
373 32 9 0.52 17.151215110934025 18.001656013700405 1.7356326511744107 0 0 0
376 32 19 -0.35 17.658522071668912 19.316111121549746 1.339079643475475 0 0 0
378 32 1 0.22 18.602233034308732 19.730118760777685 2.3402020050329053 0 0 0
382 32 11 0.06 18.83755623676305 -0.5802314103239397 2.233589537087456 0 1 0
383 32 11 0.06 18.361472963425726 19.576225883235175 3.3745381719001033 0 0 0
384 32 11 0.06 19.554764036495037 19.174919363934734 2.1516837020041946 0 0 0
455 38 11 0.06 19.626406363917106 17.5632463631433 19.014688379096818 0 0 0
739 70 26 -0.39 20.16629003551143 20.097972318427153 -0.23305464543693272 0 -1 0
354 30 1 0.22 -0.5919852830836663 1.6871423065574742 3.612151719744044 0 0 0
352 30 19 -0.35 -0.0996220748734139 1.1016541973161895 4.793541530822051 0 0 0
349 30 9 0.52 1.2842700673484437 1.3333578761966582 5.05966435186436 0 0 0
360 30 11 0.06 19.929891827930177 1.2559603524956218 3.2201107870083434 -1 0 0
350 30 20 -0.5 1.8464766445826042 0.8499912702912507 6.012985015926946 0 0 0
353 30 1 0.22 2.024355740665234 3.536694773797854 4.9445511621395095 0 0 0
76 7 19 -0.35 1.5209923649240227 2.946498233285441 10.00541669395603 0 0 0
78 7 1 0.22 1.128545858321133 2.756183858818486 8.634723235018996 0 0 0
248 21 11 0.06 18.862823466833277 5.435308513992977 10.083597927190654 0 0 0
82 7 11 0.06 1.0452135125094344 3.738220181111088 8.101301470691007 0 0 0
562 48 20 -0.5 20.186762664051948 3.9827210080377613 6.287978839707461 0 0 0
83 7 11 0.06 1.7372438850820937 2.034852836322708 8.087410590475676 0 0 0
84 7 11 0.06 0.13771235377862023 2.284062432220962 8.558260678104661 0 0 0
396 33 11 0.06 6.230217075885844 0.671126990206095 5.514324674694709 0 0 0
559 47 11 0.06 3.997552218982742 0.27419974693834415 7.88598935864729 0 0 0
511 43 11 0.06 9.256266424986253 19.790698997845666 6.999121353671002 0 -1 0
706 62 2 0.22 10.205184616272502 2.9302918843698897 9.342921783698356 0 0 0
701 62 9 0.52 8.903503433487604 4.244151039256254 8.00875050423738 0 0 0
558 47 11 0.06 4.4214142512191525 -0.5161319269689031 10.244244080860145 0 0 0
560 47 11 0.06 5.4815444760913845 0.3284824009935974 8.53610454022497 0 0 0
555 47 2 0.22 4.756953990962389 -0.42041954164609074 8.203621102943643 0 0 0
702 62 20 -0.5 8.590728924556629 5.043881240811494 7.142438474144119 0 0 0
705 62 2 0.22 8.762918738785752 2.7595407276809696 9.742960633199719 0 0 0
704 62 19 -0.35 7.962850533651173 3.395952383431558 8.833415515359226 0 0 0
509 43 1 0.22 9.025360295792897 20.601856555477063 7.684521548266217 0 -1 0
513 43 11 0.06 7.969236792466738 20.36691548091406 7.777159337453009 0 -1 0
707 62 11 0.06 10.661581040927805 1.9566214494414407 9.107175704715571 0 0 0
709 62 11 0.06 8.534091969563216 1.7302739450245568 9.560467869239071 0 0 0
507 43 19 -0.35 9.326412020246945 0.4119313346033999 7.049590030424047 0 0 0
506 43 20 -0.5 11.13166156895708 1.6378881899914166 6.138894986792885 0 0 0
505 43 9 0.52 10.643157536871025 0.50814534740379 6.403256316100623 0 0 0
508 43 19 -0.35 11.034679302009156 -0.6109051404007335 5.673059752387736 0 0 0
516 43 11 0.06 11.33001775505835 -0.3029525962713545 3.724844745898448 0 0 0
42 4 1 0.22 13.292039128120098 3.571905159605844 6.502962285811462 0 0 0
149 13 1 0.22 15.059298590284186 0.30796186482605714 8.741299463136574 0 0 0
153 13 11 0.06 14.088144554011306 0.5178763445339376 9.136722003607971 0 0 0
46 4 11 0.06 12.32262277947879 3.8270856150555757 6.896932319535438 0 0 0
151 13 11 0.06 14.961001517095003 0.086853545605306 7.6976452845457 0 0 0
152 13 11 0.06 15.256141202849209 -0.626469962908911 9.296342880612407 0 0 0
358 30 11 0.06 20.484376082448193 2.7414052748054583 3.7819070033241653 -1 0 0
316 27 19 -0.35 15.384375095989784 0.34745424167196903 4.691805933261658 0 0 0
147 13 19 -0.35 15.90526428556055 1.4219771559699068 9.065182377985272 0 0 0
318 27 1 0.22 14.7948952094748 20.397669033797904 4.704518750938778 0 -1 0
561 48 9 0.52 19.123848592141528 4.478877730974839 5.916484835597663 0 0 0
323 27 11 0.06 14.270410108746578 20.201714908905856 5.630736865596638 0 -1 0
148 13 19 -0.35 17.993402183506497 1.7814100811015918 8.030547232033033 0 0 0
564 48 19 -0.35 18.342907370339063 3.8964426654187836 4.942293358384208 0 0 0
570 48 11 0.06 16.524091534190703 4.322650821566506 4.678282018455233 0 0 0
565 48 2 0.22 17.083545857791734 3.897632789930878 5.5196100544703635 0 0 0
569 48 11 0.06 16.404875390426888 3.097895479788673 5.813330926488477 0 0 0
150 13 1 0.22 18.517424387964333 0.8943618049487687 7.070570002062146 0 0 0
155 13 11 0.06 17.784133616589138 0.2029328264899839 6.5993610279546235 0 0 0
145 13 9 0.52 17.240702115581065 1.16233697547901 9.010935209875143 0 0 0
156 13 11 0.06 19.030063077157656 1.459138947989635 6.303127413456198 0 0 0
154 13 11 0.06 19.29655047330941 0.2621520644409959 7.59932584611011 0 0 0
357 30 11 0.06 1.9986783073000636 4.451584880541371 4.287117385279203 0 0 0
356 30 11 0.06 2.9677513626134226 3.5746449131145326 5.466193264662586 0 0 0
259 22 11 0.06 4.666073272569276 7.405465015426438 9.751290555096938 0 0 0
530 45 20 -0.5 3.8495201132527024 7.880593144276377 5.80025903182067 0 0 0
256 22 19 -0.35 1.423263848874543 6.81082556923539 7.021204955394029 0 0 0
258 22 1 0.22 0.13555359465124062 7.228058050296849 6.5186671146713255 0 0 0
262 22 11 0.06 -0.5181815887402281 6.407094160446433 6.780591393238417 0 0 0
255 22 19 -0.35 2.8044982600498742 7.562006986736696 8.76390533837303 0 0 0
253 22 9 0.52 1.6230839992682395 6.9869398833575005 8.368477542558226 0 0 0
257 22 1 0.22 3.875279802255317 6.796234139718885 9.312992157398977 0 0 0
264 22 11 0.06 0.1987053594546092 7.293019077099147 5.403481111678022 0 0 0
261 22 11 0.06 4.36088572879838 6.139001238169297 8.576613160886595 0 0 0
540 45 11 0.06 3.3163947349593097 8.745925766510666 3.2602469756714356 0 0 0
254 22 20 -0.5 0.7361050369045397 6.636815979063118 9.173719031992338 0 0 0
249 21 11 0.06 20.236846061293292 4.974687546984511 9.062292504976035 0 0 0
534 45 1 0.22 4.358474525006327 9.07189060218031 3.3504517177623985 0 0 0
536 45 11 0.06 6.26269892056745 6.229865767098635 6.335118366356902 0 0 0
537 45 11 0.06 7.409111594654998 7.061290664235287 5.441870892662642 0 0 0
535 45 11 0.06 7.384514114206718 7.211810362604261 7.240593249638193 0 0 0
533 45 1 0.22 6.798690875050709 7.13499342711375 6.3223728896912155 0 0 0
260 22 11 0.06 3.472960315193019 6.012859663262821 10.037169317493712 0 0 0
529 45 9 0.52 4.897876532992713 8.395601345533445 5.472663432421169 0 0 0
532 45 19 -0.35 4.704972805445415 9.508293563979523 4.713562965919579 0 0 0
703 62 19 -0.35 10.30085214566253 3.979915335900791 8.360903951774517 0 0 0
531 45 19 -0.35 5.975568475469351 8.364569849062564 6.364735846118234 0 0 0
229 20 9 0.52 9.41560611810333 9.614504032346918 7.552309991267755 0 0 0
237 20 11 0.06 8.012252845486012 8.076037193359591 9.508509080005153 0 0 0
233 20 1 0.22 7.9793849560251005 9.17165821654833 9.439999912997937 0 0 0
236 20 11 0.06 7.1882828051436345 9.556287822187143 10.059510710966231 0 0 0
231 20 19 -0.35 8.060596923857462 9.484457150037038 8.039995232398372 0 0 0
232 20 19 -0.35 9.657048390913143 9.739051684868006 6.149052602441739 0 0 0
238 20 11 0.06 10.81304962464127 10.645969904108114 4.950341581219283 0 0 0
230 20 20 -0.5 10.388497428903467 9.588771937412385 8.332694626104166 0 0 0
235 20 11 0.06 8.896066113214756 9.478891333978847 10.023872596746614 0 0 0
500 42 11 0.06 11.600595495179451 6.039180252565881 4.606381978690551 0 0 0
40 4 19 -0.35 14.117019963654489 4.67160865648552 6.713860980694387 0 0 0
708 62 11 0.06 10.824313846789513 3.408777314803535 10.135357105998738 0 0 0
37 4 9 0.52 13.842100334246568 5.761050213956968 5.907473206973746 0 0 0
39 4 19 -0.35 13.382101365995563 6.937787139421554 6.5137018080764 0 0 0
44 4 11 0.06 12.838601904133533 6.475866140399882 8.395112720239496 0 0 0
43 4 11 0.06 11.641267209431719 6.0969615619330675 7.247393681203499 0 0 0
41 4 1 0.22 12.3841970344779 6.850762752089135 7.523543391841876 0 0 0
45 4 11 0.06 11.779089174973475 7.744936199465794 7.772479029951546 0 0 0
122 11 20 -0.5 15.880700551030229 7.373653508182281 9.61252256838867 0 0 0
600 51 11 0.06 12.041776005170146 10.123501366152057 11.695513346025646 0 0 0
132 11 11 0.06 17.333250247392016 8.39128089968682 6.617720997274389 0 0 0
126 11 1 0.22 16.48188424159229 9.100396847841635 6.752281168961546 0 0 0
130 11 11 0.06 15.721932268922961 8.699996955247848 6.124234639941144 0 0 0
563 48 19 -0.35 18.52532624923426 5.361115209773521 6.817196272952954 0 0 0
263 22 11 0.06 -0.18349042170658603 8.158146217900983 7.073397577442474 0 0 0
131 11 11 0.06 16.664837362719098 10.060569121803024 6.285490564381523 0 0 0
566 48 2 0.22 17.15623247119577 5.002473618475101 6.625915231048721 0 0 0
567 48 11 0.06 16.46971107882463 4.858867457412329 7.448020204682813 0 0 0
124 11 19 -0.35 16.055066791907763 9.20797024398403 8.115936745383012 0 0 0
568 48 11 0.06 17.02517557679873 6.000082627446465 6.213180725858408 0 0 0
121 11 9 0.52 16.567023855962745 8.138374791511497 8.965649566930054 0 0 0
123 11 19 -0.35 17.97739207357303 8.059890665937473 9.050141345237773 0 0 0
127 11 11 0.06 18.812128641314978 9.854213296953148 8.45364042165137 0 0 0
125 11 1 0.22 18.584309480121867 9.301446682486004 9.3618072509078 0 0 0
129 11 11 0.06 19.575255088995128 9.00456873422453 9.799245124092389 0 0 0
745 71 26 -0.39 -0.41075971637472897 11.900708715421771 6.081492095168159 1 0 0
107 9 11 0.06 -0.34671183885556933 14.593277145121773 4.2389240924211995 0 0 0
538 45 11 0.06 4.502750186829588 9.792386717792585 2.6114091378041793 0 0 0
746 71 26 -0.39 19.70085573810877 13.64395236509609 6.184525955869386 0 0 0
517 44 9 0.52 4.528868858682903 10.968065514127058 9.154081633679658 0 0 0
519 44 19 -0.35 4.450084724469309 10.759067741218551 10.55660524763084 0 0 0
640 55 11 0.06 0.30927200682246236 16.525264619376543 6.873093257723803 0 0 0
528 44 11 0.06 2.2378542409190447 12.27499183499769 7.340845814139955 0 0 0
638 55 11 0.06 2.3286339702799834 15.33375999293819 7.20521659951819 0 0 0
527 44 11 0.06 2.0430051833472365 12.204757889186526 9.104864593422805 0 0 0
522 44 1 0.22 2.5291059668494906 11.722062408780813 8.232661850953331 0 0 0
526 44 11 0.06 2.238349134744949 10.711843505199605 8.105604179662029 0 0 0
520 44 19 -0.35 3.879665527321566 11.999163645183597 8.50627364050457 0 0 0
518 44 20 -0.5 5.268996290629842 10.25200404756535 8.45899166068633 0 0 0
724 64 19 -0.35 7.96225077863234 13.338458907415223 6.800810612200984 0 0 0
731 65 31 1 6.167152336028799 10.119012875630967 6.963651158297111 0 0 0
722 64 20 -0.5 6.866653630523606 11.33197471488218 6.201150534806731 0 0 0
721 64 9 0.52 6.821366929631617 12.6184557668017 6.178750700896244 0 0 0
723 64 19 -0.35 5.582777341407167 13.198016480765965 6.261671610943724 0 0 0
726 64 2 0.22 5.909826706224473 14.480756108585034 6.698336228216713 0 0 0
725 64 2 0.22 7.4125250034856105 14.545600087964399 7.1786112910269155 0 0 0
729 64 11 0.06 8.099330547370652 14.771427549477478 6.407641430652415 0 0 0
546 46 2 0.22 14.80493149252425 12.195077593836233 7.004431550813613 0 0 0
730 64 11 0.06 7.440583197269046 15.236857181788768 7.924625527630452 0 0 0
543 46 19 -0.35 13.404652752266975 12.192610684869488 6.913252872987508 0 0 0
541 46 9 0.52 13.038660143297479 13.428335702103698 6.255735375166576 0 0 0
542 46 20 -0.5 11.866694484472994 13.789616304072359 6.205210122255822 0 0 0
548 46 11 0.06 14.902105737618117 11.540707679383992 6.10750074164384 0 0 0
544 46 19 -0.35 14.081925200717526 14.395783949281377 6.395807095522068 0 0 0
547 46 11 0.06 15.519793106226478 11.726475457888013 7.708655238550067 0 0 0
549 46 11 0.06 15.48297483730955 13.96379086168469 7.946218946807091 0 0 0
545 46 2 0.22 15.158050308220249 13.674749425589116 6.948006533296879 0 0 0
550 46 11 0.06 16.077622194533127 13.846791974838485 6.425527128889573 0 0 0
599 51 11 0.06 12.436997845665838 10.080838185541827 9.860269472904285 0 0 0
595 51 2 0.22 12.569913289438245 10.570212903015506 10.861690422725138 0 0 0
214 18 11 0.06 10.268162730292264 13.309088032876033 8.222712191650984 0 0 0
379 32 11 0.06 17.59701479802481 15.365929629720215 2.5883074154849863 0 0 0
749 71 26 -0.39 0.005740768272290975 13.559889385016787 7.679206797099642 1 0 0
748 71 26 -0.39 18.942863361231908 11.761047461647548 6.798601551971984 0 0 0
743 71 27 1.34 20.16956123974027 12.611562081767593 7.239793535148154 0 0 0
747 71 26 -0.39 20.67479914483996 11.578381264113213 8.266142592632827 0 0 0
744 71 26 -0.39 19.209815040242894 13.226168681726373 8.287678877792473 0 0 0
597 51 11 0.06 14.486440036442087 9.558192307941558 10.781807516318283 0 0 0
713 63 19 -0.35 2.5464150527401004 18.24794364300375 4.66676269289297 0 0 0
102 9 1 0.22 0.1439561247831047 15.607942397611323 4.080020828423378 0 0 0
108 9 11 0.06 1.180728976035629 15.705848692768877 4.389962314355262 0 0 0
557 47 11 0.06 3.397686203811908 19.86486627668446 9.500442475958957 0 -1 0
634 55 19 -0.35 0.8204541559253351 17.742580467288782 8.53334778585427 0 0 0
639 55 11 0.06 1.2234427514191268 17.940208499404335 6.828483937879472 0 0 0
635 55 2 0.22 1.0997975615746418 17.059980542805803 7.389248416902737 0 0 0
636 55 2 0.22 2.3580552785057445 16.315922095220458 7.6875785799051215 0 0 0
631 55 9 0.52 1.5263062436985484 17.18195396599443 9.548256082691944 0 0 0
633 55 19 -0.35 2.637578018347564 16.445893785211027 9.0958807081778 0 0 0
712 63 20 -0.5 4.449075574397863 16.859729916548048 4.696421757774746 0 0 0
556 47 2 0.22 4.466071834395299 20.096792698469244 9.484423731815024 0 -1 0
727 64 11 0.06 5.821263723435674 15.01193532927943 5.760031829268769 0 0 0
728 64 11 0.06 5.178671383672859 14.868681774805339 7.4998597947442125 0 0 0
192 16 11 0.06 7.643490093707172 17.90952171402003 5.546164061316152 0 0 0
554 47 19 -0.35 5.548167507118652 20.18735213536536 7.300655569124985 0 -1 0
553 47 19 -0.35 4.7906593461679625 18.77001692120117 9.073827677546035 0 -1 0
637 55 11 0.06 3.1862114057658673 16.739332045187844 7.133107672884282 0 0 0
551 47 9 0.52 5.286848394947911 18.868246940277828 7.763336045213713 0 -1 0
552 47 20 -0.5 5.840716987786153 17.97187306248499 7.195486794006305 0 -1 0
512 43 11 0.06 9.555335095409871 20.3535424827811 8.595173035988232 0 -1 0
510 43 1 0.22 10.480861213331156 -0.5863716928385827 4.3816477552849875 0 0 0
515 43 11 0.06 9.597285505925058 0.07681183289909588 4.341504541733948 0 0 0
668 58 11 0.06 12.175946933567749 15.759149854235512 8.084192779556401 0 0 0
667 58 11 0.06 11.99239962689907 15.971438971798841 9.719497135423158 0 0 0
666 58 2 0.22 12.431237587258227 16.497706361449524 8.852061772221663 0 0 0
514 43 11 0.06 10.20635300829592 19.785735293951866 4.088730336488426 0 -1 0
333 28 11 0.06 12.146809747139153 17.304239302458058 1.8929762516993547 0 0 0
661 58 9 0.52 12.882585470458247 18.549748583148975 8.305888776046556 0 0 0
663 58 19 -0.35 11.810437561919995 17.697483252194985 8.411834722955362 0 0 0
662 58 20 -0.5 12.65011032946976 19.6839543495157 7.990653266655016 0 0 0
670 58 11 0.06 14.397102637190478 15.829692733252338 8.935655746026919 0 0 0
322 27 11 0.06 15.525182509151177 19.685266447743224 4.42476990250681 0 -1 0
324 27 11 0.06 14.00080929257735 20.51503370554444 3.9859457460405965 0 -1 0
106 9 11 0.06 -0.41965475890852905 16.360724528939812 4.712507564522497 0 0 0
444 37 11 0.06 16.958695589897907 15.991242212425506 4.697867263646417 0 0 0
442 37 11 0.06 16.852044965072935 16.5778874374842 6.331374326289375 0 0 0
438 37 1 0.22 17.02988515968307 16.917622263418217 5.300550339665012 0 0 0
443 37 11 0.06 16.130540950039205 17.480400809801978 5.069021342260255 0 0 0
436 37 19 -0.35 18.2627001300353 17.61590152723427 5.070802464142367 0 0 0
435 37 19 -0.35 19.109460180117715 17.088112363929426 7.204589651669711 0 0 0
433 37 9 0.52 18.8011994617207 18.04232342066974 6.256119289447517 0 0 0
434 37 20 -0.5 18.672670358694738 19.223579784907635 6.519524209088727 0 0 0
73 7 9 0.52 1.603944903831355 1.7585274980701082 10.740320122668537 0 0 0
80 7 11 0.06 -0.17222767602543343 0.06992231274650729 10.253199385853028 0 0 0
77 7 1 0.22 0.858794942149887 -0.3492829927922209 10.133680344254053 0 0 0
75 7 19 -0.35 1.870265413421457 0.6306355634833678 9.971787255244855 0 0 0
74 7 20 -0.5 2.0395218227560825 1.8395924355752267 11.874399453778304 0 0 0
759 73 26 -0.39 -0.5617735835875094 -0.2628148559341444 13.891218063493534 1 0 0
251 21 11 0.06 0.19663633618524345 4.037000588367348 12.961512528622972 1 0 0
79 7 11 0.06 0.9951639756573747 20.35182796079048 10.977836168694054 0 -1 0
81 7 11 0.06 0.8272516013873445 20.424722608856165 9.198090943673328 0 -1 0
490 41 11 0.06 1.8186452519192664 1.2552164254323035 15.301242829758493 0 0 0
491 41 11 0.06 0.46337563920971125 0.5148559261375529 16.08960416024427 0 0 0
486 41 1 0.22 1.1431370536629224 1.3312035068084147 16.13392235685192 0 0 0
31 3 11 0.06 4.559736619087408 3.365465344127471 11.451936560479208 0 0 0
584 50 19 -0.35 9.316265072048541 -0.38847195582908983 11.612648253217232 0 0 0
589 50 11 0.06 8.641061155447458 19.18811826891799 11.998936418974727 0 -1 0
27 3 19 -0.35 6.434196007474113 2.5664133356545418 12.097879809435808 0 0 0
29 3 1 0.22 5.554341310125899 3.643233602571205 11.695238552347485 0 0 0
25 3 9 0.52 6.137931501143211 1.8851280335452167 13.350949953198556 0 0 0
26 3 20 -0.5 5.71877722923789 0.7031110980996116 13.300495213492164 0 0 0
28 3 19 -0.35 6.203739107610546 2.5681153885869805 14.58000078332633 0 0 0
35 3 11 0.06 7.4655360480521065 3.916819631390866 15.503024423769775 0 0 0
33 3 11 0.06 5.954446134442979 4.283192045045502 10.920679875076353 0 0 0
585 50 2 0.22 8.326335250933445 20.21770985858506 12.27177560298187 0 -1 0
710 62 11 0.06 8.59691773038414 2.9160846663663453 10.796826547544105 0 0 0
590 50 11 0.06 7.2543199514795145 20.34811393669964 12.139437879156747 0 -1 0
586 50 2 0.22 8.474670769072409 20.49887081849117 13.779469045119903 0 -1 0
588 50 11 0.06 7.715114742603777 -0.21265446556030793 14.15363240212539 0 0 0
30 3 1 0.22 7.435008797404205 3.2340704589578815 14.6611732227826 0 0 0
16 2 19 -0.35 14.993483407877541 2.9129613003869625 11.573229982589586 0 0 0
18 2 1 0.22 15.059077599838822 4.102616448079085 12.360100867626826 0 0 0
15 2 19 -0.35 14.404792179682502 1.0220117974879215 13.094461490592993 0 0 0
23 2 11 0.06 14.13228752921972 4.350694862330645 12.857186718884707 0 0 0
338 29 20 -0.5 11.237267727378958 5.092145276797422 14.2342067513133 0 0 0
347 29 11 0.06 11.915639240355612 1.2075778919593239 14.785320586975606 0 0 0
581 50 9 0.52 10.285221988627507 -0.34891836877106636 12.633356670339253 0 0 0
337 29 9 0.52 11.089049587324238 4.41388543090579 15.235454691850387 0 0 0
250 21 11 0.06 -0.227298478454886 2.417584178197948 13.468574720340802 1 0 0
252 21 11 0.06 -0.27060272980051425 3.9074314416697664 14.51188981320616 1 0 0
246 21 1 0.22 -0.5287724948811257 3.484441369583653 13.512535599406215 1 0 0
13 2 9 0.52 15.391749745897778 1.751685462538433 12.291576871828491 0 0 0
14 2 20 -0.5 16.607444861246073 1.3470070547843354 12.411899242464159 0 0 0
146 13 20 -0.5 17.702495164224715 0.5002750377522605 9.951106441529266 0 0 0
734 68 31 1 18.086098888599118 0.974097454640926 11.521981013285616 0 0 0
761 73 26 -0.39 19.54715180559826 0.29979445670933524 12.214943134534815 0 0 0
757 73 27 1.34 19.440207282912652 20.64804298815448 13.409247879160906 0 -1 0
762 73 26 -0.39 18.679810404001948 0.3009893452760827 14.267781327304181 0 0 0
242 21 20 -0.5 18.533192940925588 2.661905848889507 11.313399767974156 0 0 0
241 21 9 0.52 19.281715421730098 3.549655794516468 11.742815888404516 0 0 0
247 21 11 0.06 19.025257506043637 3.9354599489038984 9.214510248666334 0 0 0
245 21 1 0.22 19.587190383207023 4.648543416994259 9.814429550633838 0 0 0
228 19 11 0.06 2.2665966242242765 5.849636051890703 14.870650009789138 0 0 0
222 19 1 0.22 3.1991794580680137 5.254226718109641 14.579464060312974 0 0 0
227 19 11 0.06 3.242366068437958 4.1570513766806245 14.956298210868209 0 0 0
226 19 11 0.06 3.3924520333229404 5.088097362428913 13.501939855122286 0 0 0
220 19 19 -0.35 4.367218283166471 5.922052887790451 15.0296147864499 0 0 0
296 25 11 0.06 0.8994229664928266 7.961263451771719 13.381222877007621 1 0 0
297 25 11 0.06 -0.5183699564802655 8.304121202443033 12.530906593379271 1 0 0
217 19 9 0.52 4.517959590225665 7.177784934123701 14.38338572528539 0 0 0
219 19 19 -0.35 4.78457960476926 8.29423902929783 15.242626137103175 0 0 0
224 19 11 0.06 4.0953223677504695 10.081205820420834 15.903188060979753 0 0 0
221 19 1 0.22 3.722484029579963 9.19736632607989 15.415612893931764 0 0 0
218 19 20 -0.5 4.64447135430097 7.284981557052095 13.195191776335145 0 0 0
295 25 11 0.06 0.8540965922638042 8.146696983561988 11.522269451385238 1 0 0
293 25 1 0.22 0.5520825989017024 8.508849812462053 12.495824199418333 1 0 0
216 18 11 0.06 9.998237807566483 11.990892249534415 9.36066575967051 0 0 0
32 3 11 0.06 5.466629128700079 4.36053967716241 12.464219213048214 0 0 0
94 8 11 0.06 8.360887426185865 8.490368782047492 14.263311110194897 0 0 0
96 8 11 0.06 7.417603137207623 7.794565704913827 13.008093276398334 0 0 0
90 8 1 0.22 8.35318319742974 8.366892193086928 13.20802997469826 0 0 0
95 8 11 0.06 8.29948899488562 9.271250929094606 12.603905239445844 0 0 0
88 8 19 -0.35 9.518826242517523 7.6424631032244115 12.934240103162614 0 0 0
86 8 20 -0.5 8.579984367313534 6.114836731779542 11.462905690932937 0 0 0
85 8 9 0.52 9.522592313197919 6.8057546285406385 11.83502594806704 0 0 0
24 2 11 0.06 15.984090754847374 4.267766726062313 12.89382606420109 0 0 0
91 8 11 0.06 12.56989856458347 7.047796234904518 10.843453754932272 0 0 0
87 8 19 -0.35 10.573027131300563 7.054437743661631 10.920613230272046 0 0 0
92 8 11 0.06 11.941925950072797 7.247982237637768 12.509996113382373 0 0 0
89 8 1 0.22 11.814759990736627 6.687538587635693 11.548657057398954 0 0 0
93 8 11 0.06 11.822907788656519 5.633684790006642 11.744110519964783 0 0 0
110 10 20 -0.5 15.349960305605306 6.469482049615536 15.135893254925644 0 0 0
128 11 11 0.06 17.98839677581907 9.95597769454506 10.03075795491 0 0 0
244 21 19 -0.35 19.490309754017105 3.6899162638221226 13.107436372403301 0 0 0
22 2 11 0.06 15.189824338241868 4.977682336951374 11.71778412407481 0 0 0
243 21 19 -0.35 20.284422171739998 4.033059739215795 10.910633985161573 0 0 0
202 17 11 0.06 17.87775074264696 6.844054250966333 11.73175013725115 0 0 0
204 17 11 0.06 16.709074319323648 6.777039635730361 13.056065099607133 0 0 0
203 17 11 0.06 18.321586220059324 6.453345888822496 13.406903552728913 0 0 0
198 17 1 0.22 17.7031743956479 7.104617794294901 12.792630053069315 0 0 0
196 17 19 -0.35 17.997045395858727 8.479292051775708 13.02723522017767 0 0 0
291 25 19 -0.35 0.8673522673534693 9.869677673851292 12.780160794567372 1 0 0
193 17 9 0.52 17.022992251532465 9.1312824946182 13.75963679364837 0 0 0
767 74 26 -0.39 20.333575002492914 6.987696304238024 17.84073820070718 0 0 0
200 17 11 0.06 18.26382678709102 11.10591287989247 14.319889761138695 0 0 0
194 17 20 -0.5 15.862536350317528 9.352917631426816 13.380604734039702 0 0 0
523 44 11 0.06 3.9082277441660915 8.866392773754685 11.220947653951217 0 0 0
225 19 11 0.06 3.3198318718029025 9.570491506415538 14.41136307697205 0 0 0
223 19 11 0.06 2.8708857618399457 8.786780530230969 15.941952409535984 0 0 0
290 25 20 -0.5 0.7214814729415353 10.96444267619917 10.85282678654463 1 0 0
405 34 11 0.06 3.2557882614731137 14.214854589727425 13.633989420304724 0 0 0
403 34 11 0.06 1.8177414935660345 13.278291492274413 13.397799244677863 0 0 0
399 34 19 -0.35 2.7856688935796043 12.831946896699034 15.088979273414902 0 0 0
401 34 1 0.22 2.3498926914357012 13.831899540197838 14.183737696706231 0 0 0
404 34 11 0.06 1.7193537944283004 14.70572847809712 14.5814275839494 0 0 0
298 25 11 0.06 20.50370376269293 13.07787252666176 13.01258864298881 0 0 0
756 72 26 -0.39 19.307601923842064 13.11106284980843 16.7757878683177 0 0 0
524 44 11 0.06 3.078085936936933 10.30381451480912 11.843341938792294 0 0 0
521 44 1 0.22 3.4595602258848723 9.81276545888265 10.911539849995082 0 0 0
525 44 11 0.06 2.6722048681778983 9.656972687269914 10.168965787943568 0 0 0
408 34 11 0.06 5.997286812029079 14.213448350523036 14.978806967222498 0 0 0
398 34 20 -0.5 3.6503873287245243 14.362486098929587 16.613099930491124 0 0 0
397 34 9 0.52 3.8711472146727415 13.432583577166305 15.818839522216033 0 0 0
400 34 19 -0.35 5.0162961593703175 12.611360996130689 15.967545796715465 0 0 0
206 18 20 -0.5 8.553490027756395 12.029487477864384 11.617399864656125 0 0 0
402 34 1 0.22 5.894369355136035 13.122668565972965 14.997462779284033 0 0 0
208 18 19 -0.35 8.634538485294165 13.302671298220098 9.610337269762626 0 0 0
205 18 9 0.52 8.262677413257009 13.069720835559327 10.979734488110402 0 0 0
207 18 19 -0.35 7.30386395309819 13.978534974302624 11.534589151707713 0 0 0
407 34 11 0.06 5.545082074213664 12.700018143279499 14.020593094378667 0 0 0
210 18 1 0.22 9.950859441654378 13.078247840636834 9.27806056955856 0 0 0
209 18 1 0.22 7.960454815790067 15.153349885256857 12.093743331737079 0 0 0
212 18 11 0.06 7.6355392236357265 16.067877730043897 11.731907342833681 0 0 0
215 18 11 0.06 10.702342243315872 13.42234933323648 10.015626416082828 0 0 0
213 18 11 0.06 7.758249355817648 15.10393461222113 13.116959740529065 0 0 0
593 51 19 -0.35 14.56614556473461 11.674428013082302 10.213244041573953 0 0 0
594 51 19 -0.35 12.222273800804837 11.906564338918566 10.592842206972302 0 0 0
591 51 9 0.52 13.414491670193481 12.496915092537817 10.183625128126547 0 0 0
592 51 20 -0.5 13.395134769108479 13.471731177626415 9.449388187161903 0 0 0
480 40 11 0.06 15.215980793042673 12.914397487104436 14.258142051958353 0 0 0
59 5 11 0.06 10.43996476706554 16.255840879570037 17.07684467984283 0 0 0
470 40 20 -0.5 15.459657850510018 15.340453422282748 11.564809692487803 0 0 0
284 24 11 0.06 11.344894759384967 12.529263982355047 14.437273772451839 0 0 0
285 24 11 0.06 10.718736213179097 11.47251874440834 13.18854351526005 0 0 0
281 24 1 0.22 10.412395240804345 12.19349610838537 13.973148627940692 0 0 0
283 24 11 0.06 9.993990911260246 13.064131608582864 13.524145892056369 0 0 0
596 51 2 0.22 14.066292414108098 10.530041738895028 10.957754747318694 0 0 0
598 51 11 0.06 14.374120698008193 10.935150742411714 11.922871239338024 0 0 0
292 25 19 -0.35 20.195156653283554 11.1494990932501 12.305440680877844 0 0 0
289 25 9 0.52 0.21105507166127147 10.798661242521135 11.973299449663925 1 0 0
294 25 1 0.22 20.010555543837377 12.53683174758607 12.201355855653974 0 0 0
299 25 11 0.06 20.433304378331577 12.912890354199819 11.246591473357427 0 0 0
300 25 11 0.06 18.947499845847844 12.853816970929616 12.208335490852422 0 0 0
474 40 1 0.22 15.831677018341432 13.830255811410316 14.395844080495 0 0 0
478 40 11 0.06 16.86574480883658 13.59798970159959 14.015075708757267 0 0 0
195 17 19 -0.35 17.36654946686673 9.362161909569974 15.087906223671126 0 0 0
469 40 9 0.52 15.930329667586717 15.399592887526046 12.694929952420102 0 0 0
472 40 19 -0.35 15.22182734243984 14.867199220019037 13.785434040647516 0 0 0
753 72 26 -0.39 19.06565418342948 14.197809390405315 14.86356068206948 0 0 0
750 72 27 1.34 19.661701863488403 14.554004665914121 16.260955245901897 0 0 0
479 40 11 0.06 15.835371455725499 14.02849361316032 15.481186442996394 0 0 0
197 17 1 0.22 18.243122370213207 10.42249984505834 15.1382114077053 0 0 0
632 55 20 -0.5 1.259704885726967 17.495466077511765 10.695510077579744 0 0 0
440 37 11 0.06 19.156673492297543 17.257132996106755 9.329691073556724 0 0 0
751 72 26 -0.39 -0.38785694636994816 13.964690290898188 15.810649817165983 1 0 0
428 36 11 0.06 2.9703454215241076 19.45833103744404 13.928442874665532 0 0 0
425 36 1 0.22 2.593721291597826 18.533729306728105 13.443191424725407 0 0 0
427 36 11 0.06 1.53551869389167 18.325082114477723 13.7543544885506 0 0 0
423 36 19 -0.35 3.5532478399736576 17.500575236436134 13.733079167977174 0 0 0
429 36 11 0.06 2.6361165500725834 18.740929876989007 12.398015451225282 0 0 0
587 50 11 0.06 8.49740572556987 19.63877370839389 14.419730326508425 0 -1 0
421 36 9 0.52 4.933156612436194 17.696305230046598 13.398707582828633 0 0 0
583 50 19 -0.35 9.836173003852014 -0.4114993432619356 13.950669086004552 0 0 0
430 36 11 0.06 5.226364423097009 16.212625555641615 10.45733216388456 0 0 0
432 36 11 0.06 3.94521619892664 17.11855160183739 11.035457111699776 0 0 0
424 36 19 -0.35 5.541830098172774 16.833010784426335 12.50883620933629 0 0 0
426 36 1 0.22 4.680809873511256 16.402602804105378 11.391518136508283 0 0 0
431 36 11 0.06 4.218323785764101 15.38996341979829 11.574665772201252 0 0 0
422 36 20 -0.5 5.617199991287061 18.575601399142855 13.953281772024603 0 0 0
69 6 11 0.06 8.227000347232172 17.611098172755888 16.354839082702718 0 0 0
68 6 11 0.06 8.04448178907698 17.969813776826797 17.968614727749568 0 0 0
669 58 11 0.06 13.932241937140791 16.872072763010316 10.195026743805508 0 0 0
665 58 2 0.22 13.972029321420651 16.772548663537755 9.100324441006675 0 0 0
582 50 20 -0.5 11.470975282168336 -0.11736496847832256 12.342072602422675 0 0 0
211 18 11 0.06 9.050040566778154 15.167601197310654 11.978001658376416 0 0 0
664 58 19 -0.35 14.144266098377042 18.22130414043923 8.747844048504195 0 0 0
56 5 11 0.06 14.202719359505382 18.043133375532108 12.861670309560742 0 0 0
57 5 11 0.06 13.156942213550897 16.771853062620586 12.537703308909096 0 0 0
51 5 19 -0.35 13.277459842950007 17.520119635083113 14.597624822285116 0 0 0
53 5 1 0.22 13.224853346234896 17.743516204175776 13.128571519359742 0 0 0
55 5 11 0.06 12.414625335705955 18.400847412400168 12.753529599841439 0 0 0
49 5 9 0.52 12.019246168500128 17.035538103948575 15.117512378712602 0 0 0
52 5 19 -0.35 11.84564964130189 15.681128706906241 15.564147582964894 0 0 0
54 5 1 0.22 11.287322424697608 15.61257059198518 16.88615904184155 0 0 0
441 37 11 0.06 17.74490522393682 18.070710265117725 8.509045928988938 0 0 0
437 37 1 0.22 18.44055352929025 17.223537146625866 8.477128027457953 0 0 0
439 37 11 0.06 17.77895567915565 16.31456378929024 8.59560871400933 0 0 0
758 73 26 -0.39 18.097184466154694 20.017718452285806 13.014863697349789 0 -1 0
763 73 26 -0.39 20.159045839480207 19.61350764863532 12.57886616046332 0 -1 0
475 40 11 0.06 18.370992541783963 17.45286744650025 11.966299960306557 0 0 0
476 40 11 0.06 16.789332093060032 17.341599651145067 11.157949748992728 0 0 0
473 40 1 0.22 17.28627202844723 17.24771750033996 12.152329356510227 0 0 0
477 40 11 0.06 16.719668706311303 18.019948465279818 12.73620165816023 0 0 0
471 40 19 -0.35 17.20304027930355 15.954619640437242 12.850570990557364 0 0 0
760 73 26 -0.39 19.4521121845856 19.629820244674363 14.613912786520181 0 -1 0
372 31 11 0.06 0.8260959870796225 3.382687431859786 18.9542748322065 0 0 -1
165 14 11 0.06 7.31459209261365 1.4395952571630564 20.29642285398532 0 0 0
366 31 1 0.22 0.6123141980371352 3.507715781299842 19.99135748926239 0 0 -1
371 31 11 0.06 0.007578983674568884 4.415824167736196 20.080557691214494 0 0 -1
482 41 20 -0.5 3.0196656274950007 0.22677334758193723 18.714406706885804 0 0 0
489 41 11 0.06 3.746573496113517 3.1402960668170827 17.250332870809736 0 0 0
485 41 1 0.22 4.357843259023671 2.328800618845063 17.348849518959888 0 0 0
488 41 11 0.06 5.298567145769631 2.6412709030246533 16.889376480215006 0 0 0
481 41 9 0.52 2.7212174748755062 0.6802432138380576 17.594502974719283 0 0 0
483 41 19 -0.35 3.727376993362853 1.2066967174157854 16.772868179093905 0 0 0
738 70 26 -0.39 0.0060949437631449 0.1470236885596894 20.134459724422413 1 0 -1
487 41 11 0.06 4.594421721298688 2.2273017250503373 18.38714505352619 0 0 0
484 41 19 -0.35 1.5473634415379398 1.3618221521368197 17.543188109508996 0 0 0
168 14 11 0.06 9.876825831852367 1.975319633453517 18.772671526221835 0 0 0
164 14 11 0.06 6.932264514489724 -0.01935173357589648 -0.27104755263873903 0 0 1
161 14 1 0.22 6.945468920152182 0.45068600330068564 20.086250612623317 0 0 0
162 14 1 0.22 9.361547147663588 2.0489058075642896 17.749300127817932 0 0 0
34 3 11 0.06 7.708325636783158 3.6702665632597045 13.759084288884878 0 0 0
159 14 19 -0.35 7.84304858419137 -0.26138167849500293 19.279354440124997 0 0 0
157 14 9 0.52 7.983448719635431 0.21553395969249078 17.953736804383134 0 0 0
160 14 19 -0.35 8.04622639753416 1.569119571157719 17.656658236242443 0 0 0
158 14 20 -0.5 8.027713329301106 -0.537198529302648 16.99820622582825 0 0 0
166 14 11 0.06 10.009139969775063 1.4826233420889348 17.141544023500444 0 0 0
167 14 11 0.06 9.483853789755326 3.0891107295810665 17.479330520579317 0 0 0
36 3 11 0.06 8.222901701806206 2.4821360203655525 14.874037301840852 0 0 0
692 61 20 -0.5 12.824377068318746 2.326836402410273 18.5241071499645 0 0 0
340 29 19 -0.35 10.879976576045244 3.0145317665761926 15.063124143863007 0 0 0
342 29 1 0.22 12.064088315376312 2.2499148198813157 14.784352123183016 0 0 0
693 61 19 -0.35 14.735242361984879 3.6138926966030427 18.34115397433613 0 0 0
339 29 19 -0.35 11.13208904995724 5.0716075352283765 16.500772685482225 0 0 0
696 61 2 0.22 15.607149451136314 4.191531626041974 19.355582750696627 0 0 0
348 29 11 0.06 12.380743059677968 2.39659108138224 13.73580278478503 0 0 0
21 2 11 0.06 13.971906587968096 0.06987791327697845 14.76248098527143 0 0 0
343 29 11 0.06 12.88568612299786 6.151046480613695 16.12338794620137 0 0 0
341 29 1 0.22 12.475733360926156 5.405770274753595 16.802956245889618 0 0 0
418 35 11 0.06 19.13544874668704 1.8388859866993976 16.34615392962514 0 0 0
414 35 1 0.22 19.25126073768724 1.6178399666304415 17.422967017508043 0 0 0
419 35 11 0.06 20.187950339612485 2.0740869636597945 17.763196926165612 0 0 0
420 35 11 0.06 19.23550102255527 0.5267927287250249 17.436376867422844 0 0 0
697 61 11 0.06 16.5233303369806 4.809799747112113 19.47153045684604 0 0 0
20 2 11 0.06 15.314518805957132 1.3195834984357901 14.958387008064122 0 0 0
17 2 1 0.22 14.873416939183606 0.5073407737169102 14.311961234920838 0 0 0
412 35 19 -0.35 18.055501494331907 2.063799473217882 18.095804915272055 0 0 0
19 2 11 0.06 15.616622096749614 -0.2733346637463448 14.246711090611473 0 0 0
409 35 9 0.52 18.291357786766454 2.2420373636028543 19.47179335478392 0 0 0
413 35 1 0.22 17.74424555325114 -0.06468822451383505 19.900417445795505 0 0 0
411 35 19 -0.35 17.684346338706717 1.265642525298876 20.372242419347202 0 0 0
119 10 11 0.06 17.516219107258358 3.8878587472185204 14.716815698879408 0 0 0
120 10 11 0.06 17.736044436935323 3.9984933493957744 16.38539145485705 0 0 0
368 31 11 0.06 3.2784365032972387 7.777666988364555 -0.627408457488928 0 0 0
769 74 26 -0.39 20.233528470224073 5.344704389256573 16.438743583683994 0 0 0
768 74 26 -0.39 -0.5178299724321189 6.557970394210611 14.85397332998315 1 0 0
764 74 27 1.34 20.657706457117605 6.79362065229531 16.329422463139267 0 0 0
618 53 11 0.06 5.2492794546951576 9.992163164608515 20.320386377354076 0 0 0
617 53 11 0.06 4.191909841753124 9.812608034603148 18.996003898091566 0 0 0
765 74 26 -0.39 0.7971542325388343 6.41640958030763 16.68076056403227 1 0 0
370 31 11 0.06 -0.06925668623513903 2.6716946217444737 20.203631337989407 0 0 -1
652 57 20 -0.5 3.63324563327373 12.145145258231274 18.9500439579066 0 0 0
619 53 11 0.06 6.294530412302064 9.461456999071316 17.373748066126083 0 0 0
620 53 11 0.06 6.135007305639656 11.047491788663889 17.968191957470708 0 0 0
615 53 2 0.22 6.298740511197206 10.036588197155288 18.289016109908886 0 0 0
616 53 2 0.22 5.189995779766668 9.611119248589702 19.33283925163962 0 0 0
629 54 11 0.06 5.6935604479982596 4.294366380373962 -0.1065995000341794 0 0 0
287 24 11 0.06 11.29958457675597 8.472235632212241 16.538966707166054 0 0 0
614 53 19 -0.35 7.509776161307043 9.357687220019857 18.73625520317826 0 0 0
611 53 9 0.52 7.168810649312716 8.506322802234394 19.804363123486432 0 0 0
613 53 19 -0.35 5.806579625598298 8.673445485711337 20.214076832356675 0 0 0
612 53 20 -0.5 7.892396566504141 7.620535681904327 20.20076685646228 0 0 0
698 61 11 0.06 14.747636125127364 4.834014424258088 19.001370613446177 0 0 0
112 10 19 -0.35 15.719160040064212 4.355760684260607 15.73459089450319 0 0 0
286 24 11 0.06 9.950898696786748 7.591294198160094 15.703502831629438 0 0 0
282 24 1 0.22 10.21675242221673 8.409811552750691 16.412910538030886 0 0 0
280 24 19 -0.35 9.447340125476169 9.581985264256112 16.19686265683015 0 0 0
345 29 11 0.06 13.113828108448015 4.556149912043348 16.644923487786592 0 0 0
344 29 11 0.06 12.740797128297379 5.778441848113343 17.794485717600892 0 0 0
288 24 11 0.06 9.838473353971084 7.981290288850275 17.37198489510618 0 0 0
503 42 11 0.06 12.46031796302125 6.8045766433660235 20.496032307721933 0 0 -1
115 10 11 0.06 16.30975060517558 7.509702220219573 18.84235398001043 0 0 0
113 10 1 0.22 16.224098011472186 7.499238924156787 17.78128838240631 0 0 0
117 10 11 0.06 15.378196442057705 8.13590504064057 17.470797016931492 0 0 0
109 10 9 0.52 15.869065611372319 5.735549163791576 15.981004542160976 0 0 0
111 10 19 -0.35 16.107570547662228 6.127530515608285 17.330966277971015 0 0 0
606 52 2 0.22 18.006743870576102 8.229762100651726 -0.16514801222658038 0 0 0
607 52 11 0.06 17.350746563215722 8.538194525928981 20.369639239396506 0 0 -1
766 74 26 -0.39 19.171469719224397 7.119383601459282 16.07483546068636 0 0 0
770 74 26 -0.39 -0.3601989058417156 8.313238064195007 16.15005054638855 1 0 0
604 52 19 -0.35 17.645591355201255 6.205111860955197 0.9957234622042488 0 0 0
116 10 11 0.06 17.100641792789673 8.010944339447635 17.4533336875852 0 0 0
605 52 2 0.22 18.50886550796848 6.730357243855188 -0.03595620542922506 0 0 0
610 52 11 0.06 19.438452204686214 6.666171176137146 0.5388626052411942 0 0 0
114 10 1 0.22 16.986943675943962 3.7572605147628195 15.62910018454196 0 0 0
118 10 11 0.06 16.80084326220183 2.719444915360957 15.734806555171078 0 0 0
609 52 11 0.06 18.800891101613026 6.429723687833221 20.322331317173706 0 0 -1
199 17 11 0.06 19.254764316309632 10.03443503551033 15.141414845700877 0 0 0
651 57 9 0.52 2.557592524420825 11.928735184925593 18.38581564027971 0 0 0
654 57 19 -0.35 1.3561120785812988 11.925861329379828 19.0892154228125 0 0 0
655 57 2 0.22 0.41888276720841855 11.435958407870517 18.19285005336424 0 0 0
656 57 2 0.22 1.1610063630982188 11.269216671379622 16.87432213772488 0 0 0
659 57 11 0.06 -0.1859517199239939 12.311447411259513 18.22610592661468 0 0 0
660 57 11 0.06 -0.17872533921376532 10.537742218720618 18.396392203423417 0 0 0
653 57 19 -0.35 2.521615872774813 11.275807363355362 17.26845527033455 0 0 0
658 57 11 0.06 1.5107665689381147 10.221790580317949 16.767731530842788 0 0 0
754 72 26 -0.39 20.171525433315928 14.90680115292893 17.689400909935607 0 0 0
689 60 11 0.06 1.2505685426874396 16.173738780502788 16.464237724606498 0 0 0
172 15 19 -0.35 10.813445932766752 11.273906363190145 20.531490774859627 0 0 0
406 34 11 0.06 6.912341059152219 12.710710453698312 15.182255290126617 0 0 0
178 15 11 0.06 9.82540618569734 11.301933041222142 18.76979256975615 0 0 0
70 6 11 0.06 5.847306684125811 13.455876949854725 18.33349643094664 0 0 0
66 6 1 0.22 5.85651763164312 14.2556578747459 19.07831541553287 0 0 0
71 6 11 0.06 5.507058175941793 13.83498460738019 20.024632489136764 0 0 0
72 6 11 0.06 5.1906113480369145 15.09999848544527 18.724308646262777 0 0 0
179 15 11 0.06 11.611975136946967 10.7173691187965 18.686361295703776 0 0 0
174 15 1 0.22 10.685440625852998 10.780773422455924 19.238691482786983 0 0 0
180 15 11 0.06 10.332452009564452 9.75249564743739 19.156197957011656 0 0 0
678 59 11 0.06 12.867325022140662 10.288811184024368 0.5594519377532341 0 0 0
278 24 20 -0.5 11.090042428817574 11.051294278024892 16.379891751389792 0 0 0
277 24 9 0.52 10.136028147708679 10.656739758267129 15.710156510187366 0 0 0
279 24 19 -0.35 9.465142437745358 11.586049303056676 14.899877469300245 0 0 0
580 49 11 0.06 16.83067967718886 14.725852625221721 18.567742287884336 0 0 0
578 49 11 0.06 15.51114836558156 12.5989504740942 18.600136757106092 0 0 0
576 49 2 0.22 16.545938372779396 12.421369473251401 18.86065363713047 0 0 0
575 49 2 0.22 17.232283158054706 13.763823998021515 19.007474557033305 0 0 0
579 49 11 0.06 18.337600009581557 13.819469097400788 18.95019323361155 0 0 0
574 49 19 -0.35 17.587032282189966 13.864522490655043 20.357515595582754 0 0 0
577 49 11 0.06 16.865628284897753 11.93501379922469 17.964311788711214 0 0 0
572 49 20 -0.5 17.497465640777122 12.380210582803292 0.7311388843848636 0 0 1
752 72 26 -0.39 18.309303860164768 15.089940613034722 16.722610657816432 0 0 0
657 57 11 0.06 0.5040751901310081 11.548279619808257 16.078422197844162 0 0 0
201 17 11 0.06 18.077838297652647 11.129781899319307 15.960281880050486 0 0 0
573 49 19 -0.35 16.68081281277106 11.688901109365146 20.083762982718127 0 0 0
571 49 9 0.52 17.279307857086053 12.590377772952266 -0.4773984039191458 0 0 1
454 38 11 0.06 18.69791791781504 16.39199288563828 19.843461074044292 0 0 0
104 9 11 0.06 -0.3870754208963451 16.58125209967192 -0.04579884235729348 0 0 0
741 70 26 -0.39 0.6111113740403378 19.432098712425102 20.256144788195904 1 -1 -1
687 60 11 0.06 3.0897249737640076 17.891353000587543 16.2818660694849 0 0 0
682 60 20 -0.5 -0.08326489143429217 19.630125982763936 17.026404927401963 0 0 0
643 56 19 -0.35 4.083912853876647 17.055761675239218 20.399278708905776 0 0 -1
688 60 11 0.06 3.5431293268699884 16.92961455144585 17.52584255134788 0 0 0
686 60 2 0.22 2.7257345153513137 17.58525851101308 17.275767737036958 0 0 0
685 60 2 0.22 1.488929310233078 16.682830216242387 17.380628966907253 0 0 0
690 60 11 0.06 1.6451520658780425 15.832589678997602 18.022215179829054 0 0 0
684 60 19 -0.35 0.45578420466474334 17.546096035005206 17.81204896583148 0 0 0
681 60 9 0.52 0.758908762010843 18.869639673485736 17.45968941384514 0 0 0
683 60 19 -0.35 2.1281897962651244 18.908358383694157 17.128510259813098 0 0 0
732 66 31 1 2.5846796526925773 20.323413987292525 19.818873717265966 0 0 0
642 56 20 -0.5 3.8572820629213647 19.271885182113046 20.285937815588504 0 0 -1
641 56 9 0.52 4.2603748079861345 18.2680014975086 -0.4155870889126737 0 0 0
492 41 11 0.06 0.6418965121086249 2.240558156550669 15.897461084003107 0 0 0
62 6 20 -0.5 8.239183167978599 14.76365965171374 17.21535702788492 0 0 0
64 6 19 -0.35 7.123941270368551 14.826552572354615 19.206757052831364 0 0 0
65 6 1 0.22 7.45556835898075 17.703868867653327 17.09962991676371 0 0 0
67 6 11 0.06 6.779709627709666 18.510614015877543 16.815698563807672 0 0 0
61 6 9 0.52 7.4479605443299235 15.350801789829903 17.93321997442016 0 0 0
63 6 19 -0.35 6.734294793567163 16.52033850389376 17.419042233293858 0 0 0
11 1 11 0.06 11.555967294609186 19.431251833452528 17.069043716359964 0 0 0
177 15 11 0.06 10.618746494275847 14.996901585009363 19.30697511772084 0 0 0
346 29 11 0.06 12.89413406030009 2.4106574877720335 15.447520816576189 0 0 0
58 5 11 0.06 11.953468185485583 15.981692043884118 17.664276539429437 0 0 0
10 1 11 0.06 11.899032469952983 -0.3849734378330552 17.716086090130958 0 1 0
3 1 19 -0.35 13.778322373294262 17.829318088130684 19.526975344174865 0 0 0
50 5 20 -0.5 11.077683348092915 17.826425788827997 15.332478168427448 0 0 0
60 5 11 0.06 11.045636164512933 14.575359017991389 17.158887745643042 0 0 0
12 1 11 0.06 10.657613030293287 20.076268393449368 18.412850671977488 0 0 0
6 1 1 0.22 11.635030824554667 19.991775659537822 18.00432106773284 0 0 0
2 1 20 -0.5 11.51328882532825 17.78417484364474 19.97292665065914 0 0 0
1 1 9 0.52 12.507033672845424 18.324884456319317 19.390162646801073 0 0 0
4 1 19 -0.35 12.577395893561524 19.609551682914535 18.926747862932736 0 0 0
755 72 26 -0.39 19.980303425098775 16.021255160776626 15.794782750270377 0 0 0
451 38 11 0.06 16.232683553608616 16.64677124711619 15.835900048934223 0 0 0
417 35 11 0.06 17.132250431002227 -0.3418869314200208 19.11869757415687 0 0 0
456 38 11 0.06 18.76217941496808 18.007215147752206 20.49811778547685 0 0 0
450 38 1 0.22 18.67459495315798 17.416756500312765 19.548224211371604 0 0 0
735 69 31 1 19.813448952405537 19.175581966306154 16.171029607801678 0 0 0
415 35 11 0.06 18.733648484580648 -0.21683998164307244 19.548215829700368 0 0 0
446 38 20 -0.5 18.595113591719098 18.916440986126027 17.196577053291477 0 0 0
452 38 11 0.06 15.930265501605819 16.656905979440538 17.66163050678783 0 0 0
453 38 11 0.06 14.709475304025435 17.34140393284666 16.54155036325639 0 0 0
449 38 1 0.22 15.814891025215234 17.214633164935016 16.713478589657853 0 0 0
447 38 19 -0.35 16.481014322946002 18.453870383645196 16.742481144841882 0 0 0
445 38 9 0.52 17.63462587624099 18.339325525378484 17.589787043778607 0 0 0
448 38 19 -0.35 17.495158786301516 17.808193070628008 18.910290574447338 0 0 0

Velocities

359 -0.0029645869153409653 0.007377705614629234 0.001918952136603063
392 0.0011526134760816242 0.012208315165408812 0.004175875127778207
389 -0.002294273984396526 0.0017041318438825181 0.007456037292467936
393 -0.0026067499504187908 0.01324795484565324 -0.0032578311720172564
391 -0.014104459398910573 -0.004671015747179349 0.028656302619546308
740 -0.004066180045374536 -0.0004810583982534908 0.0005718411169838571
351 0.005215806130664362 0.008115019263369742 0.0016727950685310245
742 0.00314558145024285 -0.0002790868928936849 0.004080189982564345
364 0.005225073545867079 -0.0019748138824564596 -0.001922423214831148
718 0.0027234185311516327 0.007376828337894025 0.02034694317324602
362 -0.008818598498403976 -0.0035330974794415596 0.0013724308506632757
387 0.0010153735807777221 0.0055676326573813285 0.005120059495043312
385 0.011305442492261876 -5.978497119529624e-05 0.004715314663027448
388 0.0017181123024075603 -0.0013335379491162982 0.006037625127417802
390 -0.005830019198750388 0.0036416764318025546 -0.003683826078274161
395 -0.01279950343699277 0.02127796410543755 -0.0005186185156704825
394 -0.02665873140712224 0.030590894415697137 -0.007048625966591491
386 0.0026574214117359132 -0.0032627668933313462 0.001191590609283919
622 0.005410769100197044 0.007085471430290381 -0.0009773580273136388
621 -0.00042270814802037546 -0.0006684694665046387 0.0019308743923440344
163 -0.01479550095120471 0.011628343287812573 0.013798658697359916
267 0.005183758996699747 0.005833019563529125 -0.0018587777198061151
501 -0.0162146119425338 0.021848970720489025 -0.008414183027064795
624 0.0035485618182707597 -0.008580663972052165 0.008728283638290854
627 -0.001059570435607334 -0.003295983696086713 0.011393562603553557
625 0.0020399564881209377 -0.0018148049458713777 0.002914942751042008
626 0.008747879074501141 -0.002653946842021474 -0.004532359595084554
623 0.0021074998401260847 -0.003987157708162441 -0.008864403401288592
274 0.006510242062470055 -0.0024098309421595084 0.01942025054082707
269 -0.0008852086447931998 -0.004558962657556799 0.005551322973615881
272 0.005159905321629529 0.019014359033918318 0.015330186223241265
271 0.004409814288278836 0.0010756941031156196 0.0061962975517100794
273 0.006095581588680135 0.009190271658539457 -0.02433092956082358
700 -0.009897110797069477 0.0032851118995434617 -0.008326557032224183
317 0.006748118601603762 0.005259377023891716 0.00034733960394732016
321 0.01610435865090489 0.01543325720755576 0.008282801588388776
320 0.004830377161602607 0.0034447423401969776 0.020733572083298474
47 0.018499547886132478 -0.003013729415706045 -0.01387236378792699
499 0.009151058226532813 -0.015558534767418761 -0.02450055824885606
691 0.0008790297575965872 -0.003661356180617145 -0.000591448801989529
694 0.005331262784910464 -0.005978832919815052 0.003840393450992097
695 0.009512380436534332 0.0021190931424502437 0.004872052141553283
315 0.0040668064215152325 -0.0026662411300168386 -0.0049264868267106755
48 -0.014028028434981937 0.016468338710938852 -0.00861370045210583
313 -0.0038163800346126446 -0.010662678828109536 -0.009776032882119323
141 -0.024145412827473102 -0.001550777691958401 0.0021735298153883332
314 -0.008139713168895949 -0.004917512137003357 -8.415159095979973e-06
139 0.007481072470433432 0.004445566350495555 -0.01588750591851067
137 0.00022124737038043454 0.005316091914280399 0.0010783154363510827
140 0.013128190619856511 0.013566773928718278 0.0037445410446319775
319 -0.018858799663932398 -0.01271810061618013 0.022430926148162052
699 -0.022850171237332385 -0.0011751943938183014 0.020173899606920676
410 0.00742457835414644 0.0035511364644647187 -0.004413199439002693
416 0.00024528174902464816 0.015106041985434583 -0.005619765533332626
361 0.0026291827442125795 -2.9904213263076974e-05 -0.00861271728291388
363 0.0010503738143409704 0.0025477834997249967 -0.008861105038253688
365 -0.002211721327596866 0.0038083671145809784 -0.006736387897655068
367 0.014676142940876267 0.023467192853436375 0.0034899618704412327
369 0.009213697037757882 -0.0150606450797634 0.007435524918405137
144 -0.004588695580054889 -0.015779825267850444 -0.011883605483823733
143 0.02568982155777806 0.0318818672145026 -0.011246403745998503
355 -0.01875889724355934 0.00842978082565222 0.006469799566353224
539 0.02597775061077228 -0.0015801936578708823 -0.017890731324641636
628 -0.001613896312144212 -0.008671482874219856 -0.023793518169532245
303 0.0005772054654358038 0.0007296426696752357 0.001047479419075117
234 -0.002003143709761468 0.002501122182779062 -0.0026511826475491104
239 0.006337907040296586 0.002055800807252104 -0.0024981552266174745
495 0.0027785313587873153 -0.006841665905990736 0.001108613878607177
305 0.0018512642981960972 0.001007957187180583 -0.0037121486657204178
630 0.011147824030309268 -0.013080693361993535 0.009138398937328457
308 0.011086068110891393 0.0041865235758586925 0.03191415137098151
496 0.00693908543900362 -0.004191686738007188 -0.005188306335675075
493 0.005251096795272918 0.004316063473309907 -0.005529145461818905
494 0.007366960764075596 0.001263033159359441 -0.0011274766568072777
497 -1.2786377269143247e-05 -0.00502398596728074 0.0032426019465971725
733 0.0011111894919380602 -0.0068716839090062305 -0.00030518170450845203
671 0.011889280456695933 -0.010024155959753334 -0.00585464359727166
672 0.005936514917009742 0.006389859239505469 -0.004818007197379854
674 0.0027191149057309632 0.0020720901097366737 0.004752737088348312
602 -0.007364757372762775 -0.0032441403091721718 -0.0012438481177727855
673 0.004106734327773237 0.002922943338753737 -0.0032172596710120906
38 0.005247036091889956 -0.010551112241653164 0.0024706565107653114
240 -0.03506516631077823 0.05353152032126863 0.02330216252827627
498 0.004339236837224919 -0.0010691675269046844 0.008873914059004144
504 0.008696167559000094 -0.039160566120565496 0.01723705160889576
502 -0.01955464276553258 -0.013875932729963663 0.000974167585575744
142 -0.013379545660529195 -0.023274906988481326 0.00531593293481704
138 0.005264059805766297 0.009876500195389671 0.004178564784528394
135 -0.0024447835273003916 -0.0015131215757812641 0.004097396433613672
603 0.00256385509938353 -0.003350449669829245 0.0031589670044928062
608 0.015856270907758544 -0.03483307207170806 -0.018312750608600405
601 -0.001351874293053986 0.007034008658634228 0.0025809527231722444
133 0.0006934648137912612 -0.006094602083230466 -0.002090112109353466
134 -0.0009413800591162489 0.0022598198388151104 -0.0003046116952980596
136 -0.0024410178024911982 -0.0001032946227864731 0.0005074970804434479
466 -0.017283859302307684 -0.010711508980517944 0.01774692551135904
460 0.002141259580076151 0.0032845071127666652 -0.0011963973963553948
462 -0.00548980825280048 -0.0034011682759927516 -0.0035370255789819133
457 0.0007892693837698605 -0.004501398305998259 0.01410475503706864
459 0.006525609763072402 0.001631934841520105 0.0017095715820064125
461 0.000592284002675711 -0.0013095201488229544 0.008090782488112503
458 -0.0010434934490559699 0.0027501044676564793 -0.002919919642313352
467 0.0023683269606823527 0.01192166923612575 0.0016494756867497357
465 0.014116409626996344 0.01923283899412727 0.0017113088013703114
463 -0.010779113121086547 0.004261751111556973 -0.013337515301114863
464 0.010514098177198896 -0.02369769099946776 0.0035747845697384705
103 -0.019238276500550162 -0.02109937090068129 0.02090916773106923
309 0.009835422213716305 -0.004209923533031881 0.015794961144450288
307 0.0021057055397363995 -0.007064334052595733 -0.006388555816190622
301 -0.0019923529017524394 -0.007585752362338086 0.009665550470901297
302 0.005536947004348371 0.0033695104610278847 0.003858757721514316
187 0.01651758929517469 -0.016070013978813476 -0.0009161676565761919
304 -0.0042205478559205045 -0.0006896710210140913 0.0012884241071759834
183 -0.004506055842383692 -0.004817065479221902 -0.0036664479613063993
185 0.0029410233166587848 -0.002497739416936173 0.009194186965072005
306 0.00045001407960035294 -0.0018889654601391469 0.0023716468333479335
311 -0.0039196067428760835 0.0016136553510377064 0.0015949579987868403
310 0.0030240365333156043 -0.006667509982019499 -0.01823265032168144
312 -0.007291714506523618 0.0017896525059715594 -0.0018680346923951282
169 0.00021790069302155647 -0.002189955335908718 8.630208043081426e-05
648 -0.009298958023487262 -0.027857741756010163 0.02633336208173875
171 0.00042302584921566025 -0.002211259314218096 -0.008368970699906277
675 0.00563412538026336 -0.007642815070493099 0.009352407483698894
680 -0.0033791015876263276 -0.005691213886212221 0.00016101692563914998
188 -0.016628201351288226 0.0014134012016563662 0.011332239037836565
330 0.002052012693750474 0.0003341939019551244 -0.007056909125846819
334 -0.012537574040013754 -0.003252032072663842 0.003841867412678652
328 0.004068125545770601 0.0003463647669983153 -0.0014408863559446637
189 0.010826528723479454 -0.00593875420485161 0.0006390273627746093
335 0.008216479911909692 0.033027715643159844 0.007679839613842157
679 -0.002267642977308096 -0.002642347019883425 -0.010832658376861082
676 -0.008362115117307146 -0.0012220048084669087 -0.005429651819799587
677 -0.004690212925191527 0.010294364425308006 0.009321819279892252
170 0.010309495705369393 2.8015936329337793e-05 0.002280780798886381
325 -0.00444917949351213 -0.0036642135701844296 -0.0034892921537628095
336 0.040533856951479985 0.009494108083220796 0.02278026072321788
468 0.00020082216617441792 -0.006466054516266886 0.009276231053078385
380 0.014883666030880106 -0.008254262089574698 0.0011436124348505757
377 -0.005654308858836155 0.0013483305800167209 0.005946455834314992
381 0.019260327207887507 0.02175792569063026 -0.025710082541657648
720 0.006518748282765269 0.0007905587922868426 -0.021156952216644136
100 0.0031955875781547512 -0.00013617413414366056 0.0020107933228154223
647 -0.0415770492789504 0.01648597364670982 -0.025843938634232632
737 0.0014624507115518276 -0.0001714834556626592 0.0008640512596886363
97 -0.00036066201561526866 -0.005763692079802715 0.0044695403600513274
98 0.0022279062989680686 -0.0014845775277504808 0.010648741812314512
716 0.006836017636634851 -0.009426957127827236 0.005599234902080184
717 0.006450507561674472 0.015485787646870542 0.004240219119421024
736 0.0024920897165946463 -0.0034854942895288163 0.002889202549672643
711 -0.007673173303851749 0.0007049921333342648 -0.0010703483244686328
719 -0.027030631242336584 0.038172571184078206 -0.04077303237666476
715 -0.005172986227052895 0.0013780725743437591 -0.0020976169036922687
99 -0.0003738045983017542 -0.0016769130561799387 0.003093465736030141
105 0.01159784561059647 -0.00028871857294152195 0.021044015752372434
101 -0.007723159353668514 -0.003977456996268825 -0.0077949883973326695
268 0.005053924255671061 0.0009492132488011518 -0.003715294432541862
182 -0.004871153745954044 0.0013775057318410162 0.005559298955842091
646 -0.001600107453839068 -0.009675937023709572 -0.005874479159976437
714 0.0034973240834993997 0.00024777841282004885 -0.0004526464980202834
276 -0.0034189351619659 -0.016287073407038267 -0.016703529165155495
181 0.0033278055406157666 0.005876009241299907 -0.005857960265595831
645 -0.002476636999968226 0.003177675263981873 -0.006838096737811898
649 0.007408529834467258 0.004902279540072812 -0.008276259192922868
650 0.01708515644073015 -0.01304100418751625 0.0426689938964608
191 -0.008971329494045254 0.024513487277448703 0.008284510552009846
186 -0.008254214381448506 -0.006812443994328167 -0.001531806738921469
184 0.005820920922217303 0.0009105277523253031 -0.005972953138809894
190 0.025839265867491263 -0.026865449528819505 -0.0012534986155560617
173 -0.0005291346294301513 -0.0035121413956398844 0.001501073380787927
175 -0.016034187558937013 -0.022226821784838594 -0.011055460070864657
270 0.005966951881431248 -0.004977903218275946 0.0038331248026164284
275 -0.0067492684936302 0.025131641392146332 -0.007543047855047592
644 0.011885516829002069 -0.006521028668175217 -0.0018138634450987684
265 -9.998339456588238e-05 -0.00434272548306473 -0.006626007597951252
266 0.002940480191766276 -0.0019338602480416557 0.00797129022608147
176 -0.025982067467423053 0.005823689716274484 0.013427009309266894
326 -0.000602000455122562 0.001344387272721923 -0.0004093828900362271
331 -0.01029494513794113 -0.010399100389670495 0.00660801401891727
327 -0.0017539453886299336 -0.0026358033732759413 0.0033742570989246426
332 -0.011263397638595846 0.005486755886515028 0.010756272188792384
329 0.006528031982167346 -0.007173211506928359 0.0008125711659892176
5 0.00824397044915933 -0.003797782429963313 -0.0024329277378953122
7 0.0059133824204436825 -0.009233687383458426 -0.0009764212146004466
9 -0.017788911849324126 0.02559732890178963 0.019813029118202215
8 -0.0018784756723379725 0.021211607494590095 -0.04603736412255403
375 -0.002993671717399123 -0.0026578796627513878 -0.004267147686731565
374 0.0006560671770089018 -0.0034427293137526834 -0.0005654951774180713
373 0.0019121193886670795 -0.009183792207987724 -0.0036806092695042293
376 0.0008056031894236661 -0.00519890516028802 -0.0007493573398185026
378 -0.00976183343102581 -0.0029951384285787294 -0.005929698319784957
382 -0.04638838411600404 0.004477073866402763 0.015138355114748805
383 0.009346086374369664 -0.0029927088292875425 0.010824088205330958
384 0.02030148610932811 0.0545953665195881 -0.037701955762981645
455 -0.0225351092905288 -0.010141833861114372 0.021206915785143624
739 0.003892339592417843 0.004650503450827427 -0.007248699014354258
354 -0.005326790885431917 0.011329365789129681 -0.003774646554387046
352 -0.0007810930508025782 0.0015723101314306825 -0.002583060077367274
349 0.0017342119521770818 -0.0061072057137537775 -0.0009915679264052586
360 -0.0003788410555211124 0.013189815941145298 0.024827990864219645
350 -0.007507433059030119 -0.005883169624923227 0.001353648526665095
353 -0.004809355156471966 0.008479677658561008 0.006609535692557678
76 0.0005986514391654714 -0.011593225571943519 -0.0038643891147689805
78 -8.548306217614334e-05 -0.002436391502143701 0.01500814841717678
248 -0.018569375096032494 0.022080552910762795 0.006046918937001232
82 0.0004548625946677747 0.011696858914242466 0.0008613080304207498
562 0.003989372998865377 -0.007199298951325707 0.0034827045138620784
83 -0.011663387146338413 0.0019499038381118443 0.001451795202461774
84 0.0009855538519578213 0.006707858017123141 -0.0035121484688134985
396 0.0011117380606282786 0.0019715199288058284 -0.004259400330005028
559 0.011260002018142121 0.005419439424293346 0.008683429385544393
511 0.012561629897635596 -0.0020525656109493385 0.007725174778366159
706 0.005480304473683253 -0.008737317031240754 0.00386411401986241
701 -0.000287091615061983 0.001620876460007088 0.000556451367190798
558 0.0262415498372219 0.01183289027695597 0.0073956951862666565
560 0.020120619504947524 0.006391771928398975 -0.02133500283297071
555 -0.0016095820441171468 0.0007219333903748768 0.002150932169310794
702 0.00785879566967043 0.007131658929351784 -0.0019969789469332713
705 0.007074361036231235 0.008007708729035386 -0.0023441691585225567
704 -0.001127795609136587 0.003819260376599708 -0.0012108800107714726
509 -0.004960271424290728 0.0020190070090908207 -0.0021304489115537622
513 -0.0013116448807821558 -0.01961762684838091 0.00414958630771171
707 -0.0029922804048108115 -0.002020101512055183 -0.009835387394050595
709 -0.00348573208854675 -0.014996890424008704 0.006974286163617912
507 -0.000997100551641897 0.0023455485159811894 0.0011549030794980246
506 0.004441738119175345 0.0008081378954238858 -0.002157705454093328
505 -0.0008545627148861468 -0.002701718221268409 -0.0029489709388643547
508 0.002017753430799866 0.002791727981097676 0.0019850333136452077
516 0.005237050187021688 0.005405819329695814 -0.004935570116941524
42 -0.003185420451379593 -0.00039034469634574874 0.0070174803435833835
149 -0.006661101312786614 0.004528797417248997 -0.001434453431644049
153 -0.003259653806149533 0.011873729263536909 -0.004308990210858815
46 -0.005660640221105479 0.006435938695572079 0.02796376596267658
151 0.0036230415828093147 0.04130754698829401 -0.030313638294191987
152 0.01319548254958112 -0.01855350671952011 -0.0003781234767789732
358 -0.010799763981366794 0.017498031215908892 0.021144863865183987
316 -0.002186394795589907 -0.007152992618916851 -0.001168083245796149
147 -0.00044801464185257586 -0.01057779507301618 0.0031884297810079753
318 -0.010302208381060992 -0.0008791241132124591 0.0002658331429878541
561 0.004134285400969724 0.004185283259057404 -0.003619621135947187
323 -0.030629393828461197 0.02294514087249349 -0.012149008007435335
148 -0.0057619597433080615 -0.0033847231974759515 -0.001303678304870381
564 -0.00404304139974418 0.006781103914882419 -0.0004004223160440439
570 -0.01758335287920273 -0.023078058091911876 -0.006695658644858652
565 0.0031350006428948756 -0.005024169120056462 0.0016346362916233397
569 0.010477915583132234 -0.016165700107606852 0.023815531474861276
150 0.005585003634253858 0.003593609311528437 -0.011512024660844599
155 -0.001988055468059687 0.019730624636388482 0.019693309845697157
145 0.005188493929511107 -0.0038040491369730344 -0.01306550071578855
156 -0.008268416861563752 0.004755267072496417 -0.015780012430580997
154 -0.0028050766889070895 -0.006613823596928072 -0.002978589767453497
357 -0.012012233099275023 -0.011900236977682997 -0.006646078620296521
356 -0.006385602640482625 -0.020447752931094017 0.034462258809434196
259 0.01945623822694239 0.0006545698472385074 -0.002556909570939425
530 -0.006172275730788742 -0.00273753193625226 -0.0036766654870991483
256 0.0023454806778951906 0.006379390104699742 -0.002867447451049361
258 -0.004076210042134267 0.012762311066165509 -0.0014020787179048321
262 0.01651842482151838 0.017279440037438174 -0.03841535847649444
255 -0.004900901830229751 0.004439706862499809 0.00016874718375687266
253 0.006512146868263452 2.423779197462841e-05 -0.001164089711968396
257 -0.0005592296927102675 0.001814860707151165 0.0022088436513910815
264 -0.019289822983481107 0.025793430307199168 -0.008283081408911094
261 -0.006587954793367506 0.017573077866915615 -0.023639148581307123
540 0.00328291610920617 0.00018709809268473702 -0.009176350070650346
254 -0.005682088817560691 -0.0029639255575472892 -0.0031239355708747346
249 -0.0018840865964068446 0.011405355331812745 0.006021459750501843
534 -0.005755071282919996 0.005715584950165095 -0.004479803908464152
536 0.0011048505460110637 0.001484639416930212 0.016041664853926055
537 -0.019060469935191452 -0.0020689855982649256 -0.013643858538598801
535 -0.004184154519757472 -0.007325902270570436 0.015213297340193915
533 -0.005690148959415792 -0.005473482373696457 -0.0004949086811867254
260 0.0003768564128816221 -0.020239317968685847 -0.0018595642423128798
529 0.0032937166278612443 0.0018610462958356183 -0.0007798822776853676
532 -0.003494902492751445 -0.0037320946558474194 0.00012979435612688828
703 0.0018226797667431714 -0.0030212879339458557 -0.0010274067562417132
531 -0.0023800823197123954 -0.006001817421311236 0.005742005384077849
229 -0.0008049798061315862 -0.004194138222815208 5.702037514580054e-05
237 -0.040792892379910975 -0.009312152938429756 -0.030434407598793713
233 0.0030245788675938067 -8.994325532937867e-05 -0.00041813973214408856
236 -0.02836627144055471 -0.017027853651206685 -0.013858340708155953
231 0.002532907353114584 0.01392500806007475 -0.0044245089126814015
232 -0.006412574410776657 0.0051478152395850905 0.0013076213754518989
238 -0.008678714534752142 0.04064464328267925 -0.0012461880486074595
230 -0.0022837556031788733 -0.004553282360455625 0.0023587211902315443
235 0.017606550855899985 0.008074422182677591 0.027800140899373913
500 -0.020278890014195434 -0.010125100570589629 0.031238847245636286
40 0.0009498331947885936 -0.0060908065675733605 0.005861398133970784
708 -0.003458161105969912 -0.003802534696615956 -0.011884736958205045
37 -0.010838748747016798 0.0018490828732266467 0.0019443257044980589
39 0.0018133650153454672 -0.006467575452976661 0.002234179166998986
44 -0.016911444029929744 -0.002879095613115474 -0.01978621352605411
43 -0.011062818802737058 0.003091776375399185 0.0019135435322681661
41 -0.008914340084744584 -0.007645843259735547 0.0028480643106740325
45 -0.007884987591335702 -0.023107873371154792 0.0023421696153617484
122 -0.005052024051428954 0.0036860090992519414 0.008076375096717194
600 0.012216782791815588 -0.00813070386741508 -0.0069910810959310605
132 0.0288523122354307 0.004271113186303968 0.05044350465626363
126 0.000528491951431686 -0.009785557119834854 0.006913682855026769
130 0.00431610336498461 -0.012705492011023797 0.010143884139918465
563 -0.00036004581611227387 -0.0012852362054067183 0.0002298473024900234
263 -0.013430743929956999 -0.002565771473118391 -0.01884097346829577
131 -0.01895943153888281 -3.845833609263756e-05 0.017907673465891602
566 0.008856555428190827 -0.004095545397021641 0.013805076491417958
567 0.019003674065444343 0.014458712158277265 -0.008011629128265273
124 0.0020805083370307046 -0.003943191159760651 -0.0025204711160596877
568 -0.00750285847351763 0.00359149163477636 0.01861719424812498
121 -0.0014273550566735885 -0.00849074205737817 0.0024250571128602077
123 0.0008261995670788643 -0.0032444880425374005 0.008008253396757948
127 0.004657928314975317 -0.028228709213294727 -0.0055250848836933715
125 0.0010566317166503538 0.0052865047047945595 0.0006342179300852229
129 0.010370356663632802 -0.025742424404675564 0.020772755702066156
745 0.000953805530128201 -0.0019030994084603026 -0.006871201798694607
107 -0.016521225496397902 -0.0026993761695340273 -0.015048505767270234
538 -0.010241801017902856 -0.016883230734840177 -0.015136407752950644
746 0.003891334370087933 0.002290294233269592 0.001974683772172208
517 0.0016944139761489042 -0.006719272247670831 -0.005271403520497701
519 0.002093466017822394 -0.0005720523277063551 0.0005325570069365514
640 0.021254872336280563 -0.014324737118953481 0.01804561018085032
528 -0.0194471501840276 0.012244430577280743 0.0005154015690721827
638 0.005639585798239016 -0.011420171913020647 0.0286140932401783
527 -0.01935194505913992 0.004327890118538617 -0.0022530436355843817
522 -0.002688296980537273 0.00960966095338573 -0.008145257066943303
526 -0.009890492127124756 -0.0033967894755049335 0.009807825042873392
520 0.0008261255809189211 -0.0027340654657033044 0.0036177342497327484
518 0.008724562391111454 0.0022254622456133965 -0.01201925484250577
724 0.0070845289572108 -0.006319955081507439 -0.0032670839757746348
731 -0.005517038004109782 0.0031601554087068054 0.0018839058701780474
722 -0.003075665507259831 0.002414446910131716 0.006745786918870209
721 -0.0038215809262319455 -0.0038349274476630435 0.00421041395469588
723 -0.00403401131763039 -0.003998793129469177 0.00305037447029377
726 -0.005097369175067176 0.007235605918799882 -0.004336022784871246
725 0.0020613512672608475 -0.008000500094707607 0.0030639689508379017
729 -0.053436968700899944 0.011301784868458216 0.003007605505925922
546 0.00030542377739165656 0.004754555537510294 -0.0023567064095332247
730 0.02258190750122499 0.016196535237440985 0.011646342818589464
543 -0.0015660859460370443 -0.005274106926551812 -0.007263626632116951
541 -0.0012008280302883737 -0.004832712138602959 0.0023524426173374313
542 0.0025475207935990525 -0.0008151708183887466 -0.004953111307642154
548 0.013420204715048855 0.007945633119099758 -0.002640351967232623
544 -0.0050307949581523586 0.003386430504512914 0.0041334174826548505
547 -0.02110924318642652 -0.025142632979213875 -0.002368124803610524
549 0.00011371436561276077 0.003536699133780644 0.013586950751055867
545 -0.00838982469649964 0.009213346747213188 -0.0013248442259378374
550 -0.0003829612366114765 -0.017952573532778748 -0.0004913495317749691
599 0.01585086603684218 -0.0027398048676259687 -0.009196606506822094
595 0.002891061035239126 0.009553155178980756 -0.0041642256553760665
214 0.017537701601353643 -0.015023842546242137 -0.006042599099336237
379 -0.012611713043073071 -0.007630422881410548 0.00700142376510038
749 -0.002014513614598781 0.00892166686118534 0.004616354303801606
748 -2.7484846956122128e-05 0.0028149896030195973 -0.0012045725690793107
743 -0.0015292650573723845 -0.0007325171078214877 0.0016365670264732353
747 0.004678724209735966 0.005530420157692641 0.00048316903983681737
744 0.003573698522382747 -0.0025074681086622724 0.00512861887952524
597 0.010551556853161762 0.01749148321105052 -0.005992894112732812
713 0.004781216181934466 -0.0024863962973357937 0.004038228893886663
102 0.002226960706658581 -0.0010700183297765089 -0.0022999260638869924
108 0.0031114153946134354 -0.001309337058423407 -0.01447219073753259
557 0.003153195160131974 -0.029229603247557637 -0.008552286716698774
634 0.0006303923442888238 0.000515000105720655 -0.006167482439321446
639 -0.02601551250352631 -0.008892234729805952 -0.03977247650674799
635 -0.0004076085490199385 -0.005743004942453579 0.009095361858766443
636 -0.009359643215081384 0.004783802036715357 -0.0013659255463859315
631 0.006924720501851532 -0.002837390269900502 -0.001453423093138969
633 -0.0023814746083198677 -0.0002464718124228922 -0.005495407330992958
712 0.0009817961828069946 -0.0004671339201592064 0.0018745900610975983
556 -0.002735448227713821 -0.002530132685100057 0.0011650950591628527
727 -0.00971096329197669 -0.003380709145217753 -0.024389721209611165
728 -0.0019483184693729694 0.011558948225447865 0.01783447378481104
192 -0.0007974015117687492 -0.021264062491121453 -0.005054784419084255
554 -0.0017022544525322023 0.001242512337704993 0.0053088457389795654
553 -0.0022746669614540113 0.0009142269304878352 0.006068178324123625
637 0.016008355281948414 0.021365806214417842 0.0005434691260727151
551 0.002492049029855233 -0.0007067718450323832 0.0025420053083398085
552 0.0011371263219435645 -0.009444274250452907 0.007126004719628023
512 0.007932037642717969 -0.0026691241357457347 -0.00942221055415416
510 -0.007438555986250865 0.008718085276566584 0.0061369440155523034
515 0.020059216456311035 0.001962524312854019 0.016903872832555254
668 -0.013409777934947962 -0.02809297526276794 0.002089164354669407
667 0.007122529763885534 -0.007436055387880468 -0.005974994897575107
666 0.0012132345492386226 -0.001515826881903834 0.008152590650831192
514 -0.003905672369465974 0.010829991127489112 0.01113248013020069
333 0.0065440362019462 -0.03121807211517258 0.006000903942015005
661 0.0014599807334128199 -0.001247966663204123 0.008145948196398828
663 0.002090142067883845 -0.008439691582931352 -0.0008435439177836258
662 -0.005192563069026115 0.006760210669342472 0.002247161554637085
670 -0.00865880240249602 0.004136124804717471 -0.017662516972563776
322 -0.013055400215148283 0.0151184015290759 0.004826977574100249
324 0.0014708345064800685 0.01787058979329057 0.0033630539912128388
106 -0.0007949594840396446 0.0010354424276557844 0.004667432417983503
444 0.0014116319354944163 -0.022070364935139104 0.027311677605683954
442 -0.016009011450891522 0.024648876028670188 0.00829887714017462
438 -0.006172548203253315 -0.006598017853361473 -0.003831689216129861
443 -0.005703338214736579 -0.031493540840465996 -0.027001704426238105
436 -0.002348392219430277 -0.0008881406644539297 -0.0009599518931583063
435 0.007882976059818131 0.005630999586908299 0.004250896401336337
433 0.004947832288075326 -0.0011967795448653052 0.0035291907472244284
434 -0.011892920178429037 0.006056532382412013 0.001458943720379679
73 0.004711211264691306 0.011815385342592756 -0.0036559606783805546
80 0.010724036597170916 0.010020202781346636 -0.005196112945536796
77 -0.007452299099844412 -0.0027121005640022415 0.0003635735053892601
75 -0.0025594991894791327 -0.004065342382830979 0.005869759638743256
74 0.005562976890560818 -0.0034500701095526724 -0.00047238152321191093
759 0.005522994826327468 0.0016267657411735842 -0.003961487933120941
251 0.011858068628033106 -0.004863596679061551 0.01752312059700234
79 -0.017827694995333095 0.001771802356352557 -0.0029226390775453246
81 0.008898428048452674 0.023740499783937788 -0.004232429894737654
490 -0.004718705395132551 0.01034594876532517 -0.017014718444459963
491 -0.0006183150383013886 0.008903237247026071 0.00575005171171881
486 0.001968253638129931 0.0023173287769342405 0.000612060112778891
31 -0.026398425511175147 0.0017501276454622622 -0.005539672408115263
584 -0.005370671091485809 0.0071030888862468064 -0.0011546624695523014
589 -0.014420452155854238 -0.03277468204859019 -0.027303596829148447
27 0.0025066626145105802 -0.001977013985657267 -0.009030715106984919
29 0.0027309845709600814 -0.004992379778004752 -0.005535374851875709
25 -0.0013527142945616675 -0.004133700425363962 -0.0071133119755198634
26 0.001983069485715547 -0.0008540400614432205 -0.0019502511373214184
28 -0.0048099154745455085 -0.007097802748123103 -0.007554942200289166
35 0.018115389376035892 -0.03412052469681163 -0.002265726368081984
33 0.010085128497857825 -0.011786995286776705 -0.017503779089836552
585 0.002712346355988345 -0.005373974109190508 -0.0008966507125657617
710 0.01120800843758859 -0.006595793511859901 -0.0008347907183306821
590 -0.0008529301460231365 -0.0012448572413145877 0.008534863306431583
586 -0.0011527249788356164 -0.0055949959586737525 0.0016585078556578933
588 0.026154935145345868 -0.03122777001988151 -0.00962565498226169
30 -0.002460064848243708 -0.001975101663450463 -0.007185680695657904
16 -5.3328706565324256e-05 0.01363958933991365 -0.006270573732981066
18 0.005515839907232536 0.004493870379432947 0.0022660718232123153
15 -0.001986561784550706 0.007130772060422268 -0.0025797019797086846
23 -0.02644089912490436 0.01705518084723699 -0.023134587250674982
338 0.004464919543649219 0.007647497261747574 -0.005802882866117539
347 -0.007714924122312859 0.01607149996267983 0.0009938518839188923
581 -0.008517813440078344 0.005062484980685281 0.010992794174369852
337 0.0022910198752884754 0.008379448591801748 0.0015431851651045365
250 -0.003805109474470729 5.147918975517912e-05 -0.0043258371402505845
252 -0.004207576838466185 0.0038694886344796666 -0.01157535051871482
246 -0.0036498107314402862 0.00433407890320446 0.004124623501843396
13 -0.005179289046753775 0.000585441581534881 -0.004845440512848153
14 -0.0001798227839939114 0.0017591937963182067 -0.00018829793812512785
146 -0.001225361007189752 0.003580306028078427 0.003232089591085641
734 0.006153080667717134 -0.009808898757234575 -0.0027568820624352588
761 -0.007007790430274703 0.00035308183905029093 0.002835406993863526
757 0.0009623970798848321 0.003466223478807282 0.006224265869867498
762 0.005338788175217319 0.006853436001830825 -0.004246415291186647
242 0.0024833471287069504 0.0023866694496511545 0.010717545518896471
241 -0.0024568178613555143 -0.003474458222978179 -0.0011084406240493316
247 0.006347418390431368 0.05259735340041836 0.00181216043066325
245 0.006085759677628609 0.003048653380190296 0.003515863523317315
228 0.025000459234989295 -0.015067122744144542 0.0007384860224462045
222 0.002335193940083453 0.003612102626775148 0.005441517256358775
227 0.017263307810344807 -0.015188206724023453 0.007686058316801333
226 0.012602479969672136 -0.006259630920642469 0.008198194441010283
220 -0.0015186743269683782 -0.002537153583427692 0.005618524766538413
296 -0.006472728003718986 -0.016617857727640503 0.022638600627888156
297 -0.0033267810293336774 0.000705948601628266 0.01376229918288859
217 -0.0021924279549230376 -0.01097214728144048 -0.0016426790415007852
219 -0.003598890255254226 0.0021331592387884204 0.008038816491738666
224 0.0111376452794328 0.01032003394787105 0.013876082773598987
221 0.003298373545224486 0.002731849442033575 -0.005038102424439523
218 0.0011123127783186993 0.004516520155494694 -0.002945032538307522
295 -0.0017614412840466017 0.01261800833675012 0.017079644735985892
293 0.00042152790501182215 -0.0069419318847199684 -0.0005505262655987183
216 -0.02967683150469416 -0.0034598685483233104 -0.001140787788249752
32 -0.009149069546999752 -0.0072156159176026335 0.0070024410380435205
94 0.004514057286097079 0.016680624163556704 0.00021541994939875715
96 0.016899663971339837 0.0031329454233453625 -0.011805737326780481
90 -0.007837468976468824 0.0008764725831738225 0.004893094683865961
95 -0.019437169494355127 -2.8165312241764988e-05 -0.006865344848065778
88 -0.0030600045462032275 0.005342086407100295 0.004279236049343559
86 0.008242177878289458 -0.009834123368243972 0.001872450720127802
85 0.00018359302237829734 -0.008511624934288076 0.006057401568220032
24 0.004752331706769272 0.017899865404973993 -0.019287096394870282
91 -0.0016998645436809238 -0.009349465977713493 0.013312789716091306
87 -0.0038218135125537515 0.0027837123424343754 0.006283584639331529
92 -0.005149762176720882 0.007732720623562132 -0.0011004174855133862
89 0.002576543844233333 -0.004532885074680988 0.0008867833839828921
93 -0.006238896753336237 -0.025508831012321383 0.007735664872607279
110 0.008389971977343926 0.0006979183975067434 -0.006503636995795012
128 -0.015640915480121302 0.013429379024098806 -0.0230299370668588
244 0.006145559259627801 0.0020278105947990933 0.004555251730415406
22 -0.01967745469335605 -0.019726296595722722 0.00898349618297121
243 -0.007717368525908176 0.004919710856990463 0.0017055780130098344
202 -0.004666808219137481 0.009840655279371818 0.005408367838471502
204 0.021084873379639588 0.017960860602805214 0.006336192408064191
203 -0.013875724826642753 0.017880504451661304 -0.011893884237883847
198 -0.0007076333943097736 0.0037912659559093636 0.004216378497834078
196 0.0021834895169854257 0.0037852381282482512 0.0005706177801190599
291 0.0014589133203392445 0.0053665099676644375 -0.0008057485100085935
193 -0.0009113857760164095 0.0013180303693929019 0.0026220882679484137
767 -0.005275922437019361 -0.0006273141543885218 -0.004405062967713341
200 0.003340446307065936 -0.0012801435806957379 0.026911036563645865
194 0.00123235010526702 0.007309899802676958 0.0005731760500187438
523 -0.004112851968271794 -0.017288292949649463 0.0005647142527439084
225 0.011971657902050454 0.00973159145346618 -0.022613837052632178
223 0.011816835146484357 -0.006772295358411694 0.02379365951350285
290 -0.003122894034806605 0.002954603073266393 -0.00363040032112698
405 -0.003291928445372888 -0.025713171157854986 -0.044587174893391084
403 -0.010627864354176605 -0.03773235691054521 -0.005583017789501839
399 -0.003991782261585818 0.00555974694966113 0.0009121136926779053
401 -0.004756399930275588 -0.0009156985784031601 -0.0061102734804999205
404 0.006875188400338878 0.006209473713982041 0.01645808263692675
298 0.00684774309110524 0.00017027542583791154 0.006251800083833469
756 0.0016924511533945221 0.0035570000493690477 0.0014084417503761513
524 -0.005023075044553235 0.003132419784246168 0.010390267887920909
521 -0.0006156981579388793 0.0053873614976734105 -0.0026115176298207466
525 -0.01790129871704913 -0.0053843544490831535 0.012557706571830318
408 0.012508571325285659 0.008808939818013417 0.003988549437619001
398 0.0015763291267365943 -0.006399593195944419 0.003959185078281421
397 -0.0015543315921566264 -9.521092240827557e-05 -0.0056974686099224795
400 -0.002949630465508413 0.001579805013142304 0.0020007443801607376
206 -0.0034954362942346703 0.004093309964561825 -0.0026825390561216996
402 -0.007714281588379021 -0.0023281197259680106 0.002944817937877688
208 -0.002791793521239911 0.0034821125717926756 0.004177372627063468
205 0.0072683574342065705 -0.001788388571857384 0.004446365933549552
207 -0.0002908961042861966 -0.002248072854403037 0.010596310672324326
407 0.026165591402204213 0.010559881049621331 0.021105286966245185
210 0.006235048525503842 -0.004055328987522897 -0.0023942590127100896
209 -0.0034527318610394274 -0.0014223533522529884 0.006435527464882072
212 0.019595284636412014 -0.0010840202462554592 0.010547665048808556
215 0.04028800965812198 -0.021808672144708455 -0.026264389806749285
213 -0.012967191704828218 0.013918865294422787 0.010224073488989351
593 0.00020845483740831427 -0.002206907475225157 0.0021929136258232677
594 -0.0036091111073559114 0.0001776711855062208 0.0011233564009187204
591 -0.002465822114455265 0.001285893197200104 0.002747904871298275
592 -0.0026364647855512302 0.0018746118827233018 -0.0018039911721584518
480 -0.0005938653163544513 -0.005921872403423524 0.016311504003336183
59 -0.0004740713932246924 0.007444457334891005 -0.026699708723992452
470 -0.00023230197838638327 0.0005422801856444556 -0.002474386336659564
284 0.0021555999579442823 -0.00518186015241917 -0.006364704792973925
285 0.007605464930964449 0.0021079138168824973 0.012543937246756159
281 -0.009105094596051362 0.0019264786243661904 -0.004264080603467062
283 0.004459361845893808 -0.006211362527565542 -0.02880470238299597
596 -0.0036517869769382067 -0.005885971514894173 -0.0012479475594020992
598 0.017083143617461678 -0.019593328699110905 0.00819569417069986
292 0.0015514727194388767 0.0009092437805049025 -0.003481437311977572
289 0.002317128273946747 0.00432467983767277 4.4952277238243944e-05
294 0.0034341481082307704 0.005470651157668701 0.006470782599620685
299 -4.795111536034475e-05 0.011805514008872147 0.007361358201406213
300 -0.009504051140464792 -0.003015291078665925 -0.0015510858685869693
474 -0.0013543899471628947 0.0005262293054330081 -0.00017850453815272693
478 0.018722256169878118 -0.019697356307726125 0.008883589729444665
195 -0.001012267457861133 0.00771230561884721 -0.000995196222618592
469 0.004431587915521206 0.0012665713481482739 -0.0014931814198771275
472 -0.001796144256773508 -0.009619569335923955 0.004207427060778761
753 0.0032093882840623237 0.004560187074449045 0.0020503866849547327
750 0.003671643491996384 -0.0022875168934272344 0.0024163579189821513
479 -0.006525174254177853 0.00413344525066276 0.00812518819552622
197 0.0025492628239454306 0.004490095193295708 0.00794012754186148
632 0.0012749373442662148 0.010511728806558387 -0.0007417967491984297
440 -0.011051503861234236 -0.005853654912379301 0.02199618110785147
751 -0.0017132988629145304 -0.0019049976869205767 0.003409795934766734
428 0.02379611881506111 0.006499299565652041 0.0087104576440322
425 0.005696021018534948 0.007235338629208128 -0.0027805491997067926
427 0.0006990518073027714 -0.028410304577862602 0.01082196823937234
423 0.005253081464957712 0.005167660860522875 0.00337453999185632
429 -0.00977411357144468 0.0038398379514155753 0.012874541190089342
587 -0.0026813650506431496 0.00457377387534847 0.0006831071451219712
421 0.0013552709242382883 0.0027511395253075194 0.002131165705093619
583 0.011315286539704003 -0.007823236904388345 0.002657387559034323
430 -0.002977806633259876 -0.021962563691499463 0.008880116485475351
432 0.022701974900369844 0.012430419769919675 0.001617080582487633
424 0.001544525643671481 0.006823224073178886 0.006798326675628721
426 -0.009718892894639442 0.002348142472088227 -0.007229983084692907
431 -0.026539317616591243 0.002033903243546027 0.004137047749171153
422 -0.006610672425215058 -0.0015348119886963861 -0.0016095594623426405
69 -0.014019942073857665 0.008031251067212022 0.017373619063478795
68 0.004143095158198824 -0.016953791847867886 0.017314848206869893
669 -0.014760752548257835 -0.04134916475738574 -0.004436463535309802
665 -0.0022834649618920576 -0.0016482386406932034 0.0009802691067617075
582 -4.749865020397718e-05 -0.0023320132681954628 -0.012352497669752114
211 0.009093261877009751 0.016934022443783912 0.009214509465100409
664 -0.0008706554472812745 0.0016933318011303768 -0.007912901998344199
56 -0.0004535343024893282 0.006643200525271209 0.02907445898956424
57 0.003783408831515634 0.01234751106459553 -0.016920473629413617
51 -0.005062893599855994 0.005651966550660194 0.001250884523757598
53 -0.0001780806337329545 -0.005882052248877154 -0.0026285340200680116
55 -0.026026552268413845 -0.005840679255017725 -0.015858195193945393
49 -0.0031470986291281546 0.007811845348644067 0.0047078126663877675
52 0.007214296133498524 -0.0015092765024654535 0.003918204325810537
54 0.00779286219305311 0.005305071714178365 -0.0013575190522252052
441 0.01573099813651067 0.010251011476223443 0.02198396948493103
437 0.0024252666652682326 0.0061819538041611366 0.0026165059830239173
439 -0.0064613024567655025 -0.003336386420229784 0.006389773025001282
758 0.005617807935865172 0.003640612532809271 -0.0032516381960509123
763 0.0014684980682097735 0.003288740693977021 -0.0035294801906594502
475 -0.01141516242569693 0.018409556379663464 0.013036265603209907
476 -0.007064280644705262 0.012081631864530942 0.029001857612473893
473 0.008894225294098414 -0.00783279556346792 0.00024610848218138524
477 -0.007303446924542466 -0.023440344475249026 0.004985961683443374
471 0.005418415251949043 0.0011261193408542629 -0.0016420141441818535
760 -0.008346209326179178 -0.003251032902488484 -0.00364876699884556
372 -0.0013020121866893716 -0.005525304467515551 -0.01073623740016107
165 0.002680713927839747 0.004405425040016983 -0.013638995517685965
366 0.0020857660749396692 0.007090079115511915 -0.0008422946811401238
371 0.0020098392218038164 0.014484311963745385 -0.011135342081200287
482 0.0032838867227096276 -0.0038126813393890508 0.0015487807161912533
489 0.00688065600941461 -0.0019177910282454883 -0.009698634099867222
485 0.007049658826473412 0.00146733855124775 0.002675133132660069
488 0.014656532467539082 -0.027195613294027168 -0.002883904760429376
481 -0.0024425777476593355 0.0012675259568588732 0.0017397438144058446
483 -0.003753421115441094 0.003572027192110201 0.002054216515590452
738 -0.002720904313321459 -0.0070536654706813105 -0.0019684176871091583
487 -0.0041124436222380245 0.007692751421331001 -0.009456427586702393
484 0.007135175590451819 0.0017245345140851278 -0.00566720715626759
168 0.020952037247569236 0.010320818655444538 -0.003805536275831842
164 0.0025222853474546805 0.007433109523601629 -0.030186780272419573
161 0.0014912385746318844 0.0010968871066191408 -0.0033837275586140994
162 0.003632223816226412 0.0046373613004650985 -0.0006633693799683048
34 0.01833100711321828 0.026226996309699283 0.02087915711704765
159 -0.0014343116875892385 -0.010267900306254593 0.00010993771731784248
157 -0.004539096631094653 0.0033867295347960427 -0.0037017815000728177
160 0.006086885041244891 0.0005990073645701723 -0.0015581992873935533
158 0.0039547012655201715 0.0036217445636514234 -0.004537245136701712
166 0.011251775873417214 -0.013576229821061993 -0.03361036778812241
167 0.007390497271576435 0.004295204285159315 -0.012777601459710446
36 -0.009359781861147875 -0.030839033058851086 -0.025456691253671084
692 0.0030533610041540175 0.008823538015876846 -0.012603039669871752
340 0.002542588961989529 0.0016640144977689202 0.0004888737839629343
342 0.005439371926599213 0.00252683101800829 0.004562107968700231
693 -0.0051569074351417695 0.0067472587785684405 0.0023263053106424712
339 -0.010043287884295388 0.003270890344901107 0.00588666872001212
696 -0.00598265304353722 -0.0031847480694677755 -0.003304697568564302
348 0.020812301716805332 -0.0015363345815968743 -0.009338281088928285
21 0.018154034419786597 0.010410080211578932 -0.01033449753768165
343 -0.005461510678688667 0.023959172888632606 -0.02162423679048215
341 -0.010751596569053933 0.004816004066472814 0.001009856556882567
418 0.035181570179628016 0.021208822023024848 0.04151427556388387
414 0.005935686352698285 -0.009051413196987329 -0.0012570889818739796
419 0.003657746412956889 -0.0058502003355679 -0.005547944551548491
420 0.022264872862924546 -0.004372884648432529 -0.0029387452624814584
697 0.015149979116993858 0.0005189855690450573 0.001627689988031474
20 -0.00546530607218108 0.006623569587622854 -0.001971897627673892
17 -0.004128176675276245 0.0007661737684140616 -0.013159269733382935
412 -0.010973121248869625 -0.0036799096656679265 -0.0007774960511253192
19 -0.007407162756787291 -0.02653226238817564 -0.027754137347437174
409 -0.0012024512789257768 -0.0016691613009872557 -0.004511477264817202
413 0.0006400334650014997 0.0032000963376195035 0.007436470061788358
411 0.0038315229201372 0.0008681626210235769 -0.004307216795432762
119 -0.023056994427622938 -0.03415131809279881 -0.008016679087227205
120 -0.015142160730557862 0.005227007852726652 -0.014990776844479761
368 0.00499071765847698 0.007640636927055675 -0.0136301454769563
769 -0.0059236008274532155 -0.006375319006779491 -0.004923859014859259
768 -0.0014705998890200737 -0.003586457472556875 -3.564584731567387e-05
764 -0.0038364516981996563 0.0009362331704055663 0.0016020124875290817
618 -0.00575106837710869 -0.0034582716710947845 -0.017831716992982076
617 -0.02267927505935725 0.020843866097139667 0.009399002219643892
765 -0.0019132945707152945 -0.002384130379568178 0.00963717548159097
370 -0.00915692308935927 0.017603638949556424 -0.010192291542892286
652 -0.0031931741598734712 3.3051138556858545e-05 -0.006822696210309085
619 0.009263705705056908 0.010225089209494002 -0.00618924182020359
620 -0.006912649184739661 0.007797070761012901 -0.01116040526246753
615 0.0008970908754694421 0.0029919238302060234 -0.003307535590956691
616 -0.003950373300589853 0.004264492079899768 0.00334461229628596
629 -7.995605021868359e-05 0.019080910268948866 0.0335322640227934
287 -0.023674640992931397 0.006014191986075172 -0.003223122276495101
614 -0.004319646185532067 0.0011252297532410595 -0.00141268881200684
611 -0.0037435929055020796 0.005266866617721919 -0.002691922490626272
613 -0.003850644586291451 -0.0032158855849819634 -0.00019936381903555922
612 -0.010697348267770176 -0.004934689084343676 -0.009734028932494245
698 0.01701100494134027 0.008454811324110682 -0.007641712463294047
112 -0.004306385448093834 -0.005671093899417778 0.0025215894215458593
286 -0.01935783673965602 0.014005052213633256 0.026733852845906635
282 0.003560332663734451 0.0019972633111406666 -0.0017490423786815793
280 -0.004771428257992723 -0.0006608566356940698 -0.005586544461746276
345 -0.01009551307454254 0.011088441772751586 0.025403792301125067
344 0.007067627146503115 0.004757866802088021 -0.00098022614381162
288 0.015189652670705144 -0.0016941422517180206 0.0010545589513807567
503 0.0013888836673376054 0.024678025864358185 0.006704968458556264
115 0.004378939626040039 0.01098221516252547 -0.03272128501942207
113 -0.0011713911325280052 0.0035171130583250164 -0.006632058248050243
117 -0.028531042594459155 -0.011777080276069106 0.013091780463670984
109 -0.004606719368310622 0.000799496896424438 0.0009762123075221637
111 0.0005563699906669646 -0.0014094707797111237 -0.001868696214181369
606 -0.008381648320250477 -0.004400864641807026 0.0036937603607525085
607 -0.014220584109469121 -0.017251786837027466 0.0231192258609671
766 -0.005855205465509428 0.0036295297024413887 0.0010472097699541411
770 -0.005139530966232199 -0.004124214897893557 -0.0031055829660881482
604 -0.0008236882793486957 -0.0013987211980076742 0.003176830812571565
116 -0.023433439243610583 0.02935882946010328 0.0029755969028915277
605 -0.0046058588288947514 -8.385606006783183e-05 0.0012113819482070108
610 0.012966126713951033 0.013774060579150394 0.007502081723701104
114 -0.007983786180929433 -0.006966384913257486 -0.007902391471478273
118 0.005009945642151268 -0.010531649179892189 0.033674451253653856
609 0.001043460023084975 -0.02363389357615505 0.030306721529846398
199 -0.011988062859842854 0.007234840298819986 -0.03602210995276262
651 0.0009268496442487407 -0.004154471842484497 0.0037562615717236835
654 -0.006796820868598427 -0.00038075883605023276 -0.010072598832861433
655 -0.0010867505542232598 -0.00870315310349363 -0.0029286148810947358
656 0.007197895364004558 0.0011460664967294827 -0.006190772209457085
659 0.02308734590410709 -0.0007888867211806883 -0.002410460435102456
660 0.017486808748486092 -0.02924353434184052 -0.02126483383593087
653 -0.00482116717078621 0.0013722530423071766 0.003676621414517949
658 -0.0032088885995656194 0.007572114523790961 0.012326971331631107
754 0.005543099470163148 -0.008323514435698958 -0.0037617481895873845
689 0.02937664274949714 -0.010164132000953865 0.010219825568150882
172 0.008178784577485275 0.0005040566661625764 0.0030927562906795172
406 -0.010407616541735039 0.004334005625694659 -0.022413762281920335
178 0.0031336857336563325 0.005662828183661927 0.00038008392102591935
70 0.014493498100618708 0.014217413629910204 -0.020260100022397375
66 0.0014389129757943098 0.0035521433742022775 -0.003499082014779952
71 -0.006084762099883067 0.005109914406896646 -0.012507091329572152
72 6.391388783744546e-05 0.0012569589922721083 -0.009025462842678274
179 0.012687485951973759 0.02432275750548166 -0.00820773118223054
174 -0.006411715822359385 -0.0001655150788757333 -0.004253954647387697
180 0.024816227774961966 -0.0012536262919318592 -0.022018189539905666
678 -0.012277192063017835 -0.007621671835894183 -0.004273943182858419
278 0.00039795684456268626 0.003620038751834509 -0.0024307428094210576
277 -0.0017118651303567052 0.0033145201603392866 0.0027425112734871812
279 -0.002632378947070213 -0.0015466111146306984 0.001521859682558851
580 0.00739125419560833 -0.005701661856030718 0.03891533506726708
578 -0.012450926536443783 0.018506049523255217 0.0020914529443540357
576 -0.004485426042079022 -0.008012458812536288 0.0014983064713826586
575 -0.0033104687687043493 -0.005685509812974372 -0.0008098395628758692
579 -0.01780502111485059 0.00793718668477342 -0.018734386710393663
574 0.0062472872196562505 -0.0017634781732489924 -0.0025688861414135283
577 -0.00046760008409882804 -0.02648896415776768 -0.0057312166460645195
572 0.0031006255198395226 0.0010880418662721388 -0.0056732685452723156
752 5.572890876798156e-05 0.005297800694588414 0.005516243659435697
657 -0.011074867797956836 0.0006818695567983589 -0.005481496948322594
201 0.0011437426254403097 0.009804728939402041 0.003772933405798927
573 0.0009743786612980054 -0.003658334238343644 -0.0017667491533071985
571 0.0034773481680744245 -0.001502589075143093 -0.003321066522438032
454 0.009785709651572118 0.0008592690446648354 -0.016238687499824045
104 0.020039718230285077 0.007891892185784285 0.016801697556614113
741 -0.0003558388583806195 -0.0031753578737317243 -0.00267414367220469
687 -0.00303792203718906 0.027550932833577717 -0.006642665647571939
682 -0.004100870561860315 0.0007383064621034483 0.0038986820853761216
643 0.00012337318568300196 -0.0006243200563197278 0.0009531217016871945
688 -0.013429819651060297 -0.012138098743531809 -0.02602639108831109
686 0.002242580027404043 0.005936041927755399 -0.010763348417375645
685 -0.0017262969399365535 -0.00010156681200251061 -0.0020551439056590904
690 -0.038718042238324736 0.01184397771280778 -0.00861335911960267
684 -0.0067801236771126054 -0.0013459355780164088 0.0006111626784272118
681 0.00726522252504439 0.0043527636425131026 -0.001193284431603895
683 -0.0012445261605635316 0.0062193678327046335 -0.010490101181336912
732 -0.0017867830084346505 0.009149376595052596 0.005195619709869776
642 0.006915421320843298 -0.002988447143073395 0.0072467541373722605
641 0.002202286458935549 -0.0014984483640364758 0.0007145947193716813
492 0.014786007635642948 0.006035352408458482 0.001674623440669583
62 0.005724084548972732 0.004089355239619865 0.010692741084096144
64 -0.0020694845074786766 0.006822930152487729 0.004409618806748368
65 -0.001349465554933641 0.00327132452146991 0.001325264345561158
67 0.004347707188227818 0.008018347103241449 -0.030266775358868774
61 0.0021170071886873996 0.0010386939753427723 0.003183092943129868
63 -0.0008494192980822777 -0.0002518365000651529 0.0030936499468051494
11 0.00914293781451878 0.0006438959199144766 0.011122567365724706
177 -0.008919005586617698 0.008919232038807984 -0.028898210069919075
346 0.010624954596552192 0.013767906412767372 -0.020897855670058474
58 -0.007107456143453075 -0.00871368243167862 0.012963996326311837
10 -0.021973663514857193 -0.014029686166805326 -0.038558106502980284
3 0.0014961667163453287 -0.005748682284520675 -0.007300704767760694
50 -0.006639948353298531 -0.0052470938201971545 -0.012107780438500585
60 -0.015352994623556576 -0.0018177705804839038 -0.004752788590023596
12 0.0024585620590288045 0.00918022803713706 -0.004160076332021734
6 0.0008080109377064926 0.004594756722529493 -0.002279427931076373
2 0.0038121504368530063 0.0005147243606837014 -0.004277867074016012
1 0.0005003318084944651 -0.0014917117289029818 0.0008404926434103603
4 -5.544127057899354e-05 0.0022052076845396926 -0.0036275269239132
755 -0.0004626237856216564 0.0028132066921126423 -0.001924444148937864
451 -0.009662687234431023 0.002976723353004242 -0.009103959057363258
417 -0.027054497244268415 0.016594982885228517 -0.012579041987848795
456 0.003551991286744244 0.0363674336466603 0.010336038198219485
450 0.00249394344533952 0.0015033723104986088 -0.002730035679141805
735 0.006190997420334841 0.0014374855596547592 -0.009189220685329758
415 0.0006901748493138689 -0.0104680407005834 -0.013337453257509966
446 -0.007625282091474461 -0.0013033136633509932 -0.002717934314335951
452 0.0028373904906871237 -0.0019818162035608587 0.02617830854318974
453 0.012839340543924731 0.01576791485650376 0.026948904154340092
449 0.001126935580207042 0.0026202603643107653 0.010540066276574864
447 0.002952812753768212 0.0024519954269894995 -0.002499238224298398
445 0.00219102759818064 -0.001727929170555007 0.0026017676678581187
448 -0.0007644656913698578 -0.0011746551302418415 0.0021436302998145387

Bonds

1 4 389 391
2 4 389 392
3 4 389 393
4 7 351 353
5 7 364 366
6 7 387 389
7 8 385 386
8 7 385 387
9 7 385 388
10 7 388 390
11 4 390 394
12 4 390 395
13 4 390 396
14 8 621 622
15 7 621 623
16 7 621 624
17 7 267 269
18 7 624 625
19 1 625 626
20 4 625 629
21 4 625 630
22 4 626 627
23 4 626 628
24 7 623 626
25 4 269 271
26 4 269 272
27 4 269 273
28 4 317 319
29 4 317 320
30 4 317 321
31 8 691 692
32 7 691 693
33 7 691 694
34 7 694 695
35 1 695 696
36 4 695 699
37 4 695 700
38 7 315 317
39 8 313 314
40 7 313 315
41 7 313 316
42 4 137 139
43 4 137 140
44 4 137 141
45 8 361 362
46 7 361 363
47 7 361 364
48 7 363 365
49 4 365 367
50 4 365 368
51 4 365 369
52 7 303 305
53 4 234 238
54 4 234 239
55 4 234 240
56 7 495 497
57 4 305 307
58 4 305 308
59 4 305 309
60 7 496 498
61 8 493 494
62 7 493 495
63 7 493 496
64 4 497 499
65 4 497 500
66 4 497 501
67 8 671 672
68 7 671 673
69 7 671 674
70 7 674 675
71 7 673 676
72 4 498 502
73 4 498 503
74 4 498 504
75 4 138 142
76 4 138 143
77 4 138 144
78 7 135 137
79 7 603 606
80 8 601 602
81 7 601 603
82 7 601 604
83 8 133 134
84 7 133 135
85 7 133 136
86 7 136 138
87 7 460 462
88 4 462 466
89 4 462 467
90 4 462 468
91 8 457 458
92 7 457 459
93 7 457 460
94 7 459 461
95 4 461 463
96 4 461 464
97 4 461 465
98 8 301 302
99 7 301 303
100 7 301 304
101 7 304 306
102 7 183 185
103 4 185 187
104 4 185 188
105 4 185 189
106 4 306 310
107 4 306 311
108 4 306 312
109 8 169 170
110 7 169 171
111 7 169 172
112 7 171 173
113 1 675 676
114 4 675 679
115 4 675 680
116 4 330 334
117 4 330 335
118 4 330 336
119 7 328 330
120 4 676 677
121 4 676 678
122 8 325 326
123 7 325 327
124 7 325 328
125 4 377 379
126 4 377 380
127 4 377 381
128 7 100 102
129 8 97 98
130 7 97 99
131 7 97 100
132 4 716 717
133 4 716 718
134 15 736 737
135 15 736 738
136 15 736 739
137 15 736 740
138 15 736 741
139 15 736 742
140 8 711 712
141 7 711 713
142 7 711 714
143 1 715 716
144 4 715 719
145 4 715 720
146 7 99 101
147 4 101 103
148 4 101 104
149 4 101 105
150 7 268 270
151 4 646 647
152 4 646 648
153 7 714 715
154 8 181 182
155 7 181 183
156 7 181 184
157 1 645 646
158 4 645 649
159 4 645 650
160 4 186 190
161 4 186 191
162 4 186 192
163 7 184 186
164 4 173 175
165 4 173 176
166 4 173 177
167 4 270 274
168 4 270 275
169 4 270 276
170 7 644 645
171 8 265 266
172 7 265 267
173 7 265 268
174 7 327 329
175 4 329 331
176 4 329 332
177 4 329 333
178 4 5 7
179 4 5 8
180 4 5 9
181 7 375 377
182 8 373 374
183 7 373 375
184 7 373 376
185 7 376 378
186 4 378 382
187 4 378 383
188 4 378 384
189 4 354 358
190 4 354 359
191 4 354 360
192 7 352 354
193 8 349 350
194 7 349 351
195 7 349 352
196 4 353 355
197 4 353 356
198 4 353 357
199 7 76 78
200 4 78 82
201 4 78 83
202 4 78 84
203 4 706 707
204 4 706 708
205 8 701 702
206 7 701 703
207 7 701 704
208 1 555 556
209 4 555 559
210 4 555 560
211 1 705 706
212 4 705 709
213 4 705 710
214 7 704 705
215 4 509 511
216 4 509 512
217 4 509 513
218 7 507 509
219 8 505 506
220 7 505 507
221 7 505 508
222 7 508 510
223 4 42 46
224 4 42 47
225 4 42 48
226 4 149 151
227 4 149 152
228 4 149 153
229 7 316 318
230 7 147 149
231 4 318 322
232 4 318 323
233 4 318 324
234 8 561 562
235 7 561 563
236 7 561 564
237 7 148 150
238 7 564 565
239 1 565 566
240 4 565 569
241 4 565 570
242 4 150 154
243 4 150 155
244 4 150 156
245 8 145 146
246 7 145 147
247 7 145 148
248 7 256 258
249 4 258 262
250 4 258 263
251 4 258 264
252 7 255 257
253 8 253 254
254 7 253 255
255 7 253 256
256 4 257 259
257 4 257 260
258 4 257 261
259 4 534 538
260 4 534 539
261 4 534 540
262 4 533 535
263 4 533 536
264 4 533 537
265 8 529 530
266 7 529 531
267 7 529 532
268 7 532 534
269 7 703 706
270 7 531 533
271 8 229 230
272 7 229 231
273 7 229 232
274 4 233 235
275 4 233 236
276 4 233 237
277 7 231 233
278 7 232 234
279 7 40 42
280 8 37 38
281 7 37 39
282 7 37 40
283 7 39 41
284 4 41 43
285 4 41 44
286 4 41 45
287 4 126 130
288 4 126 131
289 4 126 132
290 7 563 566
291 4 566 567
292 4 566 568
293 7 124 126
294 8 121 122
295 7 121 123
296 7 121 124
297 7 123 125
298 4 125 127
299 4 125 128
300 4 125 129
301 8 517 518
302 7 517 519
303 7 517 520
304 7 519 521
305 4 522 526
306 4 522 527
307 4 522 528
308 7 520 522
309 7 724 725
310 8 721 722
311 7 721 723
312 7 721 724
313 7 723 726
314 4 726 727
315 4 726 728
316 1 725 726
317 4 725 729
318 4 725 730
319 4 546 547
320 4 546 548
321 7 543 546
322 8 541 542
323 7 541 543
324 7 541 544
325 7 544 545
326 1 545 546
327 4 545 549
328 4 545 550
329 1 595 596
330 4 595 599
331 4 595 600
332 15 743 744
333 15 743 745
334 15 743 746
335 15 743 747
336 15 743 748
337 15 743 749
338 7 713 716
339 4 102 106
340 4 102 107
341 4 102 108
342 7 634 635
343 1 635 636
344 4 635 639
345 4 635 640
346 4 636 637
347 4 636 638
348 8 631 632
349 7 631 633
350 7 631 634
351 7 633 636
352 4 556 557
353 4 556 558
354 7 554 555
355 7 553 556
356 8 551 552
357 7 551 553
358 7 551 554
359 4 510 514
360 4 510 515
361 4 510 516
362 4 666 667
363 4 666 668
364 8 661 662
365 7 661 663
366 7 661 664
367 7 663 666
368 4 438 442
369 4 438 443
370 4 438 444
371 7 436 438
372 7 435 437
373 8 433 434
374 7 433 435
375 7 433 436
376 8 73 74
377 7 73 75
378 7 73 76
379 4 77 79
380 4 77 80
381 4 77 81
382 7 75 77
383 4 486 490
384 4 486 491
385 4 486 492
386 7 584 585
387 7 27 29
388 4 29 31
389 4 29 32
390 4 29 33
391 8 25 26
392 7 25 27
393 7 25 28
394 7 28 30
395 1 585 586
396 4 585 589
397 4 585 590
398 4 586 587
399 4 586 588
400 4 30 34
401 4 30 35
402 4 30 36
403 7 16 18
404 4 18 22
405 4 18 23
406 4 18 24
407 7 15 17
408 8 581 582
409 7 581 583
410 7 581 584
411 8 337 338
412 7 337 339
413 7 337 340
414 4 246 250
415 4 246 251
416 4 246 252
417 8 13 14
418 7 13 15
419 7 13 16
420 15 757 758
421 15 757 759
422 15 757 760
423 15 757 761
424 15 757 762
425 15 757 763
426 8 241 242
427 7 241 243
428 7 241 244
429 4 245 247
430 4 245 248
431 4 245 249
432 4 222 226
433 4 222 227
434 4 222 228
435 7 220 222
436 8 217 218
437 7 217 219
438 7 217 220
439 7 219 221
440 4 221 223
441 4 221 224
442 4 221 225
443 4 293 295
444 4 293 296
445 4 293 297
446 4 90 94
447 4 90 95
448 4 90 96
449 7 88 90
450 8 85 86
451 7 85 87
452 7 85 88
453 7 87 89
454 4 89 91
455 4 89 92
456 4 89 93
457 7 244 246
458 7 243 245
459 4 198 202
460 4 198 203
461 4 198 204
462 7 196 198
463 7 291 293
464 8 193 194
465 7 193 195
466 7 193 196
467 7 399 401
468 4 401 403
469 4 401 404
470 4 401 405
471 4 521 523
472 4 521 524
473 4 521 525
474 8 397 398
475 7 397 399
476 7 397 400
477 7 400 402
478 4 402 406
479 4 402 407
480 4 402 408
481 7 208 210
482 8 205 206
483 7 205 207
484 7 205 208
485 7 207 209
486 4 210 214
487 4 210 215
488 4 210 216
489 4 209 211
490 4 209 212
491 4 209 213
492 7 593 596
493 7 594 595
494 8 591 592
495 7 591 593
496 7 591 594
497 4 281 283
498 4 281 284
499 4 281 285
500 4 596 597
501 4 596 598
502 7 292 294
503 8 289 290
504 7 289 291
505 7 289 292
506 4 294 298
507 4 294 299
508 4 294 300
509 4 474 478
510 4 474 479
511 4 474 480
512 7 195 197
513 8 469 470
514 7 469 471
515 7 469 472
516 7 472 474
517 15 750 751
518 15 750 752
519 15 750 753
520 15 750 754
521 15 750 755
522 15 750 756
523 4 197 199
524 4 197 200
525 4 197 201
526 4 425 427
527 4 425 428
528 4 425 429
529 7 423 425
530 8 421 422
531 7 421 423
532 7 421 424
533 7 583 586
534 7 424 426
535 4 426 430
536 4 426 431
537 4 426 432
538 1 665 666
539 4 665 669
540 4 665 670
541 7 664 665
542 7 51 53
543 4 53 55
544 4 53 56
545 4 53 57
546 8 49 50
547 7 49 51
548 7 49 52
549 7 52 54
550 4 54 58
551 4 54 59
552 4 54 60
553 4 437 439
554 4 437 440
555 4 437 441
556 4 473 475
557 4 473 476
558 4 473 477
559 7 471 473
560 4 366 370
561 4 366 371
562 4 366 372
563 4 485 487
564 4 485 488
565 4 485 489
566 8 481 482
567 7 481 483
568 7 481 484
569 7 483 485
570 7 484 486
571 4 161 163
572 4 161 164
573 4 161 165
574 4 162 166
575 4 162 167
576 4 162 168
577 7 159 161
578 8 157 158
579 7 157 159
580 7 157 160
581 7 160 162
582 7 340 342
583 4 342 346
584 4 342 347
585 4 342 348
586 7 693 696
587 7 339 341
588 4 696 697
589 4 696 698
590 4 341 343
591 4 341 344
592 4 341 345
593 4 414 418
594 4 414 419
595 4 414 420
596 4 17 19
597 4 17 20
598 4 17 21
599 7 412 414
600 8 409 410
601 7 409 411
602 7 409 412
603 4 413 415
604 4 413 416
605 4 413 417
606 7 411 413
607 15 764 765
608 15 764 766
609 15 764 767
610 15 764 768
611 15 764 769
612 15 764 770
613 1 615 616
614 4 615 619
615 4 615 620
616 4 616 617
617 4 616 618
618 7 614 615
619 8 611 612
620 7 611 613
621 7 611 614
622 7 613 616
623 7 112 114
624 4 282 286
625 4 282 287
626 4 282 288
627 7 280 282
628 4 113 115
629 4 113 116
630 4 113 117
631 8 109 110
632 7 109 111
633 7 109 112
634 7 111 113
635 4 606 607
636 4 606 608
637 7 604 605
638 1 605 606
639 4 605 609
640 4 605 610
641 4 114 118
642 4 114 119
643 4 114 120
644 8 651 652
645 7 651 653
646 7 651 654
647 7 654 655
648 1 655 656
649 4 655 659
650 4 655 660
651 4 656 657
652 4 656 658
653 7 653 656
654 7 172 174
655 4 66 70
656 4 66 71
657 4 66 72
658 4 174 178
659 4 174 179
660 4 174 180
661 8 277 278
662 7 277 279
663 7 277 280
664 7 279 281
665 4 576 577
666 4 576 578
667 1 575 576
668 4 575 579
669 4 575 580
670 7 574 575
671 7 573 576
672 8 571 572
673 7 571 573
674 7 571 574
675 7 643 646
676 4 686 687
677 4 686 688
678 1 685 686
679 4 685 689
680 4 685 690
681 7 684 685
682 8 681 682
683 7 681 683
684 7 681 684
685 7 683 686
686 8 641 642
687 7 641 643
688 7 641 644
689 7 64 66
690 4 65 67
691 4 65 68
692 4 65 69
693 8 61 62
694 7 61 63
695 7 61 64
696 7 63 65
697 7 3 5
698 4 6 10
699 4 6 11
700 4 6 12
701 8 1 2
702 7 1 3
703 7 1 4
704 7 4 6
705 4 450 454
706 4 450 455
707 4 450 456
708 4 449 451
709 4 449 452
710 4 449 453
711 7 447 449
712 8 445 446
713 7 445 447
714 7 445 448
715 7 448 450

Angles

1 4 387 389 391
2 4 387 389 392
3 4 387 389 393
4 7 391 389 392
5 7 391 389 393
6 7 392 389 393
7 9 349 351 353
8 9 361 364 366
9 9 385 387 389
10 11 386 385 387
11 11 386 385 388
12 12 387 385 388
13 9 385 388 390
14 4 388 390 394
15 4 388 390 395
16 4 388 390 396
17 7 394 390 395
18 7 394 390 396
19 7 395 390 396
20 11 622 621 623
21 11 622 621 624
22 12 623 621 624
23 9 265 267 269
24 9 621 624 625
25 13 624 625 626
26 4 626 625 629
27 4 626 625 630
28 6 629 625 630
29 13 623 626 625
30 4 625 626 627
31 4 625 626 628
32 6 627 626 628
33 9 621 623 626
34 4 267 269 271
35 4 267 269 272
36 4 267 269 273
37 7 271 269 272
38 7 271 269 273
39 7 272 269 273
40 4 315 317 319
41 4 315 317 320
42 4 315 317 321
43 7 319 317 320
44 7 319 317 321
45 7 320 317 321
46 11 692 691 693
47 11 692 691 694
48 12 693 691 694
49 9 691 694 695
50 13 694 695 696
51 4 696 695 699
52 4 696 695 700
53 6 699 695 700
54 9 313 315 317
55 11 314 313 315
56 11 314 313 316
57 12 315 313 316
58 4 135 137 139
59 4 135 137 140
60 4 135 137 141
61 7 139 137 140
62 7 139 137 141
63 7 140 137 141
64 11 362 361 363
65 11 362 361 364
66 12 363 361 364
67 9 361 363 365
68 4 363 365 367
69 4 363 365 368
70 4 363 365 369
71 7 367 365 368
72 7 367 365 369
73 7 368 365 369
74 9 301 303 305
75 4 232 234 238
76 4 232 234 239
77 4 232 234 240
78 7 238 234 239
79 7 238 234 240
80 7 239 234 240
81 9 493 495 497
82 4 303 305 307
83 4 303 305 308
84 4 303 305 309
85 7 307 305 308
86 7 307 305 309
87 7 308 305 309
88 9 493 496 498
89 11 494 493 495
90 11 494 493 496
91 12 495 493 496
92 4 495 497 499
93 4 495 497 500
94 4 495 497 501
95 7 499 497 500
96 7 499 497 501
97 7 500 497 501
98 11 672 671 673
99 11 672 671 674
100 12 673 671 674
101 9 671 674 675
102 9 671 673 676
103 4 496 498 502
104 4 496 498 503
105 4 496 498 504
106 7 502 498 503
107 7 502 498 504
108 7 503 498 504
109 4 136 138 142
110 4 136 138 143
111 4 136 138 144
112 7 142 138 143
113 7 142 138 144
114 7 143 138 144
115 9 133 135 137
116 9 601 603 606
117 11 602 601 603
118 11 602 601 604
119 12 603 601 604
120 11 134 133 135
121 11 134 133 136
122 12 135 133 136
123 9 133 136 138
124 9 457 460 462
125 4 460 462 466
126 4 460 462 467
127 4 460 462 468
128 7 466 462 467
129 7 466 462 468
130 7 467 462 468
131 11 458 457 459
132 11 458 457 460
133 12 459 457 460
134 9 457 459 461
135 4 459 461 463
136 4 459 461 464
137 4 459 461 465
138 7 463 461 464
139 7 463 461 465
140 7 464 461 465
141 11 302 301 303
142 11 302 301 304
143 12 303 301 304
144 9 301 304 306
145 9 181 183 185
146 4 183 185 187
147 4 183 185 188
148 4 183 185 189
149 7 187 185 188
150 7 187 185 189
151 7 188 185 189
152 4 304 306 310
153 4 304 306 311
154 4 304 306 312
155 7 310 306 311
156 7 310 306 312
157 7 311 306 312
158 11 170 169 171
159 11 170 169 172
160 12 171 169 172
161 9 169 171 173
162 13 674 675 676
163 4 676 675 679
164 4 676 675 680
165 6 679 675 680
166 4 328 330 334
167 4 328 330 335
168 4 328 330 336
169 7 334 330 335
170 7 334 330 336
171 7 335 330 336
172 9 325 328 330
173 13 673 676 675
174 4 675 676 677
175 4 675 676 678
176 6 677 676 678
177 11 326 325 327
178 11 326 325 328
179 12 327 325 328
180 4 375 377 379
181 4 375 377 380
182 4 375 377 381
183 7 379 377 380
184 7 379 377 381
185 7 380 377 381
186 9 97 100 102
187 11 98 97 99
188 11 98 97 100
189 12 99 97 100
190 13 713 716 715
191 4 715 716 717
192 4 715 716 718
193 6 717 716 718
194 18 737 736 738
195 18 739 736 740
196 18 741 736 742
197 17 737 736 739
198 17 737 736 740
199 17 737 736 741
200 17 737 736 742
201 17 738 736 739
202 17 738 736 740
203 17 738 736 741
204 17 738 736 742
205 17 739 736 741
206 17 739 736 742
207 17 740 736 741
208 17 740 736 742
209 11 712 711 713
210 11 712 711 714
211 12 713 711 714
212 13 714 715 716
213 4 716 715 719
214 4 716 715 720
215 6 719 715 720
216 9 97 99 101
217 4 99 101 103
218 4 99 101 104
219 4 99 101 105
220 7 103 101 104
221 7 103 101 105
222 7 104 101 105
223 9 265 268 270
224 13 643 646 645
225 4 645 646 647
226 4 645 646 648
227 6 647 646 648
228 9 711 714 715
229 11 182 181 183
230 11 182 181 184
231 12 183 181 184
232 13 644 645 646
233 4 646 645 649
234 4 646 645 650
235 6 649 645 650
236 4 184 186 190
237 4 184 186 191
238 4 184 186 192
239 7 190 186 191
240 7 190 186 192
241 7 191 186 192
242 9 181 184 186
243 4 171 173 175
244 4 171 173 176
245 4 171 173 177
246 7 175 173 176
247 7 175 173 177
248 7 176 173 177
249 4 268 270 274
250 4 268 270 275
251 4 268 270 276
252 7 274 270 275
253 7 274 270 276
254 7 275 270 276
255 9 641 644 645
256 11 266 265 267
257 11 266 265 268
258 12 267 265 268
259 9 325 327 329
260 4 327 329 331
261 4 327 329 332
262 4 327 329 333
263 7 331 329 332
264 7 331 329 333
265 7 332 329 333
266 4 3 5 7
267 4 3 5 8
268 4 3 5 9
269 7 7 5 8
270 7 7 5 9
271 7 8 5 9
272 9 373 375 377
273 11 374 373 375
274 11 374 373 376
275 12 375 373 376
276 9 373 376 378
277 4 376 378 382
278 4 376 378 383
279 4 376 378 384
280 7 382 378 383
281 7 382 378 384
282 7 383 378 384
283 4 352 354 358
284 4 352 354 359
285 4 352 354 360
286 7 358 354 359
287 7 358 354 360
288 7 359 354 360
289 9 349 352 354
290 11 350 349 351
291 11 350 349 352
292 12 351 349 352
293 4 351 353 355
294 4 351 353 356
295 4 351 353 357
296 7 355 353 356
297 7 355 353 357
298 7 356 353 357
299 9 73 76 78
300 4 76 78 82
301 4 76 78 83
302 4 76 78 84
303 7 82 78 83
304 7 82 78 84
305 7 83 78 84
306 13 703 706 705
307 4 705 706 707
308 4 705 706 708
309 6 707 706 708
310 11 702 701 703
311 11 702 701 704
312 12 703 701 704
313 13 554 555 556
314 4 556 555 559
315 4 556 555 560
316 6 559 555 560
317 13 704 705 706
318 4 706 705 709
319 4 706 705 710
320 6 709 705 710
321 9 701 704 705
322 4 507 509 511
323 4 507 509 512
324 4 507 509 513
325 7 511 509 512
326 7 511 509 513
327 7 512 509 513
328 9 505 507 509
329 11 506 505 507
330 11 506 505 508
331 12 507 505 508
332 9 505 508 510
333 4 40 42 46
334 4 40 42 47
335 4 40 42 48
336 7 46 42 47
337 7 46 42 48
338 7 47 42 48
339 4 147 149 151
340 4 147 149 152
341 4 147 149 153
342 7 151 149 152
343 7 151 149 153
344 7 152 149 153
345 9 313 316 318
346 9 145 147 149
347 4 316 318 322
348 4 316 318 323
349 4 316 318 324
350 7 322 318 323
351 7 322 318 324
352 7 323 318 324
353 11 562 561 563
354 11 562 561 564
355 12 563 561 564
356 9 145 148 150
357 9 561 564 565
358 13 564 565 566
359 4 566 565 569
360 4 566 565 570
361 6 569 565 570
362 4 148 150 154
363 4 148 150 155
364 4 148 150 156
365 7 154 150 155
366 7 154 150 156
367 7 155 150 156
368 11 146 145 147
369 11 146 145 148
370 12 147 145 148
371 9 253 256 258
372 4 256 258 262
373 4 256 258 263
374 4 256 258 264
375 7 262 258 263
376 7 262 258 264
377 7 263 258 264
378 9 253 255 257
379 11 254 253 255
380 11 254 253 256
381 12 255 253 256
382 4 255 257 259
383 4 255 257 260
384 4 255 257 261
385 7 259 257 260
386 7 259 257 261
387 7 260 257 261
388 4 532 534 538
389 4 532 534 539
390 4 532 534 540
391 7 538 534 539
392 7 538 534 540
393 7 539 534 540
394 4 531 533 535
395 4 531 533 536
396 4 531 533 537
397 7 535 533 536
398 7 535 533 537
399 7 536 533 537
400 11 530 529 531
401 11 530 529 532
402 12 531 529 532
403 9 529 532 534
404 9 701 703 706
405 9 529 531 533
406 11 230 229 231
407 11 230 229 232
408 12 231 229 232
409 4 231 233 235
410 4 231 233 236
411 4 231 233 237
412 7 235 233 236
413 7 235 233 237
414 7 236 233 237
415 9 229 231 233
416 9 229 232 234
417 9 37 40 42
418 11 38 37 39
419 11 38 37 40
420 12 39 37 40
421 9 37 39 41
422 4 39 41 43
423 4 39 41 44
424 4 39 41 45
425 7 43 41 44
426 7 43 41 45
427 7 44 41 45
428 4 124 126 130
429 4 124 126 131
430 4 124 126 132
431 7 130 126 131
432 7 130 126 132
433 7 131 126 132
434 9 561 563 566
435 13 563 566 565
436 4 565 566 567
437 4 565 566 568
438 6 567 566 568
439 9 121 124 126
440 11 122 121 123
441 11 122 121 124
442 12 123 121 124
443 9 121 123 125
444 4 123 125 127
445 4 123 125 128
446 4 123 125 129
447 7 127 125 128
448 7 127 125 129
449 7 128 125 129
450 11 518 517 519
451 11 518 517 520
452 12 519 517 520
453 9 517 519 521
454 4 520 522 526
455 4 520 522 527
456 4 520 522 528
457 7 526 522 527
458 7 526 522 528
459 7 527 522 528
460 9 517 520 522
461 9 721 724 725
462 11 722 721 723
463 11 722 721 724
464 12 723 721 724
465 9 721 723 726
466 13 723 726 725
467 4 725 726 727
468 4 725 726 728
469 6 727 726 728
470 13 724 725 726
471 4 726 725 729
472 4 726 725 730
473 6 729 725 730
474 13 543 546 545
475 4 545 546 547
476 4 545 546 548
477 6 547 546 548
478 9 541 543 546
479 11 542 541 543
480 11 542 541 544
481 12 543 541 544
482 9 541 544 545
483 13 544 545 546
484 4 546 545 549
485 4 546 545 550
486 6 549 545 550
487 13 594 595 596
488 4 596 595 599
489 4 596 595 600
490 6 599 595 600
491 18 744 743 745
492 18 746 743 747
493 18 748 743 749
494 17 744 743 746
495 17 744 743 747
496 17 744 743 748
497 17 744 743 749
498 17 745 743 746
499 17 745 743 747
500 17 745 743 748
501 17 745 743 749
502 17 746 743 748
503 17 746 743 749
504 17 747 743 748
505 17 747 743 749
506 9 711 713 716
507 4 100 102 106
508 4 100 102 107
509 4 100 102 108
510 7 106 102 107
511 7 106 102 108
512 7 107 102 108
513 9 631 634 635
514 13 634 635 636
515 4 636 635 639
516 4 636 635 640
517 6 639 635 640
518 13 633 636 635
519 4 635 636 637
520 4 635 636 638
521 6 637 636 638
522 11 632 631 633
523 11 632 631 634
524 12 633 631 634
525 9 631 633 636
526 13 553 556 555
527 4 555 556 557
528 4 555 556 558
529 6 557 556 558
530 9 551 554 555
531 9 551 553 556
532 11 552 551 553
533 11 552 551 554
534 12 553 551 554
535 4 508 510 514
536 4 508 510 515
537 4 508 510 516
538 7 514 510 515
539 7 514 510 516
540 7 515 510 516
541 13 663 666 665
542 4 665 666 667
543 4 665 666 668
544 6 667 666 668
545 11 662 661 663
546 11 662 661 664
547 12 663 661 664
548 9 661 663 666
549 4 436 438 442
550 4 436 438 443
551 4 436 438 444
552 7 442 438 443
553 7 442 438 444
554 7 443 438 444
555 9 433 436 438
556 9 433 435 437
557 11 434 433 435
558 11 434 433 436
559 12 435 433 436
560 11 74 73 75
561 11 74 73 76
562 12 75 73 76
563 4 75 77 79
564 4 75 77 80
565 4 75 77 81
566 7 79 77 80
567 7 79 77 81
568 7 80 77 81
569 9 73 75 77
570 4 484 486 490
571 4 484 486 491
572 4 484 486 492
573 7 490 486 491
574 7 490 486 492
575 7 491 486 492
576 9 581 584 585
577 9 25 27 29
578 4 27 29 31
579 4 27 29 32
580 4 27 29 33
581 7 31 29 32
582 7 31 29 33
583 7 32 29 33
584 11 26 25 27
585 11 26 25 28
586 12 27 25 28
587 9 25 28 30
588 13 584 585 586
589 4 586 585 589
590 4 586 585 590
591 6 589 585 590
592 13 583 586 585
593 4 585 586 587
594 4 585 586 588
595 6 587 586 588
596 4 28 30 34
597 4 28 30 35
598 4 28 30 36
599 7 34 30 35
600 7 34 30 36
601 7 35 30 36
602 9 13 16 18
603 4 16 18 22
604 4 16 18 23
605 4 16 18 24
606 7 22 18 23
607 7 22 18 24
608 7 23 18 24
609 9 13 15 17
610 11 582 581 583
611 11 582 581 584
612 12 583 581 584
613 11 338 337 339
614 11 338 337 340
615 12 339 337 340
616 4 244 246 250
617 4 244 246 251
618 4 244 246 252
619 7 250 246 251
620 7 250 246 252
621 7 251 246 252
622 11 14 13 15
623 11 14 13 16
624 12 15 13 16
625 18 758 757 759
626 18 760 757 761
627 18 762 757 763
628 17 758 757 760
629 17 758 757 761
630 17 758 757 762
631 17 758 757 763
632 17 759 757 760
633 17 759 757 761
634 17 759 757 762
635 17 759 757 763
636 17 760 757 762
637 17 760 757 763
638 17 761 757 762
639 17 761 757 763
640 11 242 241 243
641 11 242 241 244
642 12 243 241 244
643 4 243 245 247
644 4 243 245 248
645 4 243 245 249
646 7 247 245 248
647 7 247 245 249
648 7 248 245 249
649 4 220 222 226
650 4 220 222 227
651 4 220 222 228
652 7 226 222 227
653 7 226 222 228
654 7 227 222 228
655 9 217 220 222
656 11 218 217 219
657 11 218 217 220
658 12 219 217 220
659 9 217 219 221
660 4 219 221 223
661 4 219 221 224
662 4 219 221 225
663 7 223 221 224
664 7 223 221 225
665 7 224 221 225
666 4 291 293 295
667 4 291 293 296
668 4 291 293 297
669 7 295 293 296
670 7 295 293 297
671 7 296 293 297
672 4 88 90 94
673 4 88 90 95
674 4 88 90 96
675 7 94 90 95
676 7 94 90 96
677 7 95 90 96
678 9 85 88 90
679 11 86 85 87
680 11 86 85 88
681 12 87 85 88
682 9 85 87 89
683 4 87 89 91
684 4 87 89 92
685 4 87 89 93
686 7 91 89 92
687 7 91 89 93
688 7 92 89 93
689 9 241 244 246
690 9 241 243 245
691 4 196 198 202
692 4 196 198 203
693 4 196 198 204
694 7 202 198 203
695 7 202 198 204
696 7 203 198 204
697 9 193 196 198
698 9 289 291 293
699 11 194 193 195
700 11 194 193 196
701 12 195 193 196
702 9 397 399 401
703 4 399 401 403
704 4 399 401 404
705 4 399 401 405
706 7 403 401 404
707 7 403 401 405
708 7 404 401 405
709 4 519 521 523
710 4 519 521 524
711 4 519 521 525
712 7 523 521 524
713 7 523 521 525
714 7 524 521 525
715 11 398 397 399
716 11 398 397 400
717 12 399 397 400
718 9 397 400 402
719 4 400 402 406
720 4 400 402 407
721 4 400 402 408
722 7 406 402 407
723 7 406 402 408
724 7 407 402 408
725 9 205 208 210
726 11 206 205 207
727 11 206 205 208
728 12 207 205 208
729 9 205 207 209
730 4 208 210 214
731 4 208 210 215
732 4 208 210 216
733 7 214 210 215
734 7 214 210 216
735 7 215 210 216
736 4 207 209 211
737 4 207 209 212
738 4 207 209 213
739 7 211 209 212
740 7 211 209 213
741 7 212 209 213
742 9 591 593 596
743 9 591 594 595
744 11 592 591 593
745 11 592 591 594
746 12 593 591 594
747 4 279 281 283
748 4 279 281 284
749 4 279 281 285
750 7 283 281 284
751 7 283 281 285
752 7 284 281 285
753 13 593 596 595
754 4 595 596 597
755 4 595 596 598
756 6 597 596 598
757 9 289 292 294
758 11 290 289 291
759 11 290 289 292
760 12 291 289 292
761 4 292 294 298
762 4 292 294 299
763 4 292 294 300
764 7 298 294 299
765 7 298 294 300
766 7 299 294 300
767 4 472 474 478
768 4 472 474 479
769 4 472 474 480
770 7 478 474 479
771 7 478 474 480
772 7 479 474 480
773 9 193 195 197
774 11 470 469 471
775 11 470 469 472
776 12 471 469 472
777 9 469 472 474
778 18 751 750 752
779 18 753 750 754
780 18 755 750 756
781 17 751 750 753
782 17 751 750 754
783 17 751 750 755
784 17 751 750 756
785 17 752 750 753
786 17 752 750 754
787 17 752 750 755
788 17 752 750 756
789 17 753 750 755
790 17 753 750 756
791 17 754 750 755
792 17 754 750 756
793 4 195 197 199
794 4 195 197 200
795 4 195 197 201
796 7 199 197 200
797 7 199 197 201
798 7 200 197 201
799 4 423 425 427
800 4 423 425 428
801 4 423 425 429
802 7 427 425 428
803 7 427 425 429
804 7 428 425 429
805 9 421 423 425
806 11 422 421 423
807 11 422 421 424
808 12 423 421 424
809 9 581 583 586
810 9 421 424 426
811 4 424 426 430
812 4 424 426 431
813 4 424 426 432
814 7 430 426 431
815 7 430 426 432
816 7 431 426 432
817 13 664 665 666
818 4 666 665 669
819 4 666 665 670
820 6 669 665 670
821 9 661 664 665
822 9 49 51 53
823 4 51 53 55
824 4 51 53 56
825 4 51 53 57
826 7 55 53 56
827 7 55 53 57
828 7 56 53 57
829 11 50 49 51
830 11 50 49 52
831 12 51 49 52
832 9 49 52 54
833 4 52 54 58
834 4 52 54 59
835 4 52 54 60
836 7 58 54 59
837 7 58 54 60
838 7 59 54 60
839 4 435 437 439
840 4 435 437 440
841 4 435 437 441
842 7 439 437 440
843 7 439 437 441
844 7 440 437 441
845 4 471 473 475
846 4 471 473 476
847 4 471 473 477
848 7 475 473 476
849 7 475 473 477
850 7 476 473 477
851 9 469 471 473
852 4 364 366 370
853 4 364 366 371
854 4 364 366 372
855 7 370 366 371
856 7 370 366 372
857 7 371 366 372
858 4 483 485 487
859 4 483 485 488
860 4 483 485 489
861 7 487 485 488
862 7 487 485 489
863 7 488 485 489
864 11 482 481 483
865 11 482 481 484
866 12 483 481 484
867 9 481 483 485
868 9 481 484 486
869 4 159 161 163
870 4 159 161 164
871 4 159 161 165
872 7 163 161 164
873 7 163 161 165
874 7 164 161 165
875 4 160 162 166
876 4 160 162 167
877 4 160 162 168
878 7 166 162 167
879 7 166 162 168
880 7 167 162 168
881 9 157 159 161
882 11 158 157 159
883 11 158 157 160
884 12 159 157 160
885 9 157 160 162
886 9 337 340 342
887 4 340 342 346
888 4 340 342 347
889 4 340 342 348
890 7 346 342 347
891 7 346 342 348
892 7 347 342 348
893 9 691 693 696
894 9 337 339 341
895 13 693 696 695
896 4 695 696 697
897 4 695 696 698
898 6 697 696 698
899 4 339 341 343
900 4 339 341 344
901 4 339 341 345
902 7 343 341 344
903 7 343 341 345
904 7 344 341 345
905 4 412 414 418
906 4 412 414 419
907 4 412 414 420
908 7 418 414 419
909 7 418 414 420
910 7 419 414 420
911 4 15 17 19
912 4 15 17 20
913 4 15 17 21
914 7 19 17 20
915 7 19 17 21
916 7 20 17 21
917 9 409 412 414
918 11 410 409 411
919 11 410 409 412
920 12 411 409 412
921 4 411 413 415
922 4 411 413 416
923 4 411 413 417
924 7 415 413 416
925 7 415 413 417
926 7 416 413 417
927 9 409 411 413
928 18 765 764 766
929 18 767 764 768
930 18 769 764 770
931 17 765 764 767
932 17 765 764 768
933 17 765 764 769
934 17 765 764 770
935 17 766 764 767
936 17 766 764 768
937 17 766 764 769
938 17 766 764 770
939 17 767 764 769
940 17 767 764 770
941 17 768 764 769
942 17 768 764 770
943 13 614 615 616
944 4 616 615 619
945 4 616 615 620
946 6 619 615 620
947 13 613 616 615
948 4 615 616 617
949 4 615 616 618
950 6 617 616 618
951 9 611 614 615
952 11 612 611 613
953 11 612 611 614
954 12 613 611 614
955 9 611 613 616
956 9 109 112 114
957 4 280 282 286
958 4 280 282 287
959 4 280 282 288
960 7 286 282 287
961 7 286 282 288
962 7 287 282 288
963 9 277 280 282
964 4 111 113 115
965 4 111 113 116
966 4 111 113 117
967 7 115 113 116
968 7 115 113 117
969 7 116 113 117
970 11 110 109 111
971 11 110 109 112
972 12 111 109 112
973 9 109 111 113
974 13 603 606 605
975 4 605 606 607
976 4 605 606 608
977 6 607 606 608
978 9 601 604 605
979 13 604 605 606
980 4 606 605 609
981 4 606 605 610
982 6 609 605 610
983 4 112 114 118
984 4 112 114 119
985 4 112 114 120
986 7 118 114 119
987 7 118 114 120
988 7 119 114 120
989 11 652 651 653
990 11 652 651 654
991 12 653 651 654
992 9 651 654 655
993 13 654 655 656
994 4 656 655 659
995 4 656 655 660
996 6 659 655 660
997 13 653 656 655
998 4 655 656 657
999 4 655 656 658
1000 6 657 656 658
1001 9 651 653 656
1002 9 169 172 174
1003 4 64 66 70
1004 4 64 66 71
1005 4 64 66 72
1006 7 70 66 71
1007 7 70 66 72
1008 7 71 66 72
1009 4 172 174 178
1010 4 172 174 179
1011 4 172 174 180
1012 7 178 174 179
1013 7 178 174 180
1014 7 179 174 180
1015 11 278 277 279
1016 11 278 277 280
1017 12 279 277 280
1018 9 277 279 281
1019 13 573 576 575
1020 4 575 576 577
1021 4 575 576 578
1022 6 577 576 578
1023 13 574 575 576
1024 4 576 575 579
1025 4 576 575 580
1026 6 579 575 580
1027 9 571 574 575
1028 9 571 573 576
1029 11 572 571 573
1030 11 572 571 574
1031 12 573 571 574
1032 9 641 643 646
1033 13 683 686 685
1034 4 685 686 687
1035 4 685 686 688
1036 6 687 686 688
1037 13 684 685 686
1038 4 686 685 689
1039 4 686 685 690
1040 6 689 685 690
1041 9 681 684 685
1042 11 682 681 683
1043 11 682 681 684
1044 12 683 681 684
1045 9 681 683 686
1046 11 642 641 643
1047 11 642 641 644
1048 12 643 641 644
1049 9 61 64 66
1050 4 63 65 67
1051 4 63 65 68
1052 4 63 65 69
1053 7 67 65 68
1054 7 67 65 69
1055 7 68 65 69
1056 11 62 61 63
1057 11 62 61 64
1058 12 63 61 64
1059 9 61 63 65
1060 9 1 3 5
1061 4 4 6 10
1062 4 4 6 11
1063 4 4 6 12
1064 7 10 6 11
1065 7 10 6 12
1066 7 11 6 12
1067 11 2 1 3
1068 11 2 1 4
1069 12 3 1 4
1070 9 1 4 6
1071 4 448 450 454
1072 4 448 450 455
1073 4 448 450 456
1074 7 454 450 455
1075 7 454 450 456
1076 7 455 450 456
1077 4 447 449 451
1078 4 447 449 452
1079 4 447 449 453
1080 7 451 449 452
1081 7 451 449 453
1082 7 452 449 453
1083 9 445 447 449
1084 11 446 445 447
1085 11 446 445 448
1086 12 447 445 448
1087 9 445 448 450

Dihedrals

1 6 349 351 353 355
2 6 349 351 353 356
3 6 349 351 353 357
4 6 361 364 366 370
5 6 361 364 366 371
6 6 361 364 366 372
7 6 385 387 389 391
8 6 385 387 389 392
9 6 385 387 389 393
10 8 386 385 387 389
11 8 386 385 388 390
12 6 385 388 390 394
13 6 385 388 390 395
14 6 385 388 390 396
15 8 622 621 623 626
16 8 622 621 624 625
17 6 265 267 269 271
18 6 265 267 269 272
19 6 265 267 269 273
20 7 621 624 625 626
21 7 623 626 625 624
22 5 621 623 626 625
23 8 692 691 693 696
24 8 692 691 694 695
25 7 691 694 695 696
26 6 313 315 317 319
27 6 313 315 317 320
28 6 313 315 317 321
29 8 314 313 315 317
30 8 314 313 316 318
31 8 362 361 363 365
32 8 362 361 364 366
33 6 361 363 365 367
34 6 361 363 365 368
35 6 361 363 365 369
36 6 301 303 305 307
37 6 301 303 305 308
38 6 301 303 305 309
39 6 493 495 497 499
40 6 493 495 497 500
41 6 493 495 497 501
42 6 493 496 498 502
43 6 493 496 498 503
44 6 493 496 498 504
45 8 494 493 495 497
46 8 494 493 496 498
47 8 672 671 673 676
48 8 672 671 674 675
49 7 671 674 675 676
50 5 671 673 676 675
51 6 133 135 137 139
52 6 133 135 137 140
53 6 133 135 137 141
54 5 601 603 606 605
55 8 602 601 603 606
56 8 602 601 604 605
57 8 134 133 135 137
58 8 134 133 136 138
59 6 133 136 138 142
60 6 133 136 138 143
61 6 133 136 138 144
62 6 457 460 462 466
63 6 457 460 462 467
64 6 457 460 462 468
65 8 458 457 459 461
66 8 458 457 460 462
67 6 457 459 461 463
68 6 457 459 461 464
69 6 457 459 461 465
70 8 302 301 303 305
71 8 302 301 304 306
72 6 301 304 306 310
73 6 301 304 306 311
74 6 301 304 306 312
75 6 181 183 185 187
76 6 181 183 185 188
77 6 181 183 185 189
78 8 170 169 171 173
79 8 170 169 172 174
80 6 169 171 173 175
81 6 169 171 173 176
82 6 169 171 173 177
83 6 325 328 330 334
84 6 325 328 330 335
85 6 325 328 330 336
86 7 673 676 675 674
87 8 326 325 327 329
88 8 326 325 328 330
89 6 97 100 102 106
90 6 97 100 102 107
91 6 97 100 102 108
92 8 98 97 99 101
93 8 98 97 100 102
94 7 713 716 715 714
95 8 712 711 713 716
96 8 712 711 714 715
97 6 97 99 101 103
98 6 97 99 101 104
99 6 97 99 101 105
100 6 265 268 270 274
101 6 265 268 270 275
102 6 265 268 270 276
103 7 643 646 645 644
104 7 711 714 715 716
105 8 182 181 183 185
106 8 182 181 184 186
107 6 181 184 186 190
108 6 181 184 186 191
109 6 181 184 186 192
110 7 641 644 645 646
111 8 266 265 267 269
112 8 266 265 268 270
113 6 325 327 329 331
114 6 325 327 329 332
115 6 325 327 329 333
116 6 373 375 377 379
117 6 373 375 377 380
118 6 373 375 377 381
119 8 374 373 375 377
120 8 374 373 376 378
121 6 373 376 378 382
122 6 373 376 378 383
123 6 373 376 378 384
124 6 349 352 354 358
125 6 349 352 354 359
126 6 349 352 354 360
127 8 350 349 351 353
128 8 350 349 352 354
129 6 73 76 78 82
130 6 73 76 78 83
131 6 73 76 78 84
132 7 703 706 705 704
133 8 702 701 703 706
134 8 702 701 704 705
135 7 701 704 705 706
136 6 505 507 509 511
137 6 505 507 509 512
138 6 505 507 509 513
139 8 506 505 507 509
140 8 506 505 508 510
141 6 505 508 510 514
142 6 505 508 510 515
143 6 505 508 510 516
144 6 313 316 318 322
145 6 313 316 318 323
146 6 313 316 318 324
147 6 145 147 149 151
148 6 145 147 149 152
149 6 145 147 149 153
150 8 562 561 563 566
151 8 562 561 564 565
152 6 145 148 150 154
153 6 145 148 150 155
154 6 145 148 150 156
155 7 561 564 565 566
156 8 146 145 147 149
157 8 146 145 148 150
158 6 253 256 258 262
159 6 253 256 258 263
160 6 253 256 258 264
161 6 253 255 257 259
162 6 253 255 257 260
163 6 253 255 257 261
164 8 254 253 255 257
165 8 254 253 256 258
166 8 530 529 531 533
167 8 530 529 532 534
168 6 529 532 534 538
169 6 529 532 534 539
170 6 529 532 534 540
171 5 701 703 706 705
172 6 529 531 533 535
173 6 529 531 533 536
174 6 529 531 533 537
175 8 230 229 231 233
176 8 230 229 232 234
177 6 229 231 233 235
178 6 229 231 233 236
179 6 229 231 233 237
180 6 229 232 234 238
181 6 229 232 234 239
182 6 229 232 234 240
183 6 37 40 42 46
184 6 37 40 42 47
185 6 37 40 42 48
186 8 38 37 39 41
187 8 38 37 40 42
188 6 37 39 41 43
189 6 37 39 41 44
190 6 37 39 41 45
191 5 561 563 566 565
192 7 563 566 565 564
193 6 121 124 126 130
194 6 121 124 126 131
195 6 121 124 126 132
196 8 122 121 123 125
197 8 122 121 124 126
198 6 121 123 125 127
199 6 121 123 125 128
200 6 121 123 125 129
201 8 518 517 519 521
202 8 518 517 520 522
203 6 517 519 521 523
204 6 517 519 521 524
205 6 517 519 521 525
206 6 517 520 522 526
207 6 517 520 522 527
208 6 517 520 522 528
209 7 721 724 725 726
210 8 722 721 723 726
211 8 722 721 724 725
212 5 721 723 726 725
213 7 723 726 725 724
214 7 543 546 545 544
215 5 541 543 546 545
216 8 542 541 543 546
217 8 542 541 544 545
218 7 541 544 545 546
219 5 711 713 716 715
220 7 631 634 635 636
221 7 633 636 635 634
222 8 632 631 633 636
223 8 632 631 634 635
224 5 631 633 636 635
225 7 553 556 555 554
226 7 551 554 555 556
227 5 551 553 556 555
228 8 552 551 553 556
229 8 552 551 554 555
230 7 663 666 665 664
231 8 662 661 663 666
232 8 662 661 664 665
233 5 661 663 666 665
234 6 433 436 438 442
235 6 433 436 438 443
236 6 433 436 438 444
237 6 433 435 437 439
238 6 433 435 437 440
239 6 433 435 437 441
240 8 434 433 435 437
241 8 434 433 436 438
242 8 74 73 75 77
243 8 74 73 76 78
244 6 73 75 77 79
245 6 73 75 77 80
246 6 73 75 77 81
247 7 581 584 585 586
248 6 25 27 29 31
249 6 25 27 29 32
250 6 25 27 29 33
251 8 26 25 27 29
252 8 26 25 28 30
253 6 25 28 30 34
254 6 25 28 30 35
255 6 25 28 30 36
256 7 583 586 585 584
257 6 13 16 18 22
258 6 13 16 18 23
259 6 13 16 18 24
260 6 13 15 17 19
261 6 13 15 17 20
262 6 13 15 17 21
263 8 582 581 583 586
264 8 582 581 584 585
265 8 338 337 339 341
266 8 338 337 340 342
267 8 14 13 15 17
268 8 14 13 16 18
269 8 242 241 243 245
270 8 242 241 244 246
271 6 217 220 222 226
272 6 217 220 222 227
273 6 217 220 222 228
274 8 218 217 219 221
275 8 218 217 220 222
276 6 217 219 221 223
277 6 217 219 221 224
278 6 217 219 221 225
279 6 85 88 90 94
280 6 85 88 90 95
281 6 85 88 90 96
282 8 86 85 87 89
283 8 86 85 88 90
284 6 85 87 89 91
285 6 85 87 89 92
286 6 85 87 89 93
287 6 241 244 246 250
288 6 241 244 246 251
289 6 241 244 246 252
290 6 241 243 245 247
291 6 241 243 245 248
292 6 241 243 245 249
293 6 193 196 198 202
294 6 193 196 198 203
295 6 193 196 198 204
296 6 289 291 293 295
297 6 289 291 293 296
298 6 289 291 293 297
299 8 194 193 195 197
300 8 194 193 196 198
301 6 397 399 401 403
302 6 397 399 401 404
303 6 397 399 401 405
304 8 398 397 399 401
305 8 398 397 400 402
306 6 397 400 402 406
307 6 397 400 402 407
308 6 397 400 402 408
309 6 205 208 210 214
310 6 205 208 210 215
311 6 205 208 210 216
312 8 206 205 207 209
313 8 206 205 208 210
314 6 205 207 209 211
315 6 205 207 209 212
316 6 205 207 209 213
317 5 591 593 596 595
318 7 591 594 595 596
319 8 592 591 593 596
320 8 592 591 594 595
321 7 593 596 595 594
322 6 289 292 294 298
323 6 289 292 294 299
324 6 289 292 294 300
325 8 290 289 291 293
326 8 290 289 292 294
327 6 193 195 197 199
328 6 193 195 197 200
329 6 193 195 197 201
330 8 470 469 471 473
331 8 470 469 472 474
332 6 469 472 474 478
333 6 469 472 474 479
334 6 469 472 474 480
335 6 421 423 425 427
336 6 421 423 425 428
337 6 421 423 425 429
338 8 422 421 423 425
339 8 422 421 424 426
340 5 581 583 586 585
341 6 421 424 426 430
342 6 421 424 426 431
343 6 421 424 426 432
344 7 661 664 665 666
345 6 49 51 53 55
346 6 49 51 53 56
347 6 49 51 53 57
348 8 50 49 51 53
349 8 50 49 52 54
350 6 49 52 54 58
351 6 49 52 54 59
352 6 49 52 54 60
353 6 469 471 473 475
354 6 469 471 473 476
355 6 469 471 473 477
356 8 482 481 483 485
357 8 482 481 484 486
358 6 481 483 485 487
359 6 481 483 485 488
360 6 481 483 485 489
361 6 481 484 486 490
362 6 481 484 486 491
363 6 481 484 486 492
364 6 157 159 161 163
365 6 157 159 161 164
366 6 157 159 161 165
367 8 158 157 159 161
368 8 158 157 160 162
369 6 157 160 162 166
370 6 157 160 162 167
371 6 157 160 162 168
372 6 337 340 342 346
373 6 337 340 342 347
374 6 337 340 342 348
375 5 691 693 696 695
376 6 337 339 341 343
377 6 337 339 341 344
378 6 337 339 341 345
379 7 693 696 695 694
380 6 409 412 414 418
381 6 409 412 414 419
382 6 409 412 414 420
383 8 410 409 411 413
384 8 410 409 412 414
385 6 409 411 413 415
386 6 409 411 413 416
387 6 409 411 413 417
388 7 613 616 615 614
389 7 611 614 615 616
390 8 612 611 613 616
391 8 612 611 614 615
392 5 611 613 616 615
393 6 109 112 114 118
394 6 109 112 114 119
395 6 109 112 114 120
396 6 277 280 282 286
397 6 277 280 282 287
398 6 277 280 282 288
399 8 110 109 111 113
400 8 110 109 112 114
401 6 109 111 113 115
402 6 109 111 113 116
403 6 109 111 113 117
404 7 603 606 605 604
405 7 601 604 605 606
406 8 652 651 653 656
407 8 652 651 654 655
408 7 651 654 655 656
409 7 653 656 655 654
410 5 651 653 656 655
411 6 169 172 174 178
412 6 169 172 174 179
413 6 169 172 174 180
414 8 278 277 279 281
415 8 278 277 280 282
416 6 277 279 281 283
417 6 277 279 281 284
418 6 277 279 281 285
419 7 573 576 575 574
420 7 571 574 575 576
421 5 571 573 576 575
422 8 572 571 573 576
423 8 572 571 574 575
424 5 641 643 646 645
425 7 683 686 685 684
426 7 681 684 685 686
427 8 682 681 683 686
428 8 682 681 684 685
429 5 681 683 686 685
430 8 642 641 643 646
431 8 642 641 644 645
432 6 61 64 66 70
433 6 61 64 66 71
434 6 61 64 66 72
435 8 62 61 63 65
436 8 62 61 64 66
437 6 61 63 65 67
438 6 61 63 65 68
439 6 61 63 65 69
440 6 1 3 5 7
441 6 1 3 5 8
442 6 1 3 5 9
443 8 2 1 3 5
444 8 2 1 4 6
445 6 1 4 6 10
446 6 1 4 6 11
447 6 1 4 6 12
448 6 445 447 449 451
449 6 445 447 449 452
450 6 445 447 449 453
451 8 446 445 447 449
452 8 446 445 448 450
453 6 445 448 450 454
454 6 445 448 450 455
455 6 445 448 450 456
