LAMMPS (23 Jun 2022 - Update 4)
# =============================================================================
# LAMMPS Minimization Input Script (Single-Step Soft Potential Strategy)
# Generated by Jinja2 template engine
# Generation time: 2026-06-29T22:38:42.869989800
# Job ID: 1290001
# =============================================================================
#
# Single-step soft potential minimization strategy:
#   Use soft potential with small cutoff (2.5A) and A=1000 to resolve
#   inter-molecular overlaps without disturbing properly packed atoms.
#
# CRITICAL FIX (v5):
#   v4 used multi-cutoff strategy (2.5 -> 4.0 -> 6.0) which DESTROYED the
#   structure. The soft potential with larger cutoffs (4.0, 6.0) pushed
#   apart atoms at legitimate distances (2.5-6.0A), causing the molecular
#   structure to collapse. Testing showed:
#     - After step 1 (rc=2.5): min distance 1.07A, 0 pairs < 1.0A (PERFECT)
#     - After step 2 (rc=4.0): min distance 0.00A, 891 pairs < 1.0A (DESTROYED)
#     - After step 3 (rc=6.0): min distance 0.00A, 3937 pairs < 1.0A (WORSE)
#   v5 uses ONLY a single step with rc=2.5, which resolves all close contacts
#   without disturbing the properly packed structure.
#
# Why small cutoff (2.5A) works:
#   - Packmol initial structure typically has only a few close contacts
#     (min distance ~0.67A, 4 pairs < 1.0A)
#   - Soft potential with rc=2.5A only acts on pairs < 2.5A
#   - Special_bonds lj 0 0 0.5 protects bonded pairs (1-2, 1-3)
#   - A=1000 gives max force 800 at r=0, strong enough to push apart overlaps
#     but only within the small cutoff range
#
# Bond force constants for reference:
#   C-C (sp3): k=268, C=C: k=414, C=O: k=570, C-H: k=340, C-O: k=320
#   Angle force constants: k=50-80
#   With A=1000, rc=2.5: max soft force = 2*1000/2.5 = 800
#   This is stronger than angle forces (50-80) and comparable to bond forces
#   (268-570), but only acts on non-bonded pairs within 2.5A.

# =============================================================================
# Single Step: Soft potential with small cutoff (2.5A) - resolve all overlaps
# =============================================================================
units           real
atom_style      full
dimension       3
boundary        p p p

# Bonded interactions (needed for bond/angle force computation)
bond_style      harmonic
angle_style     harmonic
dihedral_style  none
improper_style  none

# Use lj/cut first to match the pair_coeff format in system.in.settings
pair_style      lj/cut/coul/cut 8.0 8.0
special_bonds   lj 0.0 0.0 0.5 coul 0.0 0.0 0.5
kspace_style    none

# Read structure file
read_data       system.data
Reading data file ...
  orthogonal box = (0 0 0) to (20 20 20)
  1 by 1 by 1 MPI processor grid
  reading atoms ...
  770 atoms
  scanning bonds ...
  6 = max bonds/atom
  scanning angles ...
  15 = max angles/atom
  scanning dihedrals ...
  3 = max dihedrals/atom
  reading bonds ...
  715 bonds
  reading angles ...
  1087 angles
  reading dihedrals ...
  455 dihedrals
Finding 1-2 1-3 1-4 neighbors ...
  special bond factors lj:    0        0        0.5     
  special bond factors coul:  0        0        0.5     
     6 = max # of 1-2 neighbors
     5 = max # of 1-3 neighbors
     9 = max # of 1-4 neighbors
    11 = max # of special neighbors
  special bonds CPU = 0.000 seconds
  read_data CPU = 0.027 seconds

# Include force field parameters (bond_coeff, angle_coeff)
include         system.in.settings
pair_coeff 1 1 0.066 3.50
pair_coeff 2 2 0.066 3.50
pair_coeff 3 3 0.066 3.50
pair_coeff 4 4 0.066 3.50
pair_coeff 5 5 0.070 3.55
pair_coeff 6 6 0.070 3.55
pair_coeff 7 7 0.070 3.55
pair_coeff 8 8 0.070 3.55
pair_coeff 9 9 0.105 3.75
pair_coeff 10 10 0.105 3.75
pair_coeff 11 11 0.030 2.50
pair_coeff 12 12 0.030 2.50
pair_coeff 13 13 0.030 2.50
pair_coeff 14 14 0.030 2.42
pair_coeff 15 15 0.030 2.50
pair_coeff 16 16 0.030 2.50
pair_coeff 17 17 0.030 2.50
pair_coeff 18 18 0.170 3.00
pair_coeff 19 19 0.170 3.00
pair_coeff 20 20 0.170 2.96
pair_coeff 21 21 0.170 3.00
pair_coeff 22 22 0.170 3.25
pair_coeff 23 23 0.170 3.25
pair_coeff 24 24 0.170 3.25
pair_coeff 25 25 0.170 3.25
pair_coeff 26 26 0.255 2.95
pair_coeff 27 27 0.200 3.70
pair_coeff 28 28 0.0025 1.506
pair_coeff 29 29 0.250 3.55
pair_coeff 30 30 0.250 3.55
#  -
bond_coeff 1  268.0  1.529   # C-C   (sp3-sp3)
bond_coeff 2  414.0  1.330   # C=C   (sp2-sp2)
bond_coeff 3 320.0  1.400   #   C-C

#  -
bond_coeff 4     340.0  1.090   # C-H  (sp3 )
bond_coeff 5     340.0  1.080   # C-H  (sp2 )
bond_coeff 6    340.0  1.080   # C-H  (   )

#  -
bond_coeff 7  320.0  1.410   # C-O   (   )
bond_coeff 8  570.0  1.229   # C=O   (  )
bond_coeff 9    320.0  1.360   # C-O  (  )

#  -
bond_coeff 10  300.0  1.470   # C-N   ( )
bond_coeff 11  440.0  1.270   # C=N   (  )
bond_coeff 12   350.0  1.340   # C-N  (  )

#  -
bond_coeff 13         340.0  0.960   # O-H  (    )

#  -
bond_coeff 14         340.0  1.010   # N-H  ( )

#  -   (PF6)
bond_coeff 15         420.0  1.560   # P-F  (     )

#  -
bond_coeff 16         200.0  1.810   # S-C  (  )

#  -
bond_coeff 17         300.0  1.430   # S-O  (   )
#  - -
angle_coeff 1    50.0  109.5   # C-C-C (sp3)
angle_coeff 2    80.0  120.0   # C-C-C (sp2)
angle_coeff 3   60.0  120.0   # C-C-C (  )

#  - -
angle_coeff 4    37.5  110.7   # C-C-H (sp3)
angle_coeff 5    40.0  120.0   # C-C-H (sp2)

#  - -
angle_coeff 6    33.0  106.4   # H-C-H (sp3   )
angle_coeff 7   33.0  107.8   # H-C-H (sp3  )
angle_coeff 8    35.0  120.0   # H-C-H (sp2)

#  - -
angle_coeff 9  60.0  109.5   # C-O-C ( )
angle_coeff 10  60.0  124.0   # C-O-C ( )

#  - -
angle_coeff 11   80.0  123.0   # O-C=O (  )
angle_coeff 12  80.0  120.4   # O-C-O ( )

#  - -
angle_coeff 13        50.0  109.5   # C-C-O

#  - -
angle_coeff 14        50.0  109.5   # C-O-H ( )

#  - -
angle_coeff 15        50.0  109.5   # C-N-C ( )
angle_coeff 16  50.0  120.0   # C-N-C (  )

#  - -    (PF6)
angle_coeff 17        80.0   90.0   # F-P-F (     )
angle_coeff 18    80.0  180.0   # F-P-F (  )
#  - - -

#  - - -

#  - - -

#  - - -

#  - - -

#  - - -

#  - - =
#

#
pair_coeff 31 31 0.00034 2.126

# Switch to soft potential with small cutoff (2.5A)
# A=1000: strong repulsive force (max 2*A/rc = 800 at r=0)
# Only acts on pairs < 2.5A, preserving properly packed structure
pair_style      soft 2.5
pair_coeff      * * 1000.0

# Neighbor list settings
neighbor        2.0 bin
neigh_modify    every 1 delay 0 check yes

# Thermodynamic output
thermo          100
thermo_style    custom step temp pe ke etotal press vol

# SD minimization (Steepest Descent - robust for high-energy starts)
min_style       sd
minimize        1e-06 0.0001 5000 5000
Generated 0 of 465 mixed pair_coeff terms from geometric mixing rule
WARNING: Dihedrals are defined but no dihedral style is set (../force.cpp:202)
WARNING: Likewise 1-4 special neighbor interactions != 1.0 (../force.cpp:204)
Neighbor list info ...
  update every 1 steps, delay 0 steps, check yes
  max neighbors/atom: 2000, page size: 100000
  master list distance cutoff = 4.5
  ghost atom cutoff = 4.5
  binsize = 2.25, bins = 9 9 9
  1 neighbor lists, perpetual/occasional/extra = 1 0 0
  (1) pair soft, perpetual
      attributes: half, newton on
      pair build: half/bin/newton
      stencil: half/bin/3d
      bin: standard
WARNING: Communication cutoff 4.5 is shorter than a bond length based estimate of 4.715. This may lead to errors. (../comm.cpp:727)
Per MPI rank memory allocation (min/avg/max) = 13.3 | 13.3 | 13.3 Mbytes
   Step          Temp          PotEng         KinEng         TotEng         Press          Volume    
         0   0              159772.06      0              159772.06      1909989.2      8000         
       100   0              1481.7688      0              1481.7688      101046.94      8000         
       200   0              775.37556      0              775.37556      63867.684      8000         
       300   0              514.15604      0              514.15604      47084.931      8000         
       400   0              385.86241      0              385.86241      36749.013      8000         
       500   0              313.35396      0              313.35396      30759.428      8000         
       600   0              270.77462      0              270.77462      26873.343      8000         
       700   0              240.94253      0              240.94253      23571.557      8000         
       800   0              217.79932      0              217.79932      20842.646      8000         
       900   0              199.77413      0              199.77413      18527.363      8000         
      1000   0              185.44439      0              185.44439      16690.354      8000         
      1100   0              174.31549      0              174.31549      15191.503      8000         
      1200   0              165.60012      0              165.60012      13983.725      8000         
      1300   0              158.78788      0              158.78788      13018.167      8000         
      1400   0              153.10035      0              153.10035      12204.048      8000         
      1500   0              148.07719      0              148.07719      11471.127      8000         
      1600   0              143.66911      0              143.66911      10921.977      8000         
      1700   0              139.73444      0              139.73444      10406.363      8000         
      1800   0              136.13901      0              136.13901      9902.9879      8000         
      1900   0              132.88505      0              132.88505      9445.8598      8000         
      2000   0              129.96213      0              129.96213      8986.2883      8000         
      2100   0              127.25296      0              127.25296      8564.9414      8000         
      2200   0              124.75561      0              124.75561      8211.0764      8000         
      2300   0              122.44009      0              122.44009      7860.5939      8000         
      2400   0              120.27831      0              120.27831      7524.0934      8000         
      2500   0              118.24658      0              118.24658      7215.0543      8000         
      2515   0              117.97364      0              117.97364      7054.0821      8000         
Loop time of 0.437345 on 1 procs for 2515 steps with 770 atoms

97.9% CPU use with 1 MPI tasks x no OpenMP threads

Minimization stats:
  Stopping criterion = max force evaluations
  Energy initial, next-to-last, final = 
      159772.062217906   117.978444849486   117.973635463747
  Force two-norm initial, final = 30585.243 24.57737
  Force max component initial, final = 4225.1521 7.4266426
  Final line search alpha, max atom move = 0.017331759 0.12871678
  Iterations, force evaluations = 2515 5001

MPI task timing breakdown:
Section |  min time  |  avg time  |  max time  |%varavg| %total
---------------------------------------------------------------
Pair    | 0.20643    | 0.20643    | 0.20643    |   0.0 | 47.20
Bond    | 0.18193    | 0.18193    | 0.18193    |   0.0 | 41.60
Neigh   | 0.0029987  | 0.0029987  | 0.0029987  |   0.0 |  0.69
Comm    | 0.01505    | 0.01505    | 0.01505    |   0.0 |  3.44
Output  | 0.0015843  | 0.0015843  | 0.0015843  |   0.0 |  0.36
Modify  | 0          | 0          | 0          |   0.0 |  0.00
Other   |            | 0.02935    |            |       |  6.71

Nlocal:            770 ave         770 max         770 min
Histogram: 1 0 0 0 0 0 0 0 0 0
Nghost:           1357 ave        1357 max        1357 min
Histogram: 1 0 0 0 0 0 0 0 0 0
Neighs:          12397 ave       12397 max       12397 min
Histogram: 1 0 0 0 0 0 0 0 0 0

Total # of neighbors = 12397
Ave neighs/atom = 16.1
Ave special neighs/atom = 6.7376623
Neighbor list builds = 4
Dangerous builds = 0

# Write final minimized configuration
write_data      minimized.data nocoeff
System init for write_data ...
Generated 0 of 465 mixed pair_coeff terms from geometric mixing rule
WARNING: Dihedrals are defined but no dihedral style is set (../force.cpp:202)
WARNING: Likewise 1-4 special neighbor interactions != 1.0 (../force.cpp:204)
WARNING: Communication cutoff 4.5 is shorter than a bond length based estimate of 4.715. This may lead to errors. (../comm.cpp:727)
Total wall time: 0:00:00
LAMMPS (23 Jun 2022 - Update 4)
# =============================================================================
# LAMMPS Equilibrium Input Script (Gradual LJ Transition via NVE/limit)
# Generated by Jinja2 template engine
# Generation time: 2026-06-29T22:38:42.869989800
# Job ID: 1290001
# =============================================================================
#
# Six-phase gradual relaxation strategy:
#   Phase 0: NVE/limit with real LJ (cutoff=4.0A) and tiny timestep.
#            After soft potential minimization, atoms are at safe distances
#            (>= ~2.5A). NVE/limit with small displacement limit (0.02A)
#            safely transitions to real LJ dynamics without energy explosions.
#   Phase 1: NVE/limit with cutoff=5.0A.
#   Phase 2: NVE/limit with cutoff=6.0A.
#   Phase 3: NVE/limit with full cutoff=8.0A.
#   Phase 4: NVT thermostat at target temperature.
#   Phase 5: NPT barostat at target pressure.
#
# CRITICAL FIX (v4):
#   v3 used CG minimization for the LJ transition (Phase 0), which failed
#   because CG can make large steps that cause atoms to overlap.
#   v4 uses NVE/limit which limits displacement per step, preventing
#   energy explosions even if some close contacts remain.
#
# Why NVE/limit instead of CG minimization:
#   - CG minimization uses line search, which can fail (alpha=0) when forces
#     are extreme, leaving the structure unrelaxed.
#   - NVE/limit simply limits displacement per step, always making progress.
#   - NVE/limit is faster (no line search) and more robust.

# Initialization settings
units           real
atom_style      full
dimension       3
boundary        p p p

# Force field styles
bond_style      harmonic
angle_style     harmonic
dihedral_style  none
improper_style  none

# Start with real LJ at small cutoff=4.0A for safe transition
pair_style      lj/cut/coul/cut 4.0 4.0
special_bonds   lj 0.0 0.0 0.5 coul 0.0 0.0 0.5
kspace_style    none

# Read the FINAL minimized configuration (from minimization step 3)
read_data       minimized.data
Reading data file ...
  orthogonal box = (0 0 0) to (20 20 20)
  1 by 1 by 1 MPI processor grid
  reading atoms ...
  770 atoms
  reading velocities ...
  770 velocities
  scanning bonds ...
  6 = max bonds/atom
  scanning angles ...
  15 = max angles/atom
  scanning dihedrals ...
  3 = max dihedrals/atom
  reading bonds ...
  715 bonds
  reading angles ...
  1087 angles
  reading dihedrals ...
  455 dihedrals
Finding 1-2 1-3 1-4 neighbors ...
  special bond factors lj:    0        0        0.5     
  special bond factors coul:  0        0        0.5     
     6 = max # of 1-2 neighbors
     5 = max # of 1-3 neighbors
     9 = max # of 1-4 neighbors
    11 = max # of special neighbors
  special bonds CPU = 0.000 seconds
  read_data CPU = 0.030 seconds

# Include force field parameters (bond_coeff, angle_coeff, pair_coeff)
include         system.in.settings
pair_coeff 1 1 0.066 3.50
pair_coeff 2 2 0.066 3.50
pair_coeff 3 3 0.066 3.50
pair_coeff 4 4 0.066 3.50
pair_coeff 5 5 0.070 3.55
pair_coeff 6 6 0.070 3.55
pair_coeff 7 7 0.070 3.55
pair_coeff 8 8 0.070 3.55
pair_coeff 9 9 0.105 3.75
pair_coeff 10 10 0.105 3.75
pair_coeff 11 11 0.030 2.50
pair_coeff 12 12 0.030 2.50
pair_coeff 13 13 0.030 2.50
pair_coeff 14 14 0.030 2.42
pair_coeff 15 15 0.030 2.50
pair_coeff 16 16 0.030 2.50
pair_coeff 17 17 0.030 2.50
pair_coeff 18 18 0.170 3.00
pair_coeff 19 19 0.170 3.00
pair_coeff 20 20 0.170 2.96
pair_coeff 21 21 0.170 3.00
pair_coeff 22 22 0.170 3.25
pair_coeff 23 23 0.170 3.25
pair_coeff 24 24 0.170 3.25
pair_coeff 25 25 0.170 3.25
pair_coeff 26 26 0.255 2.95
pair_coeff 27 27 0.200 3.70
pair_coeff 28 28 0.0025 1.506
pair_coeff 29 29 0.250 3.55
pair_coeff 30 30 0.250 3.55
#  -
bond_coeff 1  268.0  1.529   # C-C   (sp3-sp3)
bond_coeff 2  414.0  1.330   # C=C   (sp2-sp2)
bond_coeff 3 320.0  1.400   #   C-C

#  -
bond_coeff 4     340.0  1.090   # C-H  (sp3 )
bond_coeff 5     340.0  1.080   # C-H  (sp2 )
bond_coeff 6    340.0  1.080   # C-H  (   )

#  -
bond_coeff 7  320.0  1.410   # C-O   (   )
bond_coeff 8  570.0  1.229   # C=O   (  )
bond_coeff 9    320.0  1.360   # C-O  (  )

#  -
bond_coeff 10  300.0  1.470   # C-N   ( )
bond_coeff 11  440.0  1.270   # C=N   (  )
bond_coeff 12   350.0  1.340   # C-N  (  )

#  -
bond_coeff 13         340.0  0.960   # O-H  (    )

#  -
bond_coeff 14         340.0  1.010   # N-H  ( )

#  -   (PF6)
bond_coeff 15         420.0  1.560   # P-F  (     )

#  -
bond_coeff 16         200.0  1.810   # S-C  (  )

#  -
bond_coeff 17         300.0  1.430   # S-O  (   )
#  - -
angle_coeff 1    50.0  109.5   # C-C-C (sp3)
angle_coeff 2    80.0  120.0   # C-C-C (sp2)
angle_coeff 3   60.0  120.0   # C-C-C (  )

#  - -
angle_coeff 4    37.5  110.7   # C-C-H (sp3)
angle_coeff 5    40.0  120.0   # C-C-H (sp2)

#  - -
angle_coeff 6    33.0  106.4   # H-C-H (sp3   )
angle_coeff 7   33.0  107.8   # H-C-H (sp3  )
angle_coeff 8    35.0  120.0   # H-C-H (sp2)

#  - -
angle_coeff 9  60.0  109.5   # C-O-C ( )
angle_coeff 10  60.0  124.0   # C-O-C ( )

#  - -
angle_coeff 11   80.0  123.0   # O-C=O (  )
angle_coeff 12  80.0  120.4   # O-C-O ( )

#  - -
angle_coeff 13        50.0  109.5   # C-C-O

#  - -
angle_coeff 14        50.0  109.5   # C-O-H ( )

#  - -
angle_coeff 15        50.0  109.5   # C-N-C ( )
angle_coeff 16  50.0  120.0   # C-N-C (  )

#  - -    (PF6)
angle_coeff 17        80.0   90.0   # F-P-F (     )
angle_coeff 18    80.0  180.0   # F-P-F (  )
#  - - -

#  - - -

#  - - -

#  - - -

#  - - -

#  - - -

#  - - =
#

#
pair_coeff 31 31 0.00034 2.126

# Neighbor list settings
neighbor        2.0 bin
neigh_modify    every 1 delay 0 check yes

# Thermodynamic output
thermo          100
thermo_style    custom step temp pe ke etotal press vol density

# =============================================================================
# Phase 0: NVE/limit with real LJ (cutoff=4.0A)
# Very small timestep (0.05 fs) and strict displacement limit (0.02 A).
# This safely transitions from soft potential to real LJ dynamics.
# =============================================================================
timestep        0.05
fix             nve_limit all nve/limit 0.02
run             500
Generated 465 of 465 mixed pair_coeff terms from geometric mixing rule
WARNING: Dihedrals are defined but no dihedral style is set (../force.cpp:202)
WARNING: Likewise 1-4 special neighbor interactions != 1.0 (../force.cpp:204)
Neighbor list info ...
  update every 1 steps, delay 0 steps, check yes
  max neighbors/atom: 2000, page size: 100000
  master list distance cutoff = 6
  ghost atom cutoff = 6
  binsize = 3, bins = 7 7 7
  1 neighbor lists, perpetual/occasional/extra = 1 0 0
  (1) pair lj/cut/coul/cut, perpetual
      attributes: half, newton on
      pair build: half/bin/newton
      stencil: half/bin/3d
      bin: standard
Per MPI rank memory allocation (min/avg/max) = 12.23 | 12.23 | 12.23 Mbytes
   Step          Temp          PotEng         KinEng         TotEng         Press          Volume        Density    
         0   0             -1359.5215      0             -1359.5215      64387.252      8000           1.3463241    
       100   85.577642     -1566.9775      196.16474     -1370.8127      62516.86       8000           1.3463241    
       200   191.89615     -1885.4432      439.87259     -1445.5706      55841.822      8000           1.3463241    
       300   256.63733     -2006.1893      588.27511     -1417.9141      52962.551      8000           1.3463241    
       400   290.27837     -1854.8498      665.38853     -1189.4613      48158.217      8000           1.3463241    
       500   327.48405     -1729.1631      750.67299     -978.49011      43650.765      8000           1.3463241    
Loop time of 0.108302 on 1 procs for 500 steps with 770 atoms

Performance: 19.944 ns/day, 1.203 hours/ns, 4616.725 timesteps/s
100.0% CPU use with 1 MPI tasks x no OpenMP threads

MPI task timing breakdown:
Section |  min time  |  avg time  |  max time  |%varavg| %total
---------------------------------------------------------------
Pair    | 0.084408   | 0.084408   | 0.084408   |   0.0 | 77.94
Bond    | 0.017856   | 0.017856   | 0.017856   |   0.0 | 16.49
Neigh   | 0          | 0          | 0          |   0.0 |  0.00
Comm    | 0.0025924  | 0.0025924  | 0.0025924  |   0.0 |  2.39
Output  | 0.00034043 | 0.00034043 | 0.00034043 |   0.0 |  0.31
Modify  | 0.0020305  | 0.0020305  | 0.0020305  |   0.0 |  1.87
Other   |            | 0.001074   |            |       |  0.99

Nlocal:            770 ave         770 max         770 min
Histogram: 1 0 0 0 0 0 0 0 0 0
Nghost:           2292 ave        2292 max        2292 min
Histogram: 1 0 0 0 0 0 0 0 0 0
Neighs:          31858 ave       31858 max       31858 min
Histogram: 1 0 0 0 0 0 0 0 0 0

Total # of neighbors = 31858
Ave neighs/atom = 41.374026
Ave special neighs/atom = 6.7376623
Neighbor list builds = 0
Dangerous builds = 0
unfix           nve_limit

# =============================================================================
# Phase 1: NVE/limit with cutoff=5.0A
# =============================================================================
pair_style      lj/cut/coul/cut 5.0 5.0
include         system.in.settings
pair_coeff 1 1 0.066 3.50
pair_coeff 2 2 0.066 3.50
pair_coeff 3 3 0.066 3.50
pair_coeff 4 4 0.066 3.50
pair_coeff 5 5 0.070 3.55
pair_coeff 6 6 0.070 3.55
pair_coeff 7 7 0.070 3.55
pair_coeff 8 8 0.070 3.55
pair_coeff 9 9 0.105 3.75
pair_coeff 10 10 0.105 3.75
pair_coeff 11 11 0.030 2.50
pair_coeff 12 12 0.030 2.50
pair_coeff 13 13 0.030 2.50
pair_coeff 14 14 0.030 2.42
pair_coeff 15 15 0.030 2.50
pair_coeff 16 16 0.030 2.50
pair_coeff 17 17 0.030 2.50
pair_coeff 18 18 0.170 3.00
pair_coeff 19 19 0.170 3.00
pair_coeff 20 20 0.170 2.96
pair_coeff 21 21 0.170 3.00
pair_coeff 22 22 0.170 3.25
pair_coeff 23 23 0.170 3.25
pair_coeff 24 24 0.170 3.25
pair_coeff 25 25 0.170 3.25
pair_coeff 26 26 0.255 2.95
pair_coeff 27 27 0.200 3.70
pair_coeff 28 28 0.0025 1.506
pair_coeff 29 29 0.250 3.55
pair_coeff 30 30 0.250 3.55
#  -
bond_coeff 1  268.0  1.529   # C-C   (sp3-sp3)
bond_coeff 2  414.0  1.330   # C=C   (sp2-sp2)
bond_coeff 3 320.0  1.400   #   C-C

#  -
bond_coeff 4     340.0  1.090   # C-H  (sp3 )
bond_coeff 5     340.0  1.080   # C-H  (sp2 )
bond_coeff 6    340.0  1.080   # C-H  (   )

#  -
bond_coeff 7  320.0  1.410   # C-O   (   )
bond_coeff 8  570.0  1.229   # C=O   (  )
bond_coeff 9    320.0  1.360   # C-O  (  )

#  -
bond_coeff 10  300.0  1.470   # C-N   ( )
bond_coeff 11  440.0  1.270   # C=N   (  )
bond_coeff 12   350.0  1.340   # C-N  (  )

#  -
bond_coeff 13         340.0  0.960   # O-H  (    )

#  -
bond_coeff 14         340.0  1.010   # N-H  ( )

#  -   (PF6)
bond_coeff 15         420.0  1.560   # P-F  (     )

#  -
bond_coeff 16         200.0  1.810   # S-C  (  )

#  -
bond_coeff 17         300.0  1.430   # S-O  (   )
#  - -
angle_coeff 1    50.0  109.5   # C-C-C (sp3)
angle_coeff 2    80.0  120.0   # C-C-C (sp2)
angle_coeff 3   60.0  120.0   # C-C-C (  )

#  - -
angle_coeff 4    37.5  110.7   # C-C-H (sp3)
angle_coeff 5    40.0  120.0   # C-C-H (sp2)

#  - -
angle_coeff 6    33.0  106.4   # H-C-H (sp3   )
angle_coeff 7   33.0  107.8   # H-C-H (sp3  )
angle_coeff 8    35.0  120.0   # H-C-H (sp2)

#  - -
angle_coeff 9  60.0  109.5   # C-O-C ( )
angle_coeff 10  60.0  124.0   # C-O-C ( )

#  - -
angle_coeff 11   80.0  123.0   # O-C=O (  )
angle_coeff 12  80.0  120.4   # O-C-O ( )

#  - -
angle_coeff 13        50.0  109.5   # C-C-O

#  - -
angle_coeff 14        50.0  109.5   # C-O-H ( )

#  - -
angle_coeff 15        50.0  109.5   # C-N-C ( )
angle_coeff 16  50.0  120.0   # C-N-C (  )

#  - -    (PF6)
angle_coeff 17        80.0   90.0   # F-P-F (     )
angle_coeff 18    80.0  180.0   # F-P-F (  )
#  - - -

#  - - -

#  - - -

#  - - -

#  - - -

#  - - -

#  - - =
#

#
pair_coeff 31 31 0.00034 2.126
neighbor        2.0 bin
neigh_modify    every 1 delay 0 check yes
timestep        0.1
fix             nve_limit all nve/limit 0.05
run             500
Generated 465 of 465 mixed pair_coeff terms from geometric mixing rule
WARNING: Dihedrals are defined but no dihedral style is set (../force.cpp:202)
WARNING: Likewise 1-4 special neighbor interactions != 1.0 (../force.cpp:204)
Per MPI rank memory allocation (min/avg/max) = 12.24 | 12.24 | 12.24 Mbytes
   Step          Temp          PotEng         KinEng         TotEng         Press          Volume        Density    
       500   327.48405     -193.49259      750.67299      557.1804       45321.499      8000           1.3463241    
       600   375.82849     -485.89576      861.49021      375.59445      37528.806      8000           1.3463241    
       700   417.86386     -1011.8949      957.84549     -54.049402      37904.632      8000           1.3463241    
       800   437.15247     -1091.4992      1002.0597     -89.439579      42351.46       8000           1.3463241    
       900   448.34206     -890.61003      1027.7089      137.0989       47196.633      8000           1.3463241    
      1000   463.16301     -951.07046      1061.6821      110.61166      45745.081      8000           1.3463241    
Loop time of 0.202081 on 1 procs for 500 steps with 770 atoms

Performance: 21.378 ns/day, 1.123 hours/ns, 2474.259 timesteps/s
99.7% CPU use with 1 MPI tasks x no OpenMP threads

MPI task timing breakdown:
Section |  min time  |  avg time  |  max time  |%varavg| %total
---------------------------------------------------------------
Pair    | 0.17104    | 0.17104    | 0.17104    |   0.0 | 84.64
Bond    | 0.018819   | 0.018819   | 0.018819   |   0.0 |  9.31
Neigh   | 0.0037931  | 0.0037931  | 0.0037931  |   0.0 |  1.88
Comm    | 0.0038464  | 0.0038464  | 0.0038464  |   0.0 |  1.90
Output  | 0.00082726 | 0.00082726 | 0.00082726 |   0.0 |  0.41
Modify  | 0.0022973  | 0.0022973  | 0.0022973  |   0.0 |  1.14
Other   |            | 0.001457   |            |       |  0.72

Nlocal:            770 ave         770 max         770 min
Histogram: 1 0 0 0 0 0 0 0 0 0
Nghost:           2925 ave        2925 max        2925 min
Histogram: 1 0 0 0 0 0 0 0 0 0
Neighs:          51262 ave       51262 max       51262 min
Histogram: 1 0 0 0 0 0 0 0 0 0

Total # of neighbors = 51262
Ave neighs/atom = 66.574026
Ave special neighs/atom = 6.7376623
Neighbor list builds = 2
Dangerous builds = 0
unfix           nve_limit

# =============================================================================
# Phase 2: NVE/limit with cutoff=6.0A
# =============================================================================
pair_style      lj/cut/coul/cut 6.0 6.0
include         system.in.settings
pair_coeff 1 1 0.066 3.50
pair_coeff 2 2 0.066 3.50
pair_coeff 3 3 0.066 3.50
pair_coeff 4 4 0.066 3.50
pair_coeff 5 5 0.070 3.55
pair_coeff 6 6 0.070 3.55
pair_coeff 7 7 0.070 3.55
pair_coeff 8 8 0.070 3.55
pair_coeff 9 9 0.105 3.75
pair_coeff 10 10 0.105 3.75
pair_coeff 11 11 0.030 2.50
pair_coeff 12 12 0.030 2.50
pair_coeff 13 13 0.030 2.50
pair_coeff 14 14 0.030 2.42
pair_coeff 15 15 0.030 2.50
pair_coeff 16 16 0.030 2.50
pair_coeff 17 17 0.030 2.50
pair_coeff 18 18 0.170 3.00
pair_coeff 19 19 0.170 3.00
pair_coeff 20 20 0.170 2.96
pair_coeff 21 21 0.170 3.00
pair_coeff 22 22 0.170 3.25
pair_coeff 23 23 0.170 3.25
pair_coeff 24 24 0.170 3.25
pair_coeff 25 25 0.170 3.25
pair_coeff 26 26 0.255 2.95
pair_coeff 27 27 0.200 3.70
pair_coeff 28 28 0.0025 1.506
pair_coeff 29 29 0.250 3.55
pair_coeff 30 30 0.250 3.55
#  -
bond_coeff 1  268.0  1.529   # C-C   (sp3-sp3)
bond_coeff 2  414.0  1.330   # C=C   (sp2-sp2)
bond_coeff 3 320.0  1.400   #   C-C

#  -
bond_coeff 4     340.0  1.090   # C-H  (sp3 )
bond_coeff 5     340.0  1.080   # C-H  (sp2 )
bond_coeff 6    340.0  1.080   # C-H  (   )

#  -
bond_coeff 7  320.0  1.410   # C-O   (   )
bond_coeff 8  570.0  1.229   # C=O   (  )
bond_coeff 9    320.0  1.360   # C-O  (  )

#  -
bond_coeff 10  300.0  1.470   # C-N   ( )
bond_coeff 11  440.0  1.270   # C=N   (  )
bond_coeff 12   350.0  1.340   # C-N  (  )

#  -
bond_coeff 13         340.0  0.960   # O-H  (    )

#  -
bond_coeff 14         340.0  1.010   # N-H  ( )

#  -   (PF6)
bond_coeff 15         420.0  1.560   # P-F  (     )

#  -
bond_coeff 16         200.0  1.810   # S-C  (  )

#  -
bond_coeff 17         300.0  1.430   # S-O  (   )
#  - -
angle_coeff 1    50.0  109.5   # C-C-C (sp3)
angle_coeff 2    80.0  120.0   # C-C-C (sp2)
angle_coeff 3   60.0  120.0   # C-C-C (  )

#  - -
angle_coeff 4    37.5  110.7   # C-C-H (sp3)
angle_coeff 5    40.0  120.0   # C-C-H (sp2)

#  - -
angle_coeff 6    33.0  106.4   # H-C-H (sp3   )
angle_coeff 7   33.0  107.8   # H-C-H (sp3  )
angle_coeff 8    35.0  120.0   # H-C-H (sp2)

#  - -
angle_coeff 9  60.0  109.5   # C-O-C ( )
angle_coeff 10  60.0  124.0   # C-O-C ( )

#  - -
angle_coeff 11   80.0  123.0   # O-C=O (  )
angle_coeff 12  80.0  120.4   # O-C-O ( )

#  - -
angle_coeff 13        50.0  109.5   # C-C-O

#  - -
angle_coeff 14        50.0  109.5   # C-O-H ( )

#  - -
angle_coeff 15        50.0  109.5   # C-N-C ( )
angle_coeff 16  50.0  120.0   # C-N-C (  )

#  - -    (PF6)
angle_coeff 17        80.0   90.0   # F-P-F (     )
angle_coeff 18    80.0  180.0   # F-P-F (  )
#  - - -

#  - - -

#  - - -

#  - - -

#  - - -

#  - - -

#  - - =
#

#
pair_coeff 31 31 0.00034 2.126
neighbor        2.0 bin
neigh_modify    every 1 delay 0 check yes
fix             nve_limit all nve/limit 0.1
run             500
Generated 465 of 465 mixed pair_coeff terms from geometric mixing rule
WARNING: Dihedrals are defined but no dihedral style is set (../force.cpp:202)
WARNING: Likewise 1-4 special neighbor interactions != 1.0 (../force.cpp:204)
Per MPI rank memory allocation (min/avg/max) = 12.33 | 12.33 | 12.33 Mbytes
   Step          Temp          PotEng         KinEng         TotEng         Press          Volume        Density    
      1000   463.16301     -1650.545       1061.6821     -588.86285      42132.612      8000           1.3463241    
      1100   485.8983      -1893.1339      1113.7969     -779.33695      36828.38       8000           1.3463241    
      1200   509.44583     -2168.3248      1167.7736     -1000.5512      35870.072      8000           1.3463241    
      1300   527.96495     -2082.0391      1210.2239     -871.8152       39203.766      8000           1.3463241    
      1400   544.06708     -1987.8731      1247.1339     -740.73915      36843.528      8000           1.3463241    
      1500   562.97823     -1911.1851      1290.4829     -620.70221      31589.665      8000           1.3463241    
Loop time of 0.313601 on 1 procs for 500 steps with 770 atoms

Performance: 13.775 ns/day, 1.742 hours/ns, 1594.382 timesteps/s
99.6% CPU use with 1 MPI tasks x no OpenMP threads

MPI task timing breakdown:
Section |  min time  |  avg time  |  max time  |%varavg| %total
---------------------------------------------------------------
Pair    | 0.27846    | 0.27846    | 0.27846    |   0.0 | 88.79
Bond    | 0.020517   | 0.020517   | 0.020517   |   0.0 |  6.54
Neigh   | 0.0037766  | 0.0037766  | 0.0037766  |   0.0 |  1.20
Comm    | 0.0049081  | 0.0049081  | 0.0049081  |   0.0 |  1.57
Output  | 0.001567   | 0.001567   | 0.001567   |   0.0 |  0.50
Modify  | 0.0024632  | 0.0024632  | 0.0024632  |   0.0 |  0.79
Other   |            | 0.001914   |            |       |  0.61

Nlocal:            770 ave         770 max         770 min
Histogram: 1 0 0 0 0 0 0 0 0 0
Nghost:           3684 ave        3684 max        3684 min
Histogram: 1 0 0 0 0 0 0 0 0 0
Neighs:          77654 ave       77654 max       77654 min
Histogram: 1 0 0 0 0 0 0 0 0 0

Total # of neighbors = 77654
Ave neighs/atom = 100.84935
Ave special neighs/atom = 6.7376623
Neighbor list builds = 2
Dangerous builds = 0
unfix           nve_limit

# =============================================================================
# Phase 3: NVE/limit with full cutoff=8.0A
# =============================================================================
pair_style      lj/cut/coul/cut 8.0 8.0
include         system.in.settings
pair_coeff 1 1 0.066 3.50
pair_coeff 2 2 0.066 3.50
pair_coeff 3 3 0.066 3.50
pair_coeff 4 4 0.066 3.50
pair_coeff 5 5 0.070 3.55
pair_coeff 6 6 0.070 3.55
pair_coeff 7 7 0.070 3.55
pair_coeff 8 8 0.070 3.55
pair_coeff 9 9 0.105 3.75
pair_coeff 10 10 0.105 3.75
pair_coeff 11 11 0.030 2.50
pair_coeff 12 12 0.030 2.50
pair_coeff 13 13 0.030 2.50
pair_coeff 14 14 0.030 2.42
pair_coeff 15 15 0.030 2.50
pair_coeff 16 16 0.030 2.50
pair_coeff 17 17 0.030 2.50
pair_coeff 18 18 0.170 3.00
pair_coeff 19 19 0.170 3.00
pair_coeff 20 20 0.170 2.96
pair_coeff 21 21 0.170 3.00
pair_coeff 22 22 0.170 3.25
pair_coeff 23 23 0.170 3.25
pair_coeff 24 24 0.170 3.25
pair_coeff 25 25 0.170 3.25
pair_coeff 26 26 0.255 2.95
pair_coeff 27 27 0.200 3.70
pair_coeff 28 28 0.0025 1.506
pair_coeff 29 29 0.250 3.55
pair_coeff 30 30 0.250 3.55
#  -
bond_coeff 1  268.0  1.529   # C-C   (sp3-sp3)
bond_coeff 2  414.0  1.330   # C=C   (sp2-sp2)
bond_coeff 3 320.0  1.400   #   C-C

#  -
bond_coeff 4     340.0  1.090   # C-H  (sp3 )
bond_coeff 5     340.0  1.080   # C-H  (sp2 )
bond_coeff 6    340.0  1.080   # C-H  (   )

#  -
bond_coeff 7  320.0  1.410   # C-O   (   )
bond_coeff 8  570.0  1.229   # C=O   (  )
bond_coeff 9    320.0  1.360   # C-O  (  )

#  -
bond_coeff 10  300.0  1.470   # C-N   ( )
bond_coeff 11  440.0  1.270   # C=N   (  )
bond_coeff 12   350.0  1.340   # C-N  (  )

#  -
bond_coeff 13         340.0  0.960   # O-H  (    )

#  -
bond_coeff 14         340.0  1.010   # N-H  ( )

#  -   (PF6)
bond_coeff 15         420.0  1.560   # P-F  (     )

#  -
bond_coeff 16         200.0  1.810   # S-C  (  )

#  -
bond_coeff 17         300.0  1.430   # S-O  (   )
#  - -
angle_coeff 1    50.0  109.5   # C-C-C (sp3)
angle_coeff 2    80.0  120.0   # C-C-C (sp2)
angle_coeff 3   60.0  120.0   # C-C-C (  )

#  - -
angle_coeff 4    37.5  110.7   # C-C-H (sp3)
angle_coeff 5    40.0  120.0   # C-C-H (sp2)

#  - -
angle_coeff 6    33.0  106.4   # H-C-H (sp3   )
angle_coeff 7   33.0  107.8   # H-C-H (sp3  )
angle_coeff 8    35.0  120.0   # H-C-H (sp2)

#  - -
angle_coeff 9  60.0  109.5   # C-O-C ( )
angle_coeff 10  60.0  124.0   # C-O-C ( )

#  - -
angle_coeff 11   80.0  123.0   # O-C=O (  )
angle_coeff 12  80.0  120.4   # O-C-O ( )

#  - -
angle_coeff 13        50.0  109.5   # C-C-O

#  - -
angle_coeff 14        50.0  109.5   # C-O-H ( )

#  - -
angle_coeff 15        50.0  109.5   # C-N-C ( )
angle_coeff 16  50.0  120.0   # C-N-C (  )

#  - -    (PF6)
angle_coeff 17        80.0   90.0   # F-P-F (     )
angle_coeff 18    80.0  180.0   # F-P-F (  )
#  - - -

#  - - -

#  - - -

#  - - -

#  - - -

#  - - -

#  - - =
#

#
pair_coeff 31 31 0.00034 2.126
neighbor        2.0 bin
neigh_modify    every 1 delay 0 check yes
timestep        0.25
fix             nve_limit all nve/limit 0.2
run             500
Generated 465 of 465 mixed pair_coeff terms from geometric mixing rule
WARNING: Dihedrals are defined but no dihedral style is set (../force.cpp:202)
WARNING: Likewise 1-4 special neighbor interactions != 1.0 (../force.cpp:204)
Per MPI rank memory allocation (min/avg/max) = 12.84 | 12.84 | 12.84 Mbytes
   Step          Temp          PotEng         KinEng         TotEng         Press          Volume        Density    
      1500   562.97823     -1798.5858      1290.4829     -508.10293      30496.39       8000           1.3463241    
      1600   591.27975     -2138.1217      1355.3568     -782.76484      38472.548      8000           1.3463241    
      1700   606.82098     -2055.3744      1390.9811     -664.39328      32786.22       8000           1.3463241    
      1800   599.15425     -1851.8471      1373.4071     -478.44001      33833.045      8000           1.3463241    
      1900   614.88275     -2433.368       1409.4606     -1023.9073      29878.002      8000           1.3463241    
      2000   589.05479     -2133.8         1350.2567     -783.54335      32194.668      8000           1.3463241    
Loop time of 0.610023 on 1 procs for 500 steps with 770 atoms

Performance: 17.704 ns/day, 1.356 hours/ns, 819.641 timesteps/s
99.1% CPU use with 1 MPI tasks x no OpenMP threads

MPI task timing breakdown:
Section |  min time  |  avg time  |  max time  |%varavg| %total
---------------------------------------------------------------
Pair    | 0.5505     | 0.5505     | 0.5505     |   0.0 | 90.24
Bond    | 0.02061    | 0.02061    | 0.02061    |   0.0 |  3.38
Neigh   | 0.024329   | 0.024329   | 0.024329   |   0.0 |  3.99
Comm    | 0.0078755  | 0.0078755  | 0.0078755  |   0.0 |  1.29
Output  | 0.0014117  | 0.0014117  | 0.0014117  |   0.0 |  0.23
Modify  | 0.0026152  | 0.0026152  | 0.0026152  |   0.0 |  0.43
Other   |            | 0.002685   |            |       |  0.44

Nlocal:            770 ave         770 max         770 min
Histogram: 1 0 0 0 0 0 0 0 0 0
Nghost:           5390 ave        5390 max        5390 min
Histogram: 1 0 0 0 0 0 0 0 0 0
Neighs:         152976 ave      152976 max      152976 min
Histogram: 1 0 0 0 0 0 0 0 0 0

Total # of neighbors = 152976
Ave neighs/atom = 198.67013
Ave special neighs/atom = 6.7376623
Neighbor list builds = 6
Dangerous builds = 0
unfix           nve_limit

# =============================================================================
# Phase 4: NVT equilibration
# =============================================================================
velocity        all create 353.0 52686 dist gaussian
fix             nvt all nvt temp 353.0 353.0 100.0
timestep        1.0

# Trajectory output
dump            1 all custom 50 dump.equilibrium.lammpstrj id mol type x y z vx vy vz

run             500
Generated 465 of 465 mixed pair_coeff terms from geometric mixing rule
WARNING: Dihedrals are defined but no dihedral style is set (../force.cpp:202)
WARNING: Likewise 1-4 special neighbor interactions != 1.0 (../force.cpp:204)
Per MPI rank memory allocation (min/avg/max) = 14.14 | 14.14 | 14.14 Mbytes
   Step          Temp          PotEng         KinEng         TotEng         Press          Volume        Density    
      2000   353           -2133.8         809.16175     -1324.6383      29102.833      8000           1.3463241    
      2100   438.17329     -2439.1528      1004.3996     -1434.7532      25401.92       8000           1.3463241    
      2200   423.42928     -2024.1651      970.60278     -1053.5623      19926.115      8000           1.3463241    
      2300   389.25028     -2056.0045      892.25621     -1163.7483      15751.403      8000           1.3463241    
      2400   379.96861     -2528.7101      870.98036     -1657.7298      14461.814      8000           1.3463241    
      2500   351.22161     -2723.3431      805.08525     -1918.2579      18056.882      8000           1.3463241    
Loop time of 0.671471 on 1 procs for 500 steps with 770 atoms

Performance: 64.336 ns/day, 0.373 hours/ns, 744.634 timesteps/s
94.4% CPU use with 1 MPI tasks x no OpenMP threads

MPI task timing breakdown:
Section |  min time  |  avg time  |  max time  |%varavg| %total
---------------------------------------------------------------
Pair    | 0.52792    | 0.52792    | 0.52792    |   0.0 | 78.62
Bond    | 0.019115   | 0.019115   | 0.019115   |   0.0 |  2.85
Neigh   | 0.061889   | 0.061889   | 0.061889   |   0.0 |  9.22
Comm    | 0.0081362  | 0.0081362  | 0.0081362  |   0.0 |  1.21
Output  | 0.048013   | 0.048013   | 0.048013   |   0.0 |  7.15
Modify  | 0.0043899  | 0.0043899  | 0.0043899  |   0.0 |  0.65
Other   |            | 0.002007   |            |       |  0.30

Nlocal:            770 ave         770 max         770 min
Histogram: 1 0 0 0 0 0 0 0 0 0
Nghost:           5390 ave        5390 max        5390 min
Histogram: 1 0 0 0 0 0 0 0 0 0
Neighs:         153082 ave      153082 max      153082 min
Histogram: 1 0 0 0 0 0 0 0 0 0

Total # of neighbors = 153082
Ave neighs/atom = 198.80779
Ave special neighs/atom = 6.7376623
Neighbor list builds = 21
Dangerous builds = 0
unfix           nvt

# =============================================================================
# Phase 5: NPT equilibration
# =============================================================================
fix             npt all npt temp 353.0 353.0 100.0 iso 1.0 1.0 1000.0
timestep        1.0
run             500
Generated 465 of 465 mixed pair_coeff terms from geometric mixing rule
WARNING: Dihedrals are defined but no dihedral style is set (../force.cpp:202)
WARNING: Likewise 1-4 special neighbor interactions != 1.0 (../force.cpp:204)
Per MPI rank memory allocation (min/avg/max) = 14.14 | 14.14 | 14.14 Mbytes
   Step          Temp          PotEng         KinEng         TotEng         Press          Volume        Density    
      2500   351.22161     -2723.3431      805.08525     -1918.2579      18056.882      8000           1.3463241    
      2600   357.25617     -3415.347       818.91792     -2596.4291      6686.5233      8339.5348      1.29151      
      2700   333.28655     -3412.9113      763.97373     -2648.9375      2251.1365      8827.4052      1.2201312    
      2800   341.57505     -3434.0016      782.97299     -2651.0286      498.35218      9112.8736      1.1819096    
      2900   368.23741     -3781.3422      844.08961     -2937.2526     -2195.5844      9289.1063      1.1594864    
      3000   341.15232     -2910.4827      782.00398     -2128.4787      2742.0514      9349.3338      1.1520171    
Loop time of 0.660768 on 1 procs for 500 steps with 770 atoms

Performance: 65.379 ns/day, 0.367 hours/ns, 756.696 timesteps/s
95.2% CPU use with 1 MPI tasks x no OpenMP threads

MPI task timing breakdown:
Section |  min time  |  avg time  |  max time  |%varavg| %total
---------------------------------------------------------------
Pair    | 0.51207    | 0.51207    | 0.51207    |   0.0 | 77.50
Bond    | 0.023427   | 0.023427   | 0.023427   |   0.0 |  3.55
Neigh   | 0.061985   | 0.061985   | 0.061985   |   0.0 |  9.38
Comm    | 0.0080379  | 0.0080379  | 0.0080379  |   0.0 |  1.22
Output  | 0.04304    | 0.04304    | 0.04304    |   0.0 |  6.51
Modify  | 0.009866   | 0.009866   | 0.009866   |   0.0 |  1.49
Other   |            | 0.002345   |            |       |  0.35

Nlocal:            770 ave         770 max         770 min
Histogram: 1 0 0 0 0 0 0 0 0 0
Nghost:           4977 ave        4977 max        4977 min
Histogram: 1 0 0 0 0 0 0 0 0 0
Neighs:         131007 ave      131007 max      131007 min
Histogram: 1 0 0 0 0 0 0 0 0 0

Total # of neighbors = 131007
Ave neighs/atom = 170.13896
Ave special neighs/atom = 6.7376623
Neighbor list builds = 21
Dangerous builds = 0
unfix           npt

# Output equilibrated configuration
write_data      equilibrated.data
System init for write_data ...
Generated 465 of 465 mixed pair_coeff terms from geometric mixing rule
WARNING: Dihedrals are defined but no dihedral style is set (../force.cpp:202)
WARNING: Likewise 1-4 special neighbor interactions != 1.0 (../force.cpp:204)
Total wall time: 0:00:02
LAMMPS (23 Jun 2022 - Update 4)
# =============================================================================
# LAMMPS Production Simulation Input Script
# Generated by Jinja2 template engine
# Generation time: 2026-06-29T22:38:42.869989800
# Job ID: 1290001
# Target properties: density, conductivity
# =============================================================================

# Initialization settings
units           real
atom_style      full
dimension       3
boundary        p p p

# Force field styles (using cutoff Coulomb to handle non-neutral system charge)
# Note: PPPM requires charge neutrality. The current force field gives DMC
# molecules a net charge of +0.12 each, making the system non-neutral.
# Using lj/cut/coul/cut with no kspace as a workaround.
bond_style      harmonic
angle_style     harmonic
dihedral_style  none
improper_style  none
pair_style      lj/cut/coul/cut 8.0 8.0
special_bonds   lj 0.0 0.0 0.5 coul 0.0 0.0 0.5
kspace_style    none

# Read equilibrated configuration
read_data       equilibrated.data
Reading data file ...
  orthogonal box = (-0.53327833 -0.53327833 -0.53327833) to (20.533278 20.533278 20.533278)
  1 by 1 by 1 MPI processor grid
  reading atoms ...
  770 atoms
  reading velocities ...
  770 velocities
  scanning bonds ...
  6 = max bonds/atom
  scanning angles ...
  15 = max angles/atom
  scanning dihedrals ...
  3 = max dihedrals/atom
  reading bonds ...
  715 bonds
  reading angles ...
  1087 angles
  reading dihedrals ...
  455 dihedrals
Finding 1-2 1-3 1-4 neighbors ...
  special bond factors lj:    0        0        0.5     
  special bond factors coul:  0        0        0.5     
     6 = max # of 1-2 neighbors
     5 = max # of 1-3 neighbors
     9 = max # of 1-4 neighbors
    11 = max # of special neighbors
  special bonds CPU = 0.000 seconds
  read_data CPU = 0.040 seconds

# Force field parameters (PPPM auto-selects grid size)
include         system.in.settings
pair_coeff 1 1 0.066 3.50
pair_coeff 2 2 0.066 3.50
pair_coeff 3 3 0.066 3.50
pair_coeff 4 4 0.066 3.50
pair_coeff 5 5 0.070 3.55
pair_coeff 6 6 0.070 3.55
pair_coeff 7 7 0.070 3.55
pair_coeff 8 8 0.070 3.55
pair_coeff 9 9 0.105 3.75
pair_coeff 10 10 0.105 3.75
pair_coeff 11 11 0.030 2.50
pair_coeff 12 12 0.030 2.50
pair_coeff 13 13 0.030 2.50
pair_coeff 14 14 0.030 2.42
pair_coeff 15 15 0.030 2.50
pair_coeff 16 16 0.030 2.50
pair_coeff 17 17 0.030 2.50
pair_coeff 18 18 0.170 3.00
pair_coeff 19 19 0.170 3.00
pair_coeff 20 20 0.170 2.96
pair_coeff 21 21 0.170 3.00
pair_coeff 22 22 0.170 3.25
pair_coeff 23 23 0.170 3.25
pair_coeff 24 24 0.170 3.25
pair_coeff 25 25 0.170 3.25
pair_coeff 26 26 0.255 2.95
pair_coeff 27 27 0.200 3.70
pair_coeff 28 28 0.0025 1.506
pair_coeff 29 29 0.250 3.55
pair_coeff 30 30 0.250 3.55
#  -
bond_coeff 1  268.0  1.529   # C-C   (sp3-sp3)
bond_coeff 2  414.0  1.330   # C=C   (sp2-sp2)
bond_coeff 3 320.0  1.400   #   C-C

#  -
bond_coeff 4     340.0  1.090   # C-H  (sp3 )
bond_coeff 5     340.0  1.080   # C-H  (sp2 )
bond_coeff 6    340.0  1.080   # C-H  (   )

#  -
bond_coeff 7  320.0  1.410   # C-O   (   )
bond_coeff 8  570.0  1.229   # C=O   (  )
bond_coeff 9    320.0  1.360   # C-O  (  )

#  -
bond_coeff 10  300.0  1.470   # C-N   ( )
bond_coeff 11  440.0  1.270   # C=N   (  )
bond_coeff 12   350.0  1.340   # C-N  (  )

#  -
bond_coeff 13         340.0  0.960   # O-H  (    )

#  -
bond_coeff 14         340.0  1.010   # N-H  ( )

#  -   (PF6)
bond_coeff 15         420.0  1.560   # P-F  (     )

#  -
bond_coeff 16         200.0  1.810   # S-C  (  )

#  -
bond_coeff 17         300.0  1.430   # S-O  (   )
#  - -
angle_coeff 1    50.0  109.5   # C-C-C (sp3)
angle_coeff 2    80.0  120.0   # C-C-C (sp2)
angle_coeff 3   60.0  120.0   # C-C-C (  )

#  - -
angle_coeff 4    37.5  110.7   # C-C-H (sp3)
angle_coeff 5    40.0  120.0   # C-C-H (sp2)

#  - -
angle_coeff 6    33.0  106.4   # H-C-H (sp3   )
angle_coeff 7   33.0  107.8   # H-C-H (sp3  )
angle_coeff 8    35.0  120.0   # H-C-H (sp2)

#  - -
angle_coeff 9  60.0  109.5   # C-O-C ( )
angle_coeff 10  60.0  124.0   # C-O-C ( )

#  - -
angle_coeff 11   80.0  123.0   # O-C=O (  )
angle_coeff 12  80.0  120.4   # O-C-O ( )

#  - -
angle_coeff 13        50.0  109.5   # C-C-O

#  - -
angle_coeff 14        50.0  109.5   # C-O-H ( )

#  - -
angle_coeff 15        50.0  109.5   # C-N-C ( )
angle_coeff 16  50.0  120.0   # C-N-C (  )

#  - -    (PF6)
angle_coeff 17        80.0   90.0   # F-P-F (     )
angle_coeff 18    80.0  180.0   # F-P-F (  )
#  - - -

#  - - -

#  - - -

#  - - -

#  - - -

#  - - -

#  - - =
#

#
pair_coeff 31 31 0.00034 2.126

# Neighbor list settings (delay 5 to reduce overhead)
neighbor        2.0 bin
neigh_modify    every 1 delay 5 check yes

# Thermodynamic output
thermo          1000

thermo_style    custom step temp pe ke etotal press vol density


# Output thermodynamic data to thermo.out file (for post-processing analysis)
# Format: step temp pe ke etotal press vol density
variable        s_out equal step
variable        t_out equal temp
variable        pe_out equal pe
variable        ke_out equal ke
variable        et_out equal etotal
variable        pr_out equal press
variable        v_out equal vol
variable        d_out equal density
fix             thermo_out all print 1000 "${s_out} ${t_out} ${pe_out} ${ke_out} ${et_out} ${pr_out} ${v_out} ${d_out}" file thermo.out screen no

# Trajectory output (production)
dump            1 all custom 50 dump.trajectory.lammpstrj id mol type x y z vx vy vz


# Conductivity/Dielectric: output trajectory with charges
compute         charge all property/atom q
dump            2 all custom 50 dump.charge.lammpstrj id type x y z c_charge








# NPT production simulation
timestep        1.0
fix             1 all npt temp 353.0 353.0 100.0 iso 1.0 1.0 1000.0
run             1000
Generated 465 of 465 mixed pair_coeff terms from geometric mixing rule
WARNING: Dihedrals are defined but no dihedral style is set (../force.cpp:202)
WARNING: Likewise 1-4 special neighbor interactions != 1.0 (../force.cpp:204)
Neighbor list info ...
  update every 1 steps, delay 5 steps, check yes
  max neighbors/atom: 2000, page size: 100000
  master list distance cutoff = 10
  ghost atom cutoff = 10
  binsize = 5, bins = 5 5 5
  1 neighbor lists, perpetual/occasional/extra = 1 0 0
  (1) pair lj/cut/coul/cut, perpetual
      attributes: half, newton on
      pair build: half/bin/newton
      stencil: half/bin/3d
      bin: standard
Per MPI rank memory allocation (min/avg/max) = 15.51 | 15.51 | 15.51 Mbytes
   Step          Temp          PotEng         KinEng         TotEng         Press          Volume        Density    
         0   341.15232     -2910.4827      782.00398     -2128.4787      2742.0514      9349.3338      1.1520171    
      1000   344.90198     -2910.6052      790.59912     -2120.0061     -11.40325       9754.0765      1.1042145    
Loop time of 1.33088 on 1 procs for 1000 steps with 770 atoms

Performance: 64.920 ns/day, 0.370 hours/ns, 751.384 timesteps/s
89.9% CPU use with 1 MPI tasks x no OpenMP threads

MPI task timing breakdown:
Section |  min time  |  avg time  |  max time  |%varavg| %total
---------------------------------------------------------------
Pair    | 0.95987    | 0.95987    | 0.95987    |   0.0 | 72.12
Bond    | 0.048749   | 0.048749   | 0.048749   |   0.0 |  3.66
Neigh   | 0.11518    | 0.11518    | 0.11518    |   0.0 |  8.65
Comm    | 0.01591    | 0.01591    | 0.01591    |   0.0 |  1.20
Output  | 0.16437    | 0.16437    | 0.16437    |   0.0 | 12.35
Modify  | 0.022157   | 0.022157   | 0.022157   |   0.0 |  1.66
Other   |            | 0.004648   |            |       |  0.35

Nlocal:            770 ave         770 max         770 min
Histogram: 1 0 0 0 0 0 0 0 0 0
Nghost:           4846 ave        4846 max        4846 min
Histogram: 1 0 0 0 0 0 0 0 0 0
Neighs:         125511 ave      125511 max      125511 min
Histogram: 1 0 0 0 0 0 0 0 0 0

Total # of neighbors = 125511
Ave neighs/atom = 163.0013
Ave special neighs/atom = 6.7376623
Neighbor list builds = 40
Dangerous builds = 0
unfix           1

# Output final configuration
write_data      final.data
System init for write_data ...
Generated 465 of 465 mixed pair_coeff terms from geometric mixing rule
WARNING: Dihedrals are defined but no dihedral style is set (../force.cpp:202)
WARNING: Likewise 1-4 special neighbor interactions != 1.0 (../force.cpp:204)
Total wall time: 0:00:01
