LAMMPS data file via write_data, version 23 Jun 2022, timestep = 2515

770 atoms
31 atom types
715 bonds
17 bond types
1087 angles
18 angle types
455 dihedrals
9 dihedral types
0 impropers
2 improper types

0 20 xlo xhi
0 20 ylo yhi
0 20 zlo zhi

Masses

1 12.011
2 12.011
3 12.011
4 12.011
5 12.011
6 12.011
7 12.011
8 12.011
9 12.011
10 12.011
11 1.008
12 1.008
13 1.008
14 1.008
15 1.008
16 1.008
17 1.008
18 15.999
19 15.999
20 15.999
21 15.999
22 14.007
23 14.007
24 14.007
25 14.007
26 18.998
27 30.974
28 6.941
29 32.065
30 32.065
31 6.941

Atoms # full

740 70 26 -0.39 0.4554157523526259 0.5572880755199591 0.9534614597317774 1 0 0
388 33 19 -0.35 6.825549178355831 0.8531581516875149 2.60500323059144 0 0 0
622 54 20 -0.5 8.063366224587982 2.490602379872187 1.183553053695796 0 0 0
268 23 19 -0.35 12.347117304022227 1.986016052169711 1.0555336558985209 0 0 0
270 23 1 0.22 11.175565394008638 1.3652907040201627 1.5355935893507473 0 0 0
274 23 11 0.06 10.626381993485838 0.8901261380848565 0.7229182499127516 0 0 0
275 23 11 0.06 11.414249375490597 0.6012906481545268 2.2751380391522456 0 0 0
315 27 19 -0.35 15.161121815163149 19.552092333959113 2.751124627253277 0 -1 0
321 27 11 0.06 14.200252135500136 0.30853214641639165 1.0816066290905726 0 0 0
317 27 1 0.22 15.182226514871715 19.955352706593867 1.395115431785091 0 -1 0
319 27 11 0.06 15.906882444099685 0.7429821663787973 1.1821033355584507 0 0 0
420 35 11 0.06 19.89046675866478 2.2441959935835136 19.17619946701311 0 0 0
736 70 27 1.34 19.129366380943853 0.002288643214834041 1.5587402109931732 0 0 0
738 70 26 -0.39 18.868513961896948 19.19739336755551 0.24819314279039256 0 -1 0
739 70 26 -0.39 17.804061747796336 19.44430885238868 2.1624722011676307 0 -1 0
741 70 26 -0.39 19.908001082327008 18.787221276101764 2.1507620149920768 0 -1 0
742 70 26 -0.39 18.351679837019034 1.2192411526119276 0.9705498147130428 0 0 0
354 30 1 0.22 1.5752217511792395 3.097384213817875 1.9174070486379609 0 0 0
358 30 11 0.06 2.068875999782771 3.036224736225225 0.9476183624613308 0 0 0
359 30 11 0.06 0.5122181136377401 2.9234284491209834 1.75783091915211 0 0 0
360 30 11 0.06 1.6957595980713882 4.117376366228339 2.286340490107746 0 0 0
165 14 11 0.06 4.495081132789379 2.657274031522444 19.44504538982647 0 0 0
389 33 1 0.22 4.8914587373159994 3.9123558091725075 2.226051709421049 0 0 0
393 33 11 0.06 4.077583033987615 3.6801603898958835 2.905435353611856 0 0 0
385 33 9 0.52 6.114040759944239 2.0445477656762328 2.864646128994833 0 0 0
387 33 19 -0.35 5.517469487727816 2.7255119884745214 1.7806514469835673 0 0 0
168 14 11 0.06 9.986233798375656 3.7869646014388594 0.24895275808568915 0 0 1
621 54 9 0.52 7.816914662535969 3.656164560315196 1.4820086392240013 0 0 0
623 54 19 -0.35 8.63928267420979 4.41397497361155 2.350828554938597 0 0 0
276 23 11 0.06 10.514038427655569 2.090560921133021 2.0071483245529755 0 0 0
504 42 11 0.06 12.10696345202186 5.120151341321164 0.29661302060813816 0 0 0
265 23 9 0.52 12.946206479050225 2.7314476465367608 2.0917821278020874 0 0 0
267 23 19 -0.35 13.842731365107396 3.765251503318082 1.737099169547039 0 0 0
269 23 1 0.22 15.087132722654543 3.666523639150014 2.4087628559236958 0 0 0
273 23 11 0.06 15.458584118650874 4.666178684465031 2.6195722500382916 0 0 0
364 31 19 -0.35 0.7539059991228648 6.684991825699279 1.4718148219395673 0 0 0
366 31 1 0.22 1.4884688298609199 6.094723567799739 0.4204129476173442 0 0 0
371 31 11 0.06 1.5188470699655054 6.742626363928103 19.545771944882716 0 0 -1
372 31 11 0.06 2.515256455892254 5.893282927947589 0.7261885431605516 0 0 0
392 33 11 0.06 4.473714102997527 4.4684872439724845 1.3867259306715827 0 0 0
308 26 11 0.06 4.67218962511574 7.475066816988349 1.4251995885119149 0 0 0
627 54 11 0.06 7.825881249130632 5.6758505463206586 2.931778847609044 0 0 0
625 54 2 0.22 7.565274764671354 5.713116791980838 0.7205361511390581 0 0 0
626 54 2 0.22 8.410541028411425 5.779457475569028 2.015697778244287 0 0 0
628 54 11 0.06 8.810880916083098 6.787019874484899 2.1477823772614455 0 0 0
630 54 11 0.06 7.935742672303604 6.287327851433564 19.867349118645375 0 0 -1
496 42 19 -0.35 11.162560971564561 6.633215412831527 1.3160166188215547 0 0 0
498 42 1 0.22 12.269722537853813 6.155839806428843 0.5889189662121717 0 0 0
503 42 11 0.06 13.19276918727055 6.205636652873614 1.1666918098564563 0 0 0
601 52 9 0.52 17.015790824778218 6.235203148368796 0.823706537415694 0 0 0
602 52 20 -0.5 17.377792166032897 5.0873632055935305 0.5755449893708917 0 0 0
603 52 19 -0.35 15.65965279124323 6.580126294230572 1.02546309296384 0 0 0
604 52 19 -0.35 17.919074119474647 7.281002876481998 1.0627470345688261 0 0 0
362 31 20 -0.5 2.335053689792837 8.3460009505581 1.2799305040858093 0 0 0
652 57 20 -0.5 19.800661720345115 8.534364333193567 19.838749119483158 -1 0 0
305 26 1 0.22 5.178849058870207 8.391982908149243 1.719920701156712 0 0 0
307 26 11 0.06 6.248169904808235 8.18559002553596 1.7421972966960797 0 0 0
309 26 11 0.06 4.997652026909454 9.146454050607307 0.9546448583276748 0 0 0
608 52 11 0.06 15.342217777372332 7.249790080904002 2.369007201695961 0 0 0
733 67 31 1 12.73205352261733 8.303264023522015 2.467215340226217 0 0 0
605 52 2 0.22 17.114947569448056 8.369706349126842 1.476643230772549 0 0 0
606 52 2 0.22 15.645867282306002 7.901847864009409 1.545890188573386 0 0 0
609 52 11 0.06 17.387324323129576 8.680190724639726 0.4698788699633299 0 0 0
610 52 11 0.06 17.263053881027638 9.254091312649354 2.093208564815232 0 0 0
468 39 11 0.06 1.1642365648895512 12.925088623735085 1.6940799638755042 0 0 0
643 56 19 -0.35 6.376450193984768 12.06895428396602 0.7462611618220365 0 0 0
675 59 2 0.22 11.826853792463334 12.308659324961852 0.9933739566094029 0 0 0
676 59 2 0.22 11.898486845386445 10.779887829423732 0.8241939527534382 0 0 0
677 59 11 0.06 11.362554548937808 10.447000941085697 19.938161386293647 0 0 -1
678 59 11 0.06 11.425150778036173 10.27921919051088 1.6690744242537412 0 0 0
680 59 11 0.06 10.785200047261323 12.613433415076361 1.0441286633213178 0 0 0
671 59 9 0.52 13.923690683312193 11.55626888263446 1.3558055853758342 0 0 0
672 59 20 -0.5 15.146816715416284 11.616772439907935 1.2530758576061662 0 0 0
673 59 19 -0.35 13.219691475630183 10.368938819700599 1.1042935198207702 0 0 0
104 9 11 0.06 1.858560834575396 15.0662068772114 0.5970082500743172 0 0 0
642 56 20 -0.5 4.4297468718070965 13.236831183524354 0.3446368995657471 0 0 0
641 56 9 0.52 5.6284657481963185 13.249852722316442 0.6152483846596973 0 0 0
644 56 19 -0.35 6.299617469152151 14.42882216155555 0.9910659278419776 0 0 0
645 56 2 0.22 7.537884785942309 14.006660053916288 1.5279230677747626 0 0 0
646 56 2 0.22 7.61202080662723 12.478105172014347 1.2917415175614924 0 0 0
647 56 11 0.06 7.813171653828377 11.908262419782064 2.2014721827280375 0 0 0
649 56 11 0.06 8.284561982236113 14.359159991880357 2.2406162955400952 0 0 0
674 59 19 -0.35 13.123953417216013 12.71684381052893 1.3830800148070577 0 0 0
380 32 11 0.06 17.203289123565956 14.725420438137352 2.0413777883598825 0 0 0
99 9 19 -0.35 0.5973452070916958 15.304299786543021 2.2091320610274296 0 0 0
101 9 1 0.22 1.579541036479076 15.824588476253535 1.328821356535903 0 0 0
103 9 11 0.06 2.5009811424070514 16.144041587147843 1.8194739280077918 0 0 0
105 9 11 0.06 1.1850555474328477 16.677238345929677 0.7764509258419308 0 0 0
9 1 11 0.06 13.596171282083851 15.433855387368913 19.902229283367582 0 0 0
320 27 11 0.06 15.44128104431776 19.10407051856735 0.7663979796870107 0 -1 0
718 63 11 0.06 4.698401667920633 19.950821071812396 3.559696870019241 0 0 0
396 33 11 0.06 7.6028184969248125 0.618380092057476 4.5115566795781525 0 0 0
390 33 1 0.22 7.927106607806453 0.7449853582993027 3.4832658606029927 0 0 0
395 33 11 0.06 8.545935316872402 1.6379895992440128 3.4792094596011 0 0 0
506 43 20 -0.5 10.289282543294664 2.7965536029384213 4.8452971800183775 0 0 0
313 27 9 0.52 15.495451101184269 0.6028141977945567 3.6372759447829557 0 0 0
316 27 19 -0.35 14.605174636858314 0.9046169236078112 4.688286514789932 0 0 0
314 27 20 -0.5 16.57990066856544 1.1744496962732878 3.5504877786209117 0 0 0
737 70 26 -0.39 19.388544323772393 0.8093003630527599 2.867646846698502 0 0 0
139 12 11 0.06 19.55293625053231 4.549089495534615 3.546859654337133 0 0 0
349 30 9 0.52 1.7536939718468043 2.443179361553035 4.137782515165168 0 0 0
350 30 20 -0.5 0.6941415311548721 2.038763328820838 4.609147994279864 0 0 0
352 30 19 -0.35 2.111882018999635 2.13955292005873 2.806858206352689 0 0 0
386 33 20 -0.5 5.979576807011854 2.453203749440077 4.013875966204233 0 0 0
391 33 11 0.06 5.573150988317413 4.575963254895438 2.759693757405281 0 0 0
511 43 11 0.06 7.944964273098279 3.754422951975595 4.84622776030025 0 0 0
47 4 11 0.06 13.242465134433711 4.59723386751019 4.644763514287178 0 0 0
266 23 20 -0.5 12.623981048627575 2.552469484434642 3.2645836912736113 0 0 0
271 23 11 0.06 15.050203261127052 3.143055243681414 3.366293107582879 0 0 0
272 23 11 0.06 15.828459342232053 3.167915177187003 1.7843541980634599 0 0 0
137 12 1 0.22 18.54196063683592 4.144319406717665 3.6231819166407666 0 0 0
141 12 11 0.06 18.309756808848768 3.6792919105553987 2.666140761937014 0 0 0
361 31 9 0.52 1.2775120893722816 7.961310969507022 1.7716177048575479 0 0 0
363 31 19 -0.35 0.5353137479305612 8.815454584072572 2.616681670073525 0 0 0
535 45 11 0.06 4.990450872499764 5.749186264568374 5.05270111469909 0 0 0
533 45 1 0.22 5.807831730794636 6.462854031790108 4.958600999943408 0 0 0
536 45 11 0.06 5.829148155892241 6.801750043986676 3.9256387848542906 0 0 0
501 42 11 0.06 9.094031909694857 6.792097455160386 4.7728278349213715 0 0 0
493 42 9 0.52 11.159350665889079 6.071845851135386 2.6081452459175267 0 0 0
494 42 20 -0.5 11.59916817320074 4.938942570937913 2.79321727750783 0 0 0
495 42 19 -0.35 10.836889358060601 6.935127272291185 3.681041235593177 0 0 0
497 42 1 0.22 10.079208771244852 6.333877792710416 4.715329956440195 0 0 0
499 42 11 0.06 9.927916475774461 5.259488909866175 4.621512697835686 0 0 0
48 4 11 0.06 14.699919017647563 5.551678309238329 4.903994693239228 0 0 0
133 12 9 0.52 18.029618558462367 6.353783383504052 4.351016346044622 0 0 0
134 12 20 -0.5 19.012804264319275 6.443094683904284 5.084519592829328 0 0 0
135 12 19 -0.35 17.53702688268799 5.092785216019771 3.939338956212873 0 0 0
365 31 1 0.22 1.2725702974690054 9.130920392150365 3.7818996265302496 0 0 0
367 31 11 0.06 2.3274980284670232 9.315684701032785 3.5831281458992295 0 0 0
303 26 19 -0.35 4.699648571597375 8.817550882225259 2.974682975787881 0 0 0
301 26 9 0.52 5.433701667185566 9.929178323555305 3.4292120753305277 0 0 0
302 26 20 -0.5 6.6549391739945305 9.88179355504636 3.530014129294683 0 0 0
240 20 11 0.06 9.040050830783844 9.225394080902447 4.2023898449556 0 0 0
132 11 11 0.06 13.32306815948681 10.211493389058614 3.9989434463665847 0 0 0
131 11 11 0.06 14.80613740875571 9.435824629822108 3.462793028932994 0 0 0
136 12 19 -0.35 17.276920787145304 7.4955058005595125 3.993209205362522 0 0 0
138 12 1 0.22 17.687964591751197 8.619760672366548 4.7406406147954945 0 0 0
144 12 11 0.06 18.69157603086836 8.900006006487217 4.438013724438929 0 0 0
368 31 11 0.06 0.904377735491993 10.04316854240149 4.244704192270991 0 0 0
462 39 1 0.22 1.3479355222169036 12.124544706808948 2.4084100498155965 0 0 0
466 39 11 0.06 0.9237492694816989 11.207020759518509 2.00097292511985 0 0 0
467 39 11 0.06 0.8038764683001945 12.363613864673425 3.322786230332997 0 0 0
304 26 19 -0.35 4.72191167199589 11.0665796689242 3.8511345623342708 0 0 0
460 39 19 -0.35 2.7320629635248546 11.97508321874641 2.6425926023668644 0 0 0
312 26 11 0.06 6.26270762793175 12.173633521064051 4.673204586084346 0 0 0
238 20 11 0.06 8.68718516167569 10.914371250970232 4.5504848323416285 0 0 0
189 16 11 0.06 10.979123934547111 11.907838503504612 4.388831064328794 0 0 0
126 11 1 0.22 14.406832605042025 10.217580880742359 4.108020550503521 0 0 0
130 11 11 0.06 14.753933995166244 11.15460675000846 3.6779815170945063 0 0 0
457 39 9 0.52 3.293222414486012 13.21028648033683 3.0325768188748565 0 0 0
458 39 20 -0.5 2.585042094749897 14.109790013680891 3.47003260680978 0 0 0
459 39 19 -0.35 4.687619132085333 13.387900186925052 2.926930997402694 0 0 0
463 39 11 0.06 4.623629820031939 15.459006713142509 2.947783083871811 0 0 0
461 39 1 0.22 5.061291433789756 14.625055752037845 3.4953687194296803 0 0 0
464 39 11 0.06 4.762353277211337 14.706849297112669 4.540572021481489 0 0 0
465 39 11 0.06 6.140255464553069 14.741245896570476 3.4656188180005274 0 0 0
182 16 20 -0.5 8.098403238453246 13.868814250689834 4.751852398322708 0 0 0
187 16 11 0.06 9.85598605927094 12.769496408308214 3.356799948399499 0 0 0
185 16 1 0.22 10.669694875449908 12.901396640098643 4.06475889558989 0 0 0
188 16 11 0.06 11.493693454636954 13.319045168001038 3.4899862338178065 0 0 0
328 28 19 -0.35 13.679841403594665 14.272700848915306 4.236626556650209 0 0 0
330 28 1 0.22 14.069412115973071 14.889616875235674 3.0275579890227893 0 0 0
334 28 11 0.06 14.792007856355458 14.261738620647142 2.508134795280938 0 0 0
377 32 1 0.22 17.644345996330358 14.996509968064904 2.999907943214854 0 0 0
381 32 11 0.06 18.315584845925137 14.182516631262358 3.2707733201559965 0 0 0
97 9 9 0.52 0.7290617882239703 15.779076317944726 3.5354132307719075 0 0 0
98 9 20 -0.5 1.1141586548219407 16.92670495575522 3.7465949081817342 0 0 0
100 9 19 -0.35 0.3204620742805294 14.905228378323294 4.575754155512102 0 0 0
335 28 11 0.06 13.236352401493814 15.023019614571405 2.3407813764025986 0 0 0
336 28 11 0.06 14.52968517634185 15.860916283670843 3.208862278261962 0 0 0
374 32 20 -0.5 16.818957345066163 17.572650118520745 3.8891084194511696 0 0 0
379 32 11 0.06 16.838481041308476 14.99875735771516 3.738858310859176 0 0 0
373 32 9 0.52 17.988393095289233 17.20615548375992 3.809928532254348 0 0 0
375 32 19 -0.35 18.36145082729336 16.217992630522406 2.8660315060350725 0 0 0
713 63 19 -0.35 3.6503228027396295 18.45022341388828 3.6671285404465195 0 0 0
715 63 2 0.22 5.966205624537757 18.223665485870452 4.174699958854891 0 0 0
716 63 2 0.22 4.91938907950017 18.923108657895774 3.265340467936492 0 0 0
717 63 11 0.06 5.168945416859897 18.94097744672489 2.2009629790795833 0 0 0
719 63 11 0.06 6.9427881916928085 18.05692442019405 3.713615896305647 0 0 0
394 33 11 0.06 8.557900867024578 19.897879006162547 3.213321320197058 0 -1 0
442 37 11 0.06 13.00357758843532 18.017880893505833 4.900492320142345 0 0 0
444 37 11 0.06 14.7120789429752 18.419761526081405 4.9324603114034815 0 0 0
376 32 19 -0.35 18.94036127968538 17.585903714608143 4.786839443668103 0 0 0
378 32 1 0.22 18.918618844733995 18.96334106061051 5.1279971369433515 0 0 0
382 32 11 0.06 19.878111441205515 19.421250315909163 4.888023828019688 0 0 0
383 32 11 0.06 18.14463703790203 19.554612577881876 4.636212292341599 0 0 0
356 30 11 0.06 1.9684817189169246 2.5872874783946704 6.743691637133851 0 0 0
555 47 2 0.22 4.894045877620953 1.4177053392483399 6.724798212981637 0 0 0
557 47 11 0.06 3.214246086142043 0.0015313844168656475 7.015581945724811 0 0 0
558 47 11 0.06 3.3710827506404333 1.1561324313419454 8.308155903486275 0 0 0
559 47 11 0.06 5.206950932502311 0.9030012670776507 5.814493375145257 0 0 0
554 47 19 -0.35 6.213641224893529 1.0033048576253047 7.011681878756141 0 0 0
556 47 2 0.22 3.9493513128933944 0.5596676545557338 7.599430395967433 0 0 0
560 47 11 0.06 4.438118874896754 2.3522323033067196 6.394605972183281 0 0 0
720 63 11 0.06 6.152437640757941 18.68770445225928 5.147292017718403 0 0 0
505 43 9 0.52 9.868323569574288 2.3791927335122662 5.921555583444618 0 0 0
508 43 19 -0.35 10.756414108154939 1.9046226461919884 6.905094410174223 0 0 0
510 43 1 0.22 11.713551428106584 1.0603034985124113 6.307038678006928 0 0 0
514 43 11 0.06 12.276581483451405 0.5339483796525348 7.074033334753518 0 0 0
515 43 11 0.06 11.247655691117544 0.3121620879510992 5.664134927019987 0 0 0
516 43 11 0.06 12.417886635776556 1.6341883216907327 5.704886835427477 0 0 0
318 27 1 0.22 15.33829375991628 1.0707121561026038 5.881870974375456 0 0 0
324 27 11 0.06 15.945252864780969 1.9725943274558946 5.832765143368006 0 0 0
323 27 11 0.06 16.013399146844165 0.23328263524014 6.056273850308191 0 0 0
351 30 19 -0.35 2.6398044634511626 3.2348350780416406 4.899694103804207 0 0 0
353 30 1 0.22 2.0993706881438357 3.505385406529078 6.171521460456811 0 0 0
355 30 11 0.06 1.1400503605800516 4.008134878307785 6.082358231796159 0 0 0
357 30 11 0.06 2.752069148946515 4.1653154614236465 6.739480127652556 0 0 0
512 43 11 0.06 6.800152702717355 3.4490579608913055 6.154200780232501 0 0 0
507 43 19 -0.35 8.486329806886529 2.2670328854129407 6.169418728320133 0 0 0
509 43 1 0.22 7.858305269086559 3.498165058235739 5.9017629722592355 0 0 0
513 43 11 0.06 8.308972221124028 4.300601234930252 6.485670362159205 0 0 0
42 4 1 0.22 13.970753407685002 4.903013742248097 5.393083390751434 0 0 0
46 4 11 0.06 14.498894525811716 4.007788224137633 5.717088347582999 0 0 0
565 48 2 0.22 17.03660484885085 4.096401957723201 8.23780617316998 0 0 0
568 48 11 0.06 16.71976754923059 5.087982850257468 6.300608065499487 0 0 0
570 48 11 0.06 16.461818857724413 3.2186601431650104 7.936702913218803 0 0 0
140 12 11 0.06 18.557822833981923 3.344178936567356 4.362814358577924 0 0 0
561 48 9 0.52 18.867710128191504 3.205909664204373 7.275533854227256 0 0 0
562 48 20 -0.5 19.490265009260536 2.2675292438806767 6.787153538338194 0 0 0
563 48 19 -0.35 18.734108790584457 4.4317177936417895 6.605863767995307 0 0 0
256 22 19 -0.35 2.07403528738737 6.836991659293832 7.1321362984637515 0 0 0
255 22 19 -0.35 4.295906472190777 6.003002724428482 7.438461295172463 0 0 0
537 45 11 0.06 6.725227481889463 5.913369624645091 5.162122423245766 0 0 0
500 42 11 0.06 10.571267523620998 6.507675283248481 5.669778523162299 0 0 0
707 62 11 0.06 11.131652747287458 4.795820048254563 7.441117977832889 0 0 0
37 4 9 0.52 13.054451505394786 6.876009132129677 6.2344550854721525 0 0 0
38 4 20 -0.5 12.881035462247352 7.257777388884967 5.079382927193713 0 0 0
40 4 19 -0.35 13.330461677272773 5.516252714497412 6.495147824181686 0 0 0
369 31 11 0.06 1.1878421976500775 8.323083266361772 4.508109700066233 0 0 0
529 45 9 0.52 4.448548570573321 8.154030507724125 5.885547517811944 0 0 0
530 45 20 -0.5 3.546621894322419 7.784947784734849 5.138563733487239 0 0 0
532 45 19 -0.35 4.22915010372307 9.146353977053604 6.866996609793163 0 0 0
540 45 11 0.06 2.1743550993399308 9.28408125084066 6.594054755044346 0 0 0
531 45 19 -0.35 5.7300796520465775 7.560357291643187 5.8442062615437305 0 0 0
229 20 9 0.52 8.069523505298497 8.83539876578398 6.914388949670874 0 0 0
230 20 20 -0.5 9.040576987838673 8.085657861972594 6.90976224908695 0 0 0
232 20 19 -0.35 7.72902815002023 9.581042821084198 5.767048240972359 0 0 0
234 20 1 0.22 8.862736835677008 9.944699927657961 5.001952525219834 0 0 0
41 4 1 0.22 12.454561359172729 8.947595770295665 7.200109610164132 0 0 0
43 4 11 0.06 12.511180310979993 9.441399457844298 6.233094458758585 0 0 0
239 20 11 0.06 9.7851010711025 10.05617284116593 5.570248055540427 0 0 0
39 4 19 -0.35 13.263344403850772 7.791455584592776 7.2909173171179615 0 0 0
122 11 20 -0.5 15.263847195769573 7.939373674798492 5.404648443234315 0 0 0
121 11 9 0.52 15.112431108570231 8.957253972019068 6.0780074302085145 0 0 0
142 12 11 0.06 17.0447270595694 9.482341483753155 4.572101252174095 0 0 0
143 12 11 0.06 17.68195979804004 8.427865710972682 5.813899519713061 0 0 0
745 71 26 -0.39 19.71759916263363 9.982136184954916 6.443012074656893 0 0 0
746 71 26 -0.39 0.22604188896160693 12.109970371794995 6.6075908956812475 1 0 0
534 45 1 0.22 3.065814330273895 9.906567107660027 6.61607580594396 0 0 0
538 45 11 0.06 2.924683606951542 10.65130762251161 7.399590571254009 0 0 0
539 45 11 0.06 3.1271298984055353 10.437746860769007 5.6692477471320135 0 0 0
306 26 1 0.22 5.3517289704068425 11.653272706389274 4.968536543218774 0 0 0
310 26 11 0.06 4.689145064117857 12.376314265443087 5.440880922920506 0 0 0
311 26 11 0.06 5.611719975186274 10.908897636526286 5.72099100814119 0 0 0
729 64 11 0.06 11.01917515168658 11.344702746054235 7.319911431146526 0 0 0
545 46 2 0.22 15.51888693737721 12.516448509472752 6.546612628286927 0 0 0
547 46 11 0.06 13.604029155334628 12.032972108898512 7.622324705932559 0 0 0
548 46 11 0.06 13.382242827090206 12.325432215484838 5.919614198663004 0 0 0
124 11 19 -0.35 14.794461403025704 10.206328809671518 5.476552222596512 0 0 0
546 46 2 0.22 13.985953072438525 12.619898451228774 6.78253584316783 0 0 0
549 46 11 0.06 16.01193738389631 11.697020540057984 7.070478100661918 0 0 0
550 46 11 0.06 15.835407664316948 12.479176660599084 5.501094138487203 0 0 0
748 71 26 -0.39 18.22050908558479 11.50897882998842 5.914349974778841 0 0 0
639 55 11 0.06 3.829761268860176 13.760087754293876 7.336680331140419 0 0 0
192 16 11 0.06 7.568714062079036 15.30150629699249 6.8044625483772885 0 0 0
181 16 9 0.52 9.14396023299772 14.430293830155328 5.072260151104544 0 0 0
183 16 19 -0.35 10.354687621061954 13.703190406860477 5.1951921191568315 0 0 0
327 28 19 -0.35 12.42637998448912 14.610355668300894 6.258669868986239 0 0 0
543 46 19 -0.35 13.82664821367837 13.409584700398538 7.943542967237959 0 0 0
541 46 9 0.52 15.099272222842316 13.950313300660877 8.197905779887952 0 0 0
544 46 19 -0.35 16.14999683691331 13.299321668352903 7.53401713916234 0 0 0
102 9 1 0.22 0.9645746991937214 15.104309896763603 5.821326373487055 0 0 0
106 9 11 0.06 0.4140981820196794 14.601765781318727 6.614709613914412 0 0 0
107 9 11 0.06 1.9610827668068116 14.664480372759838 5.826226960941059 0 0 0
108 9 11 0.06 1.0153227700489682 16.150904186371225 6.118879568270212 0 0 0
637 55 11 0.06 5.13075363128464 15.847336263361708 6.893810114126334 0 0 0
711 63 9 0.52 3.90864148410791 17.659207178648145 4.7987758486880665 0 0 0
712 63 20 -0.5 3.219212103376712 16.685476547758384 5.070428225846701 0 0 0
190 16 11 0.06 7.88718065028162 17.02290646198117 6.602588705124856 0 0 0
191 16 11 0.06 7.112559072862516 16.11052512260067 5.315578108249022 0 0 0
184 16 19 -0.35 9.1264153729738 15.77129619844305 5.508518274411459 0 0 0
186 16 1 0.22 7.8738205689292675 16.062967153237413 6.087438908014885 0 0 0
326 28 20 -0.5 11.850877485704899 15.677275043463029 4.310497428277981 0 0 0
331 28 11 0.06 11.85030492929681 16.6213239373312 6.624390661355041 0 0 0
325 28 9 0.52 12.671744611099655 14.993027074696261 4.920562537343723 0 0 0
436 37 19 -0.35 14.239196269661818 16.681712095105585 5.891034220124883 0 0 0
433 37 9 0.52 15.465204859895245 16.674786491495567 6.581567187688648 0 0 0
435 37 19 -0.35 16.27350632956868 15.528561280796106 6.4118196469876265 0 0 0
437 37 1 0.22 17.649786316814236 15.714665673565442 6.678137893513342 0 0 0
439 37 11 0.06 17.961825206508635 16.72926591817407 6.920460780698341 0 0 0
440 37 11 0.06 17.971084738324176 15.068798345658605 7.495294110543323 0 0 0
441 37 11 0.06 18.20073842319188 15.420026216923988 5.792161071418988 0 0 0
714 63 19 -0.35 5.226115055761704 17.74780981785893 5.273632761416221 0 0 0
322 27 11 0.06 14.675603853086297 1.1529868506306389 6.742937314047533 0 0 0
438 37 1 0.22 13.903355123582438 17.994695505144524 5.515076147223049 0 0 0
443 37 11 0.06 13.741173585187921 18.6296970747971 6.3848343402087675 0 0 0
434 37 20 -0.5 15.650402509408446 17.46653618641722 7.502283745800733 0 0 0
384 32 11 0.06 18.7722502820001 19.07760444885976 6.201978548346292 0 0 0
551 47 9 0.52 6.083723747495371 19.972188821419135 7.959667631265291 0 -1 0
553 47 19 -0.35 4.767301006980749 19.711892431675444 8.378759018648713 0 -1 0
82 7 11 0.06 7.437616756530582 1.9963839605817757 9.037183883463785 0 0 0
153 13 11 0.06 12.690874666804339 2.798816171141149 8.514684775392874 0 0 0
581 50 9 0.52 9.600770474420706 0.8577046121905627 9.556072970074407 0 0 0
584 50 19 -0.35 10.869299113951186 1.44682399894691 9.655718547604998 0 0 0
664 58 19 -0.35 10.698377524372058 18.932967679526076 10.735358347932927 0 0 0
147 13 19 -0.35 14.470393510633677 1.985862391045966 9.157056083383438 0 0 0
145 13 9 0.52 15.499259161172024 2.1843680835973274 10.113430042308869 0 0 0
148 13 19 -0.35 16.71150040842265 1.485686707821627 9.870773380934732 0 0 0
78 7 1 0.22 6.729762488674301 2.497534211241834 9.693092705012031 0 0 0
83 7 11 0.06 6.827396980990977 3.5634100379717997 9.521349550501103 0 0 0
257 22 1 0.22 5.124075923817629 5.162245620981694 8.214391861439934 0 0 0
259 22 11 0.06 5.2076102956314365 5.451557228125999 9.262242228413218 0 0 0
260 22 11 0.06 4.796752578648163 4.123606427680126 8.175731079485397 0 0 0
702 62 20 -0.5 9.300617204548802 3.6819259361176226 10.280465428295239 0 0 0
703 62 19 -0.35 10.061250011250998 4.710333942071339 8.352410442502922 0 0 0
701 62 9 0.52 10.198342647348083 4.280714608701949 9.694309760110528 0 0 0
704 62 19 -0.35 11.273209922381659 4.8755127333672394 10.3718988280431 0 0 0
149 13 1 0.22 13.630170577288549 3.1114521298002407 8.971214607423052 0 0 0
151 13 11 0.06 13.378419302556804 3.6137483620110795 9.90169640648343 0 0 0
152 13 11 0.06 14.073595954961851 3.852028039871974 8.307341886060646 0 0 0
566 48 2 0.22 17.501527364629297 4.950567488685945 7.044744210890849 0 0 0
569 48 11 0.06 16.38188379999718 4.663079259359566 8.902100671811798 0 0 0
245 21 1 0.22 19.902341671398695 4.322153882830018 9.97545615969504 0 0 0
248 21 11 0.06 19.02789052578432 4.822243221555417 9.56244542253403 0 0 0
249 21 11 0.06 0.605209019530172 4.097038719112215 9.173348969374546 1 0 0
564 48 19 -0.35 17.912793665815702 2.98989881686079 8.280985802008598 0 0 0
258 22 1 0.22 0.9498149882163441 7.284247942196805 7.849345089161263 0 0 0
262 22 11 0.06 0.18149899634373406 7.637416305415594 7.16744847398199 0 0 0
263 22 11 0.06 0.5072845889381792 6.472895308666998 8.409728286437858 0 0 0
253 22 9 0.52 3.0425741851151495 6.306455058257695 8.008342197490615 0 0 0
254 22 20 -0.5 2.864076066084138 6.313428898285749 9.225021421132858 0 0 0
237 20 11 0.06 5.948098754021413 7.6499203437608365 8.332067527015628 0 0 0
261 22 11 0.06 6.124621205161435 5.216340825383041 7.786668459198162 0 0 0
235 20 11 0.06 7.5779515651681475 7.091193097529997 8.672532992187232 0 0 0
708 62 11 0.06 10.150753921463489 6.20054339178997 8.113756981917948 0 0 0
705 62 2 0.22 11.95367262424101 5.640616351087554 9.398271137931463 0 0 0
706 62 2 0.22 11.09747937524482 5.655418405617573 8.115811268689342 0 0 0
709 62 11 0.06 12.969162120282085 5.9725686790982655 9.182009408900766 0 0 0
710 62 11 0.06 11.57016435360577 6.31649497967567 10.164749421756008 0 0 0
127 11 11 0.06 15.556246935868275 6.854313099352001 7.629325500945062 0 0 0
567 48 11 0.06 17.86324290953494 5.934238106093341 7.343177134679562 0 0 0
264 22 11 0.06 1.2015832161571922 8.077237470149784 8.553797707557916 0 0 0
521 44 1 0.22 4.439716146639394 9.960061553986169 9.928073193548727 0 0 0
523 44 11 0.06 3.644119622475826 9.240881956412265 9.740426930338344 0 0 0
524 44 11 0.06 5.1178141346096995 9.883195727884623 9.082809065933214 0 0 0
231 20 19 -0.35 7.366515149936018 9.112033655609745 8.105656099410245 0 0 0
233 20 1 0.22 6.902524939421005 7.942405424596379 8.751534008646926 0 0 0
236 20 11 0.06 6.740166775735614 8.122025309992347 9.813585208793752 0 0 0
44 4 11 0.06 11.410093656358555 8.71261056059386 7.401005973713757 0 0 0
214 18 11 0.06 11.62125784135026 8.83195690050162 9.9686597746411 0 0 0
45 4 11 0.06 12.786341183653478 9.685433092617293 7.9296893918402915 0 0 0
129 11 11 0.06 15.061245807815254 7.685142493710976 9.024434613271202 0 0 0
123 11 19 -0.35 15.436900738507033 9.010809438878455 7.466684260724492 0 0 0
125 11 1 0.22 15.701129721396173 7.790917139564153 8.156147321359347 0 0 0
128 11 11 0.06 16.719869754341836 7.808559700164607 8.536420005017543 0 0 0
297 25 11 0.06 18.818213942824087 7.587250450471589 9.875895909066593 0 0 0
517 44 9 0.52 2.7169663367994117 11.691577397858712 10.10288439472484 0 0 0
518 44 20 -0.5 1.7988110307233367 10.872764339428374 10.12494290341829 0 0 0
520 44 19 -0.35 2.4405029101167566 13.065854027749067 10.27544166995133 0 0 0
522 44 1 0.22 1.160111124867359 13.403865924683116 9.788430556429024 0 0 0
527 44 11 0.06 1.0411674588838908 13.120505862940394 8.743940141802943 0 0 0
519 44 19 -0.35 4.092429748466136 11.327807946635874 10.099089485451032 0 0 0
731 65 31 1 6.197220854025544 11.863770946270067 8.004761988626242 0 0 0
724 64 19 -0.35 9.13763409819832 12.027150152257091 7.724624051919715 0 0 0
726 64 2 0.22 11.017967964558567 12.510749074451283 9.142142002357632 0 0 0
730 64 11 0.06 10.243422769847863 10.531389907827842 8.65793649937167 0 0 0
528 44 11 0.06 0.37811934182400686 12.914127273700549 10.36186747994747 0 0 0
743 71 27 1.34 19.091041423248676 11.20340583912516 7.172388902992358 0 0 0
747 71 26 -0.39 17.963193021975396 10.286454246699106 7.737991238887929 0 0 0
749 71 26 -0.39 19.95901377340792 10.890330065605108 8.429578925762824 0 0 0
526 44 11 0.06 0.9891282903769021 14.477306907137045 9.868127032716428 0 0 0
634 55 19 -0.35 2.8079969449033286 14.796348411297187 8.183742363907754 0 0 0
636 55 2 0.22 5.0967055347566825 15.454105416032203 7.912144485476419 0 0 0
640 55 11 0.06 4.602409047998256 13.571371270357265 8.893736837930025 0 0 0
722 64 20 -0.5 7.848491378647957 13.670596040255719 8.677337704056765 0 0 0
721 64 9 0.52 8.967114309851103 13.222510635570078 8.436916149499472 0 0 0
723 64 19 -0.35 10.09090865044453 13.585349327848645 9.21917937133341 0 0 0
725 64 2 0.22 10.36906009843972 11.501984410089172 8.178899769830204 0 0 0
727 64 11 0.06 11.436814943917359 13.428241332083113 8.731730606962673 0 0 0
744 71 26 -0.39 18.46735806047302 12.435270991575228 7.896969541571088 0 0 0
631 55 9 0.52 2.944370666965503 16.183241999923034 8.044070761535947 0 0 0
632 55 20 -0.5 2.0294767084628282 16.962162604167204 8.302846954582309 0 0 0
633 55 19 -0.35 4.277895603312761 16.61571682725926 7.851078844495975 0 0 0
635 55 2 0.22 4.12929740633375 14.29926812068489 8.234627915168533 0 0 0
638 55 11 0.06 5.350746326017812 16.173658705200044 8.695050522530986 0 0 0
329 28 1 0.22 11.855289661859654 15.624718026611388 7.064517568230248 0 0 0
332 28 11 0.06 10.82127602481864 15.383423782068732 7.303125437675586 0 0 0
333 28 11 0.06 12.404123897866807 15.682173928170187 8.004424415420807 0 0 0
542 46 20 -0.5 15.234080613638135 15.0880152988768 8.640951952734655 0 0 0
552 47 20 -0.5 7.006925598463248 19.199759507640362 8.206644812140102 0 -1 0
582 50 20 -0.5 9.218894344504891 0.32134217536660403 8.518562228521365 0 0 0
667 58 11 0.06 9.282373669830482 16.83535950113089 8.668162506125594 0 0 0
669 58 11 0.06 8.569911258035189 18.040677583422664 10.732337555856054 0 0 0
661 58 9 0.52 11.526044672599818 18.777463622794784 9.61291338741831 0 0 0
663 58 19 -0.35 11.180653455192864 17.725000950155856 8.759897874790626 0 0 0
665 58 2 0.22 9.645180184861136 18.016412977430992 10.546880932956862 0 0 0
662 58 20 -0.5 12.455132542766831 19.53826550040436 9.359173800294 0 0 0
81 7 11 0.06 2.391747160898351 2.279268628684469 12.493025830202484 0 0 0
33 3 11 0.06 4.190581771953203 0.21196558706605156 12.710879051286296 0 0 0
75 7 19 -0.35 3.4832242916162506 1.6910182328293395 10.824864615117507 0 0 0
76 7 19 -0.35 5.418622072164677 2.0507252252368806 9.42726508246862 0 0 0
583 50 19 -0.35 8.922039496316835 0.6907676167507412 10.777995345998733 0 0 0
585 50 2 0.22 11.183827807860233 1.3701905854048264 11.02635345550465 0 0 0
587 50 11 0.06 9.265894496488922 1.918074616180299 12.050337428309513 0 0 0
586 50 2 0.22 9.859306463891084 1.045298466517134 11.774441176491585 0 0 0
589 50 11 0.06 11.399963082242165 2.4279042932526975 10.865732532653173 0 0 0
590 50 11 0.06 12.084586369682695 0.8963110462679604 11.424957130221205 0 0 0
476 40 11 0.06 15.080101121904432 19.803968201115733 10.739413845295 0 0 0
146 13 20 -0.5 15.227679604065338 2.601100681737718 11.23830498183401 0 0 0
150 13 1 0.22 17.578234682741616 1.3631058166226786 10.986932322721447 0 0 0
155 13 11 0.06 17.68131182231066 2.2787424779602468 11.567742535279647 0 0 0
156 13 11 0.06 17.272925030129088 0.5682590944662612 11.663458378089633 0 0 0
80 7 11 0.06 1.4479935276539682 1.8589675203988645 11.083509549711437 0 0 0
73 7 9 0.52 4.521476678122758 2.554641405373283 10.391049434176011 0 0 0
77 7 1 0.22 2.3680423623552866 2.3453828774023773 11.4052012388908 0 0 0
79 7 11 0.06 2.2791471786826154 3.394106290745028 11.131536942507473 0 0 0
74 7 20 -0.5 4.757535697549696 3.6262020709919556 10.944424973197005 0 0 0
84 7 11 0.06 7.0268389147765244 2.3190473344711173 10.724213089448533 0 0 0
36 3 11 0.06 7.459543438890752 4.571565979292644 11.7185384417605 0 0 0
734 68 31 1 15.021516465608562 5.0905257967732505 11.139795525531513 0 0 0
241 21 9 0.52 19.713095198915347 5.0933344409817 12.152147325446998 0 0 0
242 21 20 -0.5 18.520946300681643 4.796390664399806 12.110274652701458 0 0 0
247 21 11 0.06 19.583453102771784 3.358914965169006 10.361490148031297 0 0 0
94 8 11 0.06 9.298810486880814 7.6458182620119395 13.157148940163834 0 0 0
95 8 11 0.06 10.343826137052709 6.49649614434761 12.39920041137141 0 0 0
202 17 11 0.06 16.412862462307892 7.427164634872054 11.373954036847783 0 0 0
243 21 19 -0.35 0.48903919972594845 5.1300886661492004 10.973617837986158 1 0 0
296 25 11 0.06 18.901200680561004 7.394153039120421 11.609004313322023 0 0 0
220 19 19 -0.35 4.1459556040029835 8.963581806527325 13.063600301884764 0 0 0
228 19 11 0.06 3.020890820451107 7.627237020358937 11.945139529065397 0 0 0
525 44 11 0.06 4.989128001013136 9.608143836804912 10.800594644828397 0 0 0
405 34 11 0.06 8.378167515175411 9.964964171286242 10.222787811009681 0 0 0
210 18 1 0.22 11.292338071673381 9.048690386617334 10.982371198534489 0 0 0
215 18 11 0.06 11.96083201795644 8.517551377571689 11.654460916659875 0 0 0
216 18 11 0.06 10.299556591702277 8.62268548136056 11.086401761297893 0 0 0
599 51 11 0.06 13.998771372424157 9.39123706752187 10.503765407993331 0 0 0
196 17 19 -0.35 17.06411692724376 8.416730624835488 13.073079435785626 0 0 0
198 17 1 0.22 16.19543759223776 7.485552957185341 12.440394358133272 0 0 0
204 17 11 0.06 15.127643298774972 7.696841240000849 12.535172353245738 0 0 0
291 25 19 -0.35 18.14042703735732 9.202611791232187 10.95819912482439 0 0 0
293 25 1 0.22 19.038964208657905 8.112552955167164 10.802288385362182 0 0 0
295 25 11 0.06 0.10227097479891015 8.366114793092509 10.780393409273332 1 0 0
219 19 19 -0.35 3.382785065740308 11.190359551042611 12.491758210491842 0 0 0
398 34 20 -0.5 5.824280596925762 11.703794903921697 12.336887936794668 0 0 0
403 34 11 0.06 7.00199924275657 11.056802162226322 10.229943928278391 0 0 0
399 34 19 -0.35 7.367519278694641 10.02434141141177 12.005620952891059 0 0 0
401 34 1 0.22 7.821340202476191 10.667489325273523 10.8301011314284 0 0 0
404 34 11 0.06 8.509254680330189 11.486028258426163 11.016905422878683 0 0 0
205 18 9 0.52 10.555787243855615 10.802867502403345 12.368006636706038 0 0 0
208 18 19 -0.35 11.307473108531363 10.440383411485495 11.225140252619214 0 0 0
728 64 11 0.06 10.649348583436876 12.604719918673542 10.164928678380067 0 0 0
593 51 19 -0.35 13.387499772550047 12.093884907428055 11.662922483035851 0 0 0
595 51 2 0.22 14.544457066769963 10.132904506235189 11.078004371987108 0 0 0
596 51 2 0.22 14.226016284702654 11.584410035221676 10.640250550449707 0 0 0
597 51 11 0.06 13.20994279009677 11.744411998410008 10.262514619016645 0 0 0
292 25 19 -0.35 18.317788171660972 11.506346634879053 10.21176759904764 0 0 0
598 51 11 0.06 14.845897524753374 11.869535910112086 9.785449450144865 0 0 0
600 51 11 0.06 15.605127409409329 9.865088448639051 11.058733794237268 0 0 0
289 25 9 0.52 18.78102522744653 10.461767837923867 11.038655067763994 0 0 0
290 25 20 -0.5 19.748556742688358 10.63210863542159 11.774410536820998 0 0 0
225 19 11 0.06 2.8345670531786693 13.164096665490648 12.74505949181436 0 0 0
423 36 19 -0.35 4.900929451818871 15.301060436008859 12.138291798141886 0 0 0
424 36 19 -0.35 7.168306422411717 14.51786253823077 11.88962251655785 0 0 0
426 36 1 0.22 8.446041037727554 14.947963754731829 11.473303913836434 0 0 0
430 36 11 0.06 9.160567121867379 14.126287373699595 11.475303212424901 0 0 0
431 36 11 0.06 8.391226327201556 15.33757436831404 10.459543693658036 0 0 0
474 40 1 0.22 14.771264902354018 14.445378425232763 11.925403181648406 0 0 0
479 40 11 0.06 13.696166574359424 14.541059018687685 12.056629921413602 0 0 0
298 25 11 0.06 16.80013965041746 12.45068376437051 11.237114325578185 0 0 0
478 40 11 0.06 15.124071093462653 13.684685704371816 12.62122608655856 0 0 0
480 40 11 0.06 14.94526595052975 14.09479657533654 10.915268276014702 0 0 0
294 25 1 0.22 17.84280968849389 12.6042374396021 10.967059823930677 0 0 0
299 25 11 0.06 18.40388478254536 12.777620368366481 11.88702133810373 0 0 0
300 25 11 0.06 17.900125871180386 13.520476080170392 10.379309313280844 0 0 0
425 36 1 0.22 3.92179566266025 15.906376855436916 11.313535650867724 0 0 0
427 36 11 0.06 4.225191494506361 16.857078581465082 10.877081543923076 0 0 0
428 36 11 0.06 3.6439851547884965 15.245212991836004 10.49648206206378 0 0 0
429 36 11 0.06 3.0202776707624603 16.099527669466426 11.894525016412846 0 0 0
421 36 9 0.52 6.229533163513722 15.561350142437679 11.7283728522264 0 0 0
422 36 20 -0.5 6.621403891826666 16.7148277836179 11.563517121677103 0 0 0
51 5 19 -0.35 12.373283337223056 16.83084021017804 12.580714179685536 0 0 0
668 58 11 0.06 10.599730285577154 16.18938896666778 9.65858732499433 0 0 0
470 40 20 -0.5 14.081639321308138 16.395224168698654 10.43208209703179 0 0 0
469 40 9 0.52 15.00292021804733 16.64132791691321 11.211013876274249 0 0 0
472 40 19 -0.35 15.446049336219131 15.663746733502316 12.127999532906895 0 0 0
756 72 26 -0.39 19.177122007910558 16.090229481655992 11.691320018303413 0 0 0
588 50 11 0.06 9.982795884069366 0.4662803872696858 12.69403152865851 0 0 0
57 5 11 0.06 11.994334719324945 18.819062073544018 13.026164678764927 0 0 0
666 58 2 0.22 10.075404190311668 17.104239678590545 9.36949559313916 0 0 0
670 58 11 0.06 10.130158684364531 17.800904061681834 11.502442525098282 0 0 0
53 5 1 0.22 12.78429401343188 18.187134319697215 12.620361055235762 0 0 0
55 5 11 0.06 13.684696968199768 18.360574821020474 13.209506724963877 0 0 0
56 5 11 0.06 13.005174118978033 18.541949675305386 11.614126283929927 0 0 0
475 40 11 0.06 14.770097581675559 18.617614656381075 9.5368232255901 0 0 0
471 40 19 -0.35 15.43273336348487 17.962945492694203 11.468635338848154 0 0 0
473 40 1 0.22 15.428979308853005 18.848329372064818 10.365633082453332 0 0 0
477 40 11 0.06 16.42814555532035 18.96235650943936 9.9461583602323 0 0 0
154 13 11 0.06 18.574764297596186 1.0894837525353644 10.640840828747619 0 0 0
32 3 11 0.06 5.662535299481589 0.37278844072255496 13.66333775442295 0 0 0
26 3 20 -0.5 7.114615291071825 2.3831958347224678 13.234891933800748 0 0 0
27 3 19 -0.35 4.843248713495774 2.150887501869675 12.960573337988453 0 0 0
29 3 1 0.22 5.118940710812461 0.7729303099948867 12.808984763523329 0 0 0
31 3 11 0.06 5.706683688117258 0.5662146191417401 11.917829010748784 0 0 0
16 2 19 -0.35 11.51984932913941 2.373068035796066 13.360268324003735 0 0 0
15 2 19 -0.35 13.808215140322375 1.6289576971494755 13.080305402863974 0 0 0
17 2 1 0.22 14.922545631531419 1.9614425030923548 13.890005514265658 0 0 0
20 2 11 0.06 14.84216291353202 1.4867424918142504 14.865491907560326 0 0 0
21 2 11 0.06 15.823148808369751 1.567541653048003 13.435113627023862 0 0 0
758 73 26 -0.39 17.30675679259478 19.85904628244612 14.496084396923267 0 -1 0
761 73 26 -0.39 18.260025923940063 1.778095580995438 13.947420395554683 0 0 0
763 73 26 -0.39 19.381122499597392 19.892451683619846 13.756340342337257 0 -1 0
252 21 11 0.06 0.3310915150787636 3.531586693194177 14.1228542031627 1 0 0
25 3 9 0.52 6.0249599273045575 2.918885498744898 13.049465208318482 0 0 0
28 3 19 -0.35 5.895084534086451 4.326217657231411 13.055950881188203 0 0 0
22 2 11 0.06 9.838458300166248 3.3710615137429096 14.063224973010355 0 0 0
35 3 11 0.06 7.878930241745664 4.775776061793269 13.40579671600048 0 0 0
18 2 1 0.22 10.776300916140285 3.558754322940479 13.545622023565551 0 0 0
23 2 11 0.06 11.329176108291367 4.2866503721098965 14.134273284660845 0 0 0
24 2 11 0.06 10.52174914699241 4.010632644788567 12.591733639083968 0 0 0
13 2 9 0.52 12.855860327640906 2.669069470639149 13.004037102084865 0 0 0
14 2 20 -0.5 13.156548025188282 3.7558520704794867 12.513971816560401 0 0 0
19 2 11 0.06 15.094589880970368 3.0312272341873654 14.036492350772118 0 0 0
246 21 1 0.22 0.0019191191389396067 4.537463103695857 14.38318208560995 1 0 0
251 21 11 0.06 18.926636880921425 4.50817201265201 14.559618777333373 0 0 0
768 74 26 -0.39 0.8249316666313452 7.541486400316009 14.65442637608946 1 0 0
226 19 11 0.06 4.515442088409745 6.983597971237805 12.619902411912488 0 0 0
30 3 1 0.22 7.099120545141668 4.950358664088521 12.671169931188707 0 0 0
34 3 11 0.06 6.964849085293378 6.027919521212038 12.575427339178368 0 0 0
96 8 11 0.06 9.78899427240205 6.25140160588556 14.052306468187501 0 0 0
85 8 9 0.52 12.527326469022608 7.189820851971099 13.729115753041233 0 0 0
86 8 20 -0.5 12.80733762697541 6.448175082365855 12.788204382832214 0 0 0
90 8 1 0.22 10.14753625145631 6.993320427131185 13.348273752633713 0 0 0
91 8 11 0.06 14.462801317944457 5.8513126297955775 14.562286823128765 0 0 0
203 17 11 0.06 16.356978936523145 6.490104526282278 12.854398800027854 0 0 0
244 21 19 -0.35 0.33229029978664865 5.457210951928637 13.365646624025555 1 0 0
765 74 26 -0.39 18.6913290602979 7.019681917699461 14.421050573328326 0 0 0
218 19 20 -0.5 1.9381800526266846 9.575402627241766 13.265754674200645 0 0 0
222 19 1 0.22 3.6795176871029014 7.6562995499079145 12.813318132491485 0 0 0
227 19 11 0.06 3.1306394314489627 7.268545397748872 13.671297897967055 0 0 0
287 24 11 0.06 7.667297926650494 7.752702846063462 15.046142196088047 0 0 0
88 8 19 -0.35 11.223603339236904 7.735675972500311 13.908716099418465 0 0 0
206 18 20 -0.5 10.262858897941294 9.950634654436922 13.203423177382593 0 0 0
87 8 19 -0.35 13.573411270797324 7.7638554067359475 14.49171823387558 0 0 0
92 8 11 0.06 15.415104729586691 7.162911396053261 15.221615567119265 0 0 0
194 17 20 -0.5 15.441990625731798 9.488378482191779 14.306652876126234 0 0 0
767 74 26 -0.39 18.12181609222486 8.971516329843801 15.27167108539433 0 0 0
764 74 27 1.34 19.473252032102145 8.256260091679087 14.96243143960079 0 0 0
769 74 26 -0.39 19.477012317904915 8.87955392362717 13.534967494570884 0 0 0
223 19 11 0.06 1.5182419067520767 12.008963955330447 12.877475834752515 0 0 0
217 19 9 0.52 3.089690577981994 9.899091754864655 12.983882818024439 0 0 0
221 19 1 0.22 2.5697267900022815 12.16960703147932 13.104468742004396 0 0 0
408 34 11 0.06 4.788545779207003 10.87798382502636 14.534881951963236 0 0 0
397 34 9 0.52 6.609404139871787 10.892296653500482 12.82219253774868 0 0 0
400 34 19 -0.35 6.828215663411558 10.84668851141313 14.215962685970425 0 0 0
402 34 1 0.22 5.698242823916688 11.347764699381278 14.895314954228995 0 0 0
407 34 11 0.06 5.600361451729971 12.42420910512285 14.754957022105074 0 0 0
209 18 1 0.22 9.450417289833629 12.561025231282663 13.61001215412548 0 0 0
211 18 11 0.06 9.489517640247566 11.939941102721283 14.496259229105894 0 0 0
213 18 11 0.06 8.420090821003804 12.553777356387855 13.27116507827493 0 0 0
207 18 19 -0.35 10.399754671061638 12.196243821540458 12.617549753172126 0 0 0
591 51 9 0.52 13.336289077965247 11.106929483730735 12.66990612001954 0 0 0
592 51 20 -0.5 12.673871221141727 11.241271293076842 13.696124336645688 0 0 0
594 51 19 -0.35 13.95753890799319 9.897243647631063 12.33785659969159 0 0 0
193 17 9 0.52 16.40716713990456 9.576950502099267 13.551635073652308 0 0 0
195 17 19 -0.35 16.890648086509543 10.84320593480387 13.14910249978261 0 0 0
197 17 1 0.22 17.283150770835917 11.647102805995154 14.250153016660203 0 0 0
199 17 11 0.06 16.740447052235144 11.439793496716408 15.175139172474132 0 0 0
224 19 11 0.06 2.676780897202672 12.168408711582098 14.188602778879451 0 0 0
58 5 11 0.06 11.695546299407404 13.41767832113053 15.313553706646823 0 0 0
212 18 11 0.06 9.628855351044304 13.588976830678838 13.920536875955074 0 0 0
54 5 1 0.22 12.41159667423023 14.155896439007796 14.957727737906906 0 0 0
59 5 11 0.06 13.097827565108204 13.628598968958078 14.302639804239142 0 0 0
201 17 11 0.06 17.113876927672997 12.699194384029989 14.025174257880167 0 0 0
452 38 11 0.06 16.10006064106809 14.977857068613552 14.698022916222918 0 0 0
751 72 26 -0.39 0.4217409319298245 15.452793819681702 13.398374156093855 1 0 0
684 60 19 -0.35 2.5819689537356685 16.985159122970543 14.546102105678024 0 0 0
686 60 2 0.22 4.784949698647217 17.815527428829867 14.813339455811871 0 0 0
65 6 1 0.22 7.809732279172544 16.59467455610418 14.744591998574668 0 0 0
68 6 11 0.06 7.1988575256239224 16.172453900534812 13.949267803944336 0 0 0
69 6 11 0.06 7.770582038188487 17.68025849096799 14.658408684945556 0 0 0
689 60 11 0.06 4.500485934280141 15.662865192172275 14.57833835750669 0 0 0
67 6 11 0.06 8.84196701844186 16.288707069175558 14.57523554874528 0 0 0
432 36 11 0.06 8.847159352252289 15.726466366018762 12.12352741662492 0 0 0
52 5 19 -0.35 11.776736763891643 15.241079231168568 14.308445113802428 0 0 0
49 5 9 0.52 12.737596944806894 16.112651052373312 13.745339617438892 0 0 0
50 5 20 -0.5 13.918429347355291 16.028841888842795 14.077146723345336 0 0 0
750 72 27 1.34 19.154072846901066 16.345990215209813 13.229931503532267 0 0 0
754 72 26 -0.39 18.2470405098812 15.092280480566835 13.423316704111512 0 0 0
755 72 26 -0.39 19.129973406521437 16.602153671516906 14.768674411422118 0 0 0
682 60 20 -0.5 1.7112400290390346 19.091954077677478 14.17640771437477 0 0 0
753 72 26 -0.39 0.06311107520870439 17.59827847811347 13.035091845822341 1 0 0
681 60 9 0.52 2.6477400535280076 18.390256030853617 14.549478706444468 0 0 0
683 60 19 -0.35 3.913979004489016 18.924452639798453 14.834234540184788 0 0 0
685 60 2 0.22 3.9051002131661736 16.551168756720866 14.789722382579923 0 0 0
687 60 11 0.06 5.385158734879212 17.900231215020188 13.90522511092778 0 0 0
752 72 26 -0.39 17.885968338445544 17.239226358646263 13.062344820647283 0 0 0
484 41 19 -0.35 7.6261623933728915 1.8936937780666052 16.509962337846584 0 0 0
486 41 1 0.22 7.151516956484832 0.6233160809859655 16.90079710822208 0 0 0
492 41 11 0.06 6.960704431014298 19.993595678029415 16.032075687313956 0 -1 0
10 1 11 0.06 13.708736077463355 19.34297310612814 15.752287567327777 0 0 0
340 29 19 -0.35 11.73795514730433 2.2325747953736697 15.845087839207837 0 0 0
342 29 1 0.22 11.01487696215789 1.0257375770739368 15.637839031387166 0 0 0
347 29 11 0.06 10.864254975504211 0.4819612824893089 16.569635163315912 0 0 0
348 29 11 0.06 10.04263140663452 1.1367088353704107 15.161207712550683 0 0 0
762 73 26 -0.39 17.838496207396535 1.3187548313641049 16.061139442325242 0 0 0
757 73 27 1.34 18.612669625259095 0.6041456121151008 14.910985348420985 0 0 0
759 73 26 -0.39 19.920660837846874 1.345317643092581 15.326401838495686 0 0 0
481 41 9 0.52 6.604994182198317 2.6412859865841374 15.883732599135593 0 0 0
482 41 20 -0.5 5.586813916813487 2.079698308425643 15.48680436660966 0 0 0
487 41 11 0.06 4.832306093369913 4.453621607455673 15.313794448751539 0 0 0
343 29 11 0.06 10.05398770296157 5.665780583822031 16.466742017945165 0 0 0
483 41 19 -0.35 6.8829387807708375 3.993137162318358 15.559429913564543 0 0 0
337 29 9 0.52 10.97658978524876 3.292731480851006 16.399943954409665 0 0 0
338 29 20 -0.5 9.762855744461753 3.1886972411329495 16.55614816687132 0 0 0
339 29 19 -0.35 11.691718830103136 4.393531367800446 16.940078595597743 0 0 0
694 61 19 -0.35 13.974469582691807 2.783365946281001 16.81681180676132 0 0 0
696 61 2 0.22 14.408671461255421 4.280611550266156 18.585683877307652 0 0 0
699 61 11 0.06 14.441621490514361 4.113902223395583 16.371884885867974 0 0 0
120 10 11 0.06 18.646010202768167 5.213437372978979 17.069476589536375 0 0 0
485 41 1 0.22 5.771899277027984 4.870493872623495 15.673057666354888 0 0 0
488 41 11 0.06 5.6015423527082255 5.194407916440957 16.696792724553365 0 0 0
489 41 11 0.06 5.963039644913857 5.773465018676494 15.093010027521368 0 0 0
341 29 1 0.22 11.125710627719483 5.665559853417451 16.655358281467894 0 0 0
344 29 11 0.06 11.29153029115136 6.335041317859787 17.49682033197383 0 0 0
345 29 11 0.06 11.5978542451611 6.1330351081839645 15.794875818529386 0 0 0
89 8 1 0.22 14.396886036555605 6.790911707731817 15.112687340043701 0 0 0
93 8 11 0.06 14.037659509525303 6.567073497410773 16.11484930559779 0 0 0
250 21 11 0.06 0.48295159197216614 4.815941030207171 15.320767845949607 1 0 0
618 53 11 0.06 4.2020094470130145 9.318651201287071 16.774095131561104 0 0 0
282 24 1 0.22 7.2351961442662995 8.391570164429815 15.812024153747688 0 0 0
286 24 11 0.06 6.242291073171083 8.687506787449328 15.474968998376642 0 0 0
288 24 11 0.06 7.120455881662701 7.784458809282174 16.708027322142694 0 0 0
277 24 9 0.52 9.363918037325737 9.130334446506833 16.344193450133485 0 0 0
278 24 20 -0.5 9.591132737048843 8.081636703642166 16.942878036796102 0 0 0
280 24 19 -0.35 8.040921928024154 9.52539929509255 16.05334439487159 0 0 0
281 24 1 0.22 11.625866167391294 9.563772819028815 16.549678724834788 0 0 0
283 24 11 0.06 11.916504811987611 8.583406377773596 16.17431644666733 0 0 0
284 24 11 0.06 12.433443336708276 10.260737501199758 16.32479610846226 0 0 0
766 74 26 -0.39 0.25303105326701925 9.493361622361858 15.504968489745805 1 0 0
770 74 26 -0.39 19.472593398973594 7.632363490108776 16.388962955534584 0 0 0
406 34 11 0.06 5.753077095455385 11.140719236004228 15.962345268883436 0 0 0
179 15 11 0.06 10.035895945711514 12.358399329997761 16.895445038759338 0 0 0
279 24 19 -0.35 10.415726313103185 9.990715024679364 15.962881508533886 0 0 0
285 24 11 0.06 11.534903123989041 9.493951613725104 17.6335186864936 0 0 0
577 49 11 0.06 14.563875462870092 11.594554054745062 16.74137254572732 0 0 0
200 17 11 0.06 18.34705667724417 11.526006208493888 14.453181770109294 0 0 0
61 6 9 0.52 7.570155248157706 14.78574410230756 16.160917145626062 0 0 0
62 6 20 -0.5 8.710541476349068 14.33147978911025 16.123690960863055 0 0 0
60 5 11 0.06 12.985352124430857 14.494878493054573 15.81423524525208 0 0 0
453 38 11 0.06 15.302386620142741 13.622194414889059 15.479521149498328 0 0 0
579 49 11 0.06 13.511373227764357 13.467487796889678 18.031705211752076 0 0 0
445 38 9 0.52 17.772826574691614 15.07145904371018 17.039912496938438 0 0 0
447 38 19 -0.35 17.149361688868673 14.07828167119235 16.2460049963448 0 0 0
449 38 1 0.22 15.929846273686175 14.494221935898334 15.658916814263446 0 0 0
448 38 19 -0.35 19.181874227850578 15.122102561070946 17.021980706328396 0 0 0
690 60 11 0.06 3.452020257641979 16.361735699066738 15.76435070299925 0 0 0
732 66 31 1 3.9934313331316256 17.439996527981258 17.95380471023499 0 0 0
63 6 19 -0.35 7.340285841992906 16.168783197408644 16.004983610061508 0 0 0
2 1 20 -0.5 12.952541050458128 16.22179709225758 17.620589132255017 0 0 0
451 38 11 0.06 15.345714569438693 15.176444759693561 16.27489542606764 0 0 0
688 60 11 0.06 5.480910213878012 17.815475507084372 15.651937363893026 0 0 0
12 1 11 0.06 12.504941054771095 18.098317660397594 15.396421761524623 0 0 0
6 1 1 0.22 13.306401734684252 18.384098963039524 16.07707864079602 0 0 0
11 1 11 0.06 14.123481224394986 17.66864019213432 15.952760745572142 0 0 0
346 29 11 0.06 11.575459648147904 0.37870061327753496 14.966306736353218 0 0 0
735 69 31 1 17.686274861087444 18.08481311402103 17.545879860813503 0 0 0
760 73 26 -0.39 18.969770109256892 19.43171573198199 15.876019951515639 0 -1 0
418 35 11 0.06 0.8557476080594941 1.498329063188862 17.904707779124003 1 0 0
491 41 11 0.06 6.22736784281926 0.7028352354724019 17.472400714344083 0 0 0
490 41 11 0.06 7.8845737084512235 0.11428619281594402 17.527262847023433 0 0 0
692 61 20 -0.5 12.586176847846797 1.4715192224670046 18.086578095648765 0 0 0
413 35 1 0.22 15.474892175281896 0.444870694862483 18.31651507588008 0 0 0
415 35 11 0.06 15.100728227105144 1.2951808146262782 18.88235602346401 0 0 0
416 35 11 0.06 15.515316125521899 0.7262344852658688 17.264311807656636 0 0 0
409 35 9 0.52 17.685823337493495 1.0534717230137585 18.567287375117782 0 0 0
410 35 20 -0.5 17.417756911760602 2.2284759198642434 18.81046705311973 0 0 0
411 35 19 -0.35 16.73719921322301 0.03508017251386435 18.78906789057642 0 0 0
412 35 19 -0.35 18.987717877325977 0.6695154509478989 18.18363794880443 0 0 0
414 35 1 0.22 19.844347231423708 1.7898247114953685 18.18644411088544 0 0 0
164 14 11 0.06 5.003912455561343 2.8593564186293583 17.789115400439048 0 0 0
159 14 19 -0.35 6.532028392322814 2.5135140847111224 19.169465107256812 0 0 0
161 14 1 0.22 5.2780691671089786 3.081769717474583 18.81719874453599 0 0 0
163 14 11 0.06 5.218763200403543 4.162420783856355 18.94073431713933 0 0 0
157 14 9 0.52 7.65566423013343 3.2010240454531345 18.639217856455787 0 0 0
158 14 20 -0.5 7.518860842855675 4.218773715211244 17.966326705998704 0 0 0
160 14 19 -0.35 8.934391427859522 2.623228212066291 18.843419670357093 0 0 0
162 14 1 0.22 9.951768129092107 3.5536798359029467 19.189377463273484 0 0 0
624 54 19 -0.35 6.973582576716591 4.443057078773377 0.6959566579460393 0 0 0
166 14 11 0.06 10.917460968219615 3.121151608291792 18.947023400162756 0 0 0
167 14 11 0.06 9.895034105990543 4.507931849124257 18.674059535159564 0 0 0
691 61 9 0.52 13.158157037659773 2.5477342976347015 17.934541556120976 0 0 0
693 61 19 -0.35 13.39916565722305 3.401841486887872 19.02291032050282 0 0 0
695 61 2 0.22 14.941584832873202 3.7106214858990336 17.254014558354076 0 0 0
698 61 11 0.06 15.104818906233726 4.172209442374669 19.419247368856773 0 0 0
700 61 11 0.06 16.01297225242712 3.8633620470674117 17.113644891971365 0 0 0
119 10 11 0.06 18.990759766194547 4.6722507948783125 18.71138845103024 0 0 0
419 35 11 0.06 19.50826775295105 2.547995195599394 17.47865989525986 0 0 0
118 10 11 0.06 0.1938322152228386 5.558056303946358 17.78969444700121 1 0 0
370 31 11 0.06 1.0364899394197689 5.153065089758939 0.1091571562446154 0 0 0
616 53 2 0.22 4.812032231998813 9.185262354524305 17.670645127905797 0 0 0
620 53 11 0.06 4.2755897638080524 7.027636784871689 17.759263925902246 0 0 0
614 53 19 -0.35 5.670784952480772 7.512367938808452 19.13430463619961 0 0 0
629 54 11 0.06 6.494338985708607 5.871652704946509 0.8310812683450887 0 0 0
502 42 11 0.06 12.415639127303113 6.751174215313999 19.689688132124694 0 0 -1
697 61 11 0.06 14.111065178904479 5.32931538387175 18.52715703013508 0 0 0
109 10 9 0.52 17.285794265235175 6.908619252957279 18.28964949979976 0 0 0
110 10 20 -0.5 16.527109621566368 5.950323221249225 18.3888855574878 0 0 0
112 10 19 -0.35 18.657853347769457 6.713195988766772 18.564432167956827 0 0 0
114 10 1 0.22 19.129140245553064 5.493851914696053 18.008782983353036 0 0 0
651 57 9 0.52 0.3401367392327701 9.56824937527954 19.455889159766887 0 0 0
654 57 19 -0.35 1.7243475223128828 9.652887039981026 19.238134099712205 0 0 0
615 53 2 0.22 4.504652274418812 7.865384496073116 18.421985813849002 0 0 0
617 53 11 0.06 4.647222442590965 10.081889457493345 18.274800200081785 0 0 0
619 53 11 0.06 3.666162425223544 7.94748839476781 19.11586587834756 0 0 0
611 53 9 0.52 6.53364402403925 8.611200351472453 18.99200163102825 0 0 0
613 53 19 -0.35 6.088707134282342 9.608757977733003 18.10502968199859 0 0 0
612 53 20 -0.5 7.543103015954809 8.748619746215589 19.679175188735236 0 0 0
115 10 11 0.06 14.9012130325311 7.822319458640346 18.095934788877646 0 0 0
111 10 19 -0.35 16.92422514401277 8.049398754413849 17.529765668438333 0 0 0
113 10 1 0.22 15.64971085889961 8.577181820631417 17.86172605445179 0 0 0
116 10 11 0.06 15.702562184992274 9.24915126671575 18.714985202714544 0 0 0
117 10 11 0.06 15.261517597719942 9.157253981868433 17.024616173120226 0 0 0
607 52 11 0.06 15.064109258784521 7.773927033960136 0.628858757360635 0 0 0
655 57 2 0.22 1.929705211632403 10.938222947095017 18.694598168532554 0 0 0
656 57 2 0.22 0.5542688850750136 11.613156369821143 18.58075614017024 0 0 0
657 57 11 0.06 0.5796332410505964 12.420776669165232 17.849487815031203 0 0 0
658 57 11 0.06 0.26160342904988826 12.065533658383279 19.52755470962915 0 0 0
659 57 11 0.06 2.259370314787742 10.57385763350643 17.722194239850687 0 0 0
660 57 11 0.06 2.6852751020608876 11.644999828514242 19.037057200365943 0 0 0
174 15 1 0.22 10.272181476276591 12.12900971167933 17.92452689288477 0 0 0
178 15 11 0.06 9.77244753505797 11.189555933605428 18.15911132649829 0 0 0
180 15 11 0.06 11.347543258515179 11.9660748688353 17.953299461220197 0 0 0
679 59 11 0.06 12.191510600056564 12.860287038521765 0.12696934602961887 0 0 0
575 49 2 0.22 14.50612120239676 13.115026878774897 18.302493127253197 0 0 0
578 49 11 0.06 13.968628997743957 11.007928550779086 18.27239787190464 0 0 0
571 49 9 0.52 16.688758034225348 12.61692008277492 18.219557863869476 0 0 0
573 49 19 -0.35 16.096714842004896 11.477202485386485 17.655050800330812 0 0 0
653 57 19 -0.35 19.603464759918033 10.711364219067375 19.104773947806 -1 0 0
64 6 19 -0.35 6.481477641437424 13.961474054237462 16.518300473476543 0 0 0
70 6 11 0.06 5.995158904064472 12.58414349994224 17.989054831658787 0 0 0
66 6 1 0.22 6.861290027282792 13.090148662932823 17.562892462410257 0 0 0
71 6 11 0.06 7.557950696610498 12.330586113793402 17.214752604010354 0 0 0
72 6 11 0.06 7.356077679316016 13.630626437405857 18.364808568051828 0 0 0
648 56 11 0.06 8.369321524236316 12.189116875538582 0.5637662788070813 0 0 0
650 56 11 0.06 7.728573815357089 14.601844820113024 0.6355101118973498 0 0 0
169 15 9 0.52 10.518510483011665 14.371815541170442 18.530396931224026 0 0 0
170 15 20 -0.5 11.112722968316579 14.53731207828627 17.470563570512766 0 0 0
172 15 19 -0.35 9.84321834830798 13.159498851963983 18.79405719846912 0 0 0
576 49 2 0.22 14.707149173816694 11.669708305693948 17.81913146135899 0 0 0
580 49 11 0.06 14.557311446988937 13.18279354378689 19.389259269089035 0 0 0
574 49 19 -0.35 15.789389979642229 13.632450149355902 18.591083121482267 0 0 0
572 49 20 -0.5 17.8981610005417 12.701823155321517 18.41978237201049 0 0 0
454 38 11 0.06 0.7365669413768193 15.301516606156376 18.375370890791068 1 0 0
176 15 11 0.06 9.284713286232792 16.875836762364152 19.503301536958638 0 0 0
171 15 19 -0.35 10.642309980287736 15.311000206306227 19.582599541338762 0 0 0
173 15 1 0.22 10.302366307163432 16.634339218637137 19.19722667974711 0 0 0
175 15 11 0.06 10.375027547335048 16.831461256467396 18.126592816370234 0 0 0
177 15 11 0.06 10.965877194908606 17.344336277662595 19.691086473559288 0 0 0
1 1 9 0.52 13.007275882860856 17.324355296007035 18.153592166395068 0 0 0
3 1 19 -0.35 13.46366737515473 17.45816151778407 19.480702661672883 0 0 0
5 1 1 0.22 14.224059663089713 16.321478164946548 19.829531213333187 0 0 0
7 1 11 0.06 14.991378669606616 16.12110540458461 19.082769733766288 0 0 0
8 1 11 0.06 14.719055374909667 16.463376500314936 0.7899863394200068 0 0 1
446 38 20 -0.5 17.15773616609597 15.670189614352996 17.92014507811694 0 0 0
450 38 1 0.22 19.657171862552772 15.438509019661346 18.31341022049974 0 0 0
455 38 11 0.06 19.435494495836895 16.47637501604438 18.561919615766374 0 0 0
456 38 11 0.06 19.199233645144027 14.805369225742009 19.07459816210608 0 0 0
4 1 19 -0.35 12.787950621304528 18.494048518029082 17.392981547373775 0 0 0
417 35 11 0.06 14.754001696261852 19.639351829280542 18.423758086611134 0 -1 0

Velocities

740 0 0 0
388 0 0 0
622 0 0 0
268 0 0 0
270 0 0 0
274 0 0 0
275 0 0 0
315 0 0 0
321 0 0 0
317 0 0 0
319 0 0 0
420 0 0 0
736 0 0 0
738 0 0 0
739 0 0 0
741 0 0 0
742 0 0 0
354 0 0 0
358 0 0 0
359 0 0 0
360 0 0 0
165 0 0 0
389 0 0 0
393 0 0 0
385 0 0 0
387 0 0 0
168 0 0 0
621 0 0 0
623 0 0 0
276 0 0 0
504 0 0 0
265 0 0 0
267 0 0 0
269 0 0 0
273 0 0 0
364 0 0 0
366 0 0 0
371 0 0 0
372 0 0 0
392 0 0 0
308 0 0 0
627 0 0 0
625 0 0 0
626 0 0 0
628 0 0 0
630 0 0 0
496 0 0 0
498 0 0 0
503 0 0 0
601 0 0 0
602 0 0 0
603 0 0 0
604 0 0 0
362 0 0 0
652 0 0 0
305 0 0 0
307 0 0 0
309 0 0 0
608 0 0 0
733 0 0 0
605 0 0 0
606 0 0 0
609 0 0 0
610 0 0 0
468 0 0 0
643 0 0 0
675 0 0 0
676 0 0 0
677 0 0 0
678 0 0 0
680 0 0 0
671 0 0 0
672 0 0 0
673 0 0 0
104 0 0 0
642 0 0 0
641 0 0 0
644 0 0 0
645 0 0 0
646 0 0 0
647 0 0 0
649 0 0 0
674 0 0 0
380 0 0 0
99 0 0 0
101 0 0 0
103 0 0 0
105 0 0 0
9 0 0 0
320 0 0 0
718 0 0 0
396 0 0 0
390 0 0 0
395 0 0 0
506 0 0 0
313 0 0 0
316 0 0 0
314 0 0 0
737 0 0 0
139 0 0 0
349 0 0 0
350 0 0 0
352 0 0 0
386 0 0 0
391 0 0 0
511 0 0 0
47 0 0 0
266 0 0 0
271 0 0 0
272 0 0 0
137 0 0 0
141 0 0 0
361 0 0 0
363 0 0 0
535 0 0 0
533 0 0 0
536 0 0 0
501 0 0 0
493 0 0 0
494 0 0 0
495 0 0 0
497 0 0 0
499 0 0 0
48 0 0 0
133 0 0 0
134 0 0 0
135 0 0 0
365 0 0 0
367 0 0 0
303 0 0 0
301 0 0 0
302 0 0 0
240 0 0 0
132 0 0 0
131 0 0 0
136 0 0 0
138 0 0 0
144 0 0 0
368 0 0 0
462 0 0 0
466 0 0 0
467 0 0 0
304 0 0 0
460 0 0 0
312 0 0 0
238 0 0 0
189 0 0 0
126 0 0 0
130 0 0 0
457 0 0 0
458 0 0 0
459 0 0 0
463 0 0 0
461 0 0 0
464 0 0 0
465 0 0 0
182 0 0 0
187 0 0 0
185 0 0 0
188 0 0 0
328 0 0 0
330 0 0 0
334 0 0 0
377 0 0 0
381 0 0 0
97 0 0 0
98 0 0 0
100 0 0 0
335 0 0 0
336 0 0 0
374 0 0 0
379 0 0 0
373 0 0 0
375 0 0 0
713 0 0 0
715 0 0 0
716 0 0 0
717 0 0 0
719 0 0 0
394 0 0 0
442 0 0 0
444 0 0 0
376 0 0 0
378 0 0 0
382 0 0 0
383 0 0 0
356 0 0 0
555 0 0 0
557 0 0 0
558 0 0 0
559 0 0 0
554 0 0 0
556 0 0 0
560 0 0 0
720 0 0 0
505 0 0 0
508 0 0 0
510 0 0 0
514 0 0 0
515 0 0 0
516 0 0 0
318 0 0 0
324 0 0 0
323 0 0 0
351 0 0 0
353 0 0 0
355 0 0 0
357 0 0 0
512 0 0 0
507 0 0 0
509 0 0 0
513 0 0 0
42 0 0 0
46 0 0 0
565 0 0 0
568 0 0 0
570 0 0 0
140 0 0 0
561 0 0 0
562 0 0 0
563 0 0 0
256 0 0 0
255 0 0 0
537 0 0 0
500 0 0 0
707 0 0 0
37 0 0 0
38 0 0 0
40 0 0 0
369 0 0 0
529 0 0 0
530 0 0 0
532 0 0 0
540 0 0 0
531 0 0 0
229 0 0 0
230 0 0 0
232 0 0 0
234 0 0 0
41 0 0 0
43 0 0 0
239 0 0 0
39 0 0 0
122 0 0 0
121 0 0 0
142 0 0 0
143 0 0 0
745 0 0 0
746 0 0 0
534 0 0 0
538 0 0 0
539 0 0 0
306 0 0 0
310 0 0 0
311 0 0 0
729 0 0 0
545 0 0 0
547 0 0 0
548 0 0 0
124 0 0 0
546 0 0 0
549 0 0 0
550 0 0 0
748 0 0 0
639 0 0 0
192 0 0 0
181 0 0 0
183 0 0 0
327 0 0 0
543 0 0 0
541 0 0 0
544 0 0 0
102 0 0 0
106 0 0 0
107 0 0 0
108 0 0 0
637 0 0 0
711 0 0 0
712 0 0 0
190 0 0 0
191 0 0 0
184 0 0 0
186 0 0 0
326 0 0 0
331 0 0 0
325 0 0 0
436 0 0 0
433 0 0 0
435 0 0 0
437 0 0 0
439 0 0 0
440 0 0 0
441 0 0 0
714 0 0 0
322 0 0 0
438 0 0 0
443 0 0 0
434 0 0 0
384 0 0 0
551 0 0 0
553 0 0 0
82 0 0 0
153 0 0 0
581 0 0 0
584 0 0 0
664 0 0 0
147 0 0 0
145 0 0 0
148 0 0 0
78 0 0 0
83 0 0 0
257 0 0 0
259 0 0 0
260 0 0 0
702 0 0 0
703 0 0 0
701 0 0 0
704 0 0 0
149 0 0 0
151 0 0 0
152 0 0 0
566 0 0 0
569 0 0 0
245 0 0 0
248 0 0 0
249 0 0 0
564 0 0 0
258 0 0 0
262 0 0 0
263 0 0 0
253 0 0 0
254 0 0 0
237 0 0 0
261 0 0 0
235 0 0 0
708 0 0 0
705 0 0 0
706 0 0 0
709 0 0 0
710 0 0 0
127 0 0 0
567 0 0 0
264 0 0 0
521 0 0 0
523 0 0 0
524 0 0 0
231 0 0 0
233 0 0 0
236 0 0 0
44 0 0 0
214 0 0 0
45 0 0 0
129 0 0 0
123 0 0 0
125 0 0 0
128 0 0 0
297 0 0 0
517 0 0 0
518 0 0 0
520 0 0 0
522 0 0 0
527 0 0 0
519 0 0 0
731 0 0 0
724 0 0 0
726 0 0 0
730 0 0 0
528 0 0 0
743 0 0 0
747 0 0 0
749 0 0 0
526 0 0 0
634 0 0 0
636 0 0 0
640 0 0 0
722 0 0 0
721 0 0 0
723 0 0 0
725 0 0 0
727 0 0 0
744 0 0 0
631 0 0 0
632 0 0 0
633 0 0 0
635 0 0 0
638 0 0 0
329 0 0 0
332 0 0 0
333 0 0 0
542 0 0 0
552 0 0 0
582 0 0 0
667 0 0 0
669 0 0 0
661 0 0 0
663 0 0 0
665 0 0 0
662 0 0 0
81 0 0 0
33 0 0 0
75 0 0 0
76 0 0 0
583 0 0 0
585 0 0 0
587 0 0 0
586 0 0 0
589 0 0 0
590 0 0 0
476 0 0 0
146 0 0 0
150 0 0 0
155 0 0 0
156 0 0 0
80 0 0 0
73 0 0 0
77 0 0 0
79 0 0 0
74 0 0 0
84 0 0 0
36 0 0 0
734 0 0 0
241 0 0 0
242 0 0 0
247 0 0 0
94 0 0 0
95 0 0 0
202 0 0 0
243 0 0 0
296 0 0 0
220 0 0 0
228 0 0 0
525 0 0 0
405 0 0 0
210 0 0 0
215 0 0 0
216 0 0 0
599 0 0 0
196 0 0 0
198 0 0 0
204 0 0 0
291 0 0 0
293 0 0 0
295 0 0 0
219 0 0 0
398 0 0 0
403 0 0 0
399 0 0 0
401 0 0 0
404 0 0 0
205 0 0 0
208 0 0 0
728 0 0 0
593 0 0 0
595 0 0 0
596 0 0 0
597 0 0 0
292 0 0 0
598 0 0 0
600 0 0 0
289 0 0 0
290 0 0 0
225 0 0 0
423 0 0 0
424 0 0 0
426 0 0 0
430 0 0 0
431 0 0 0
474 0 0 0
479 0 0 0
298 0 0 0
478 0 0 0
480 0 0 0
294 0 0 0
299 0 0 0
300 0 0 0
425 0 0 0
427 0 0 0
428 0 0 0
429 0 0 0
421 0 0 0
422 0 0 0
51 0 0 0
668 0 0 0
470 0 0 0
469 0 0 0
472 0 0 0
756 0 0 0
588 0 0 0
57 0 0 0
666 0 0 0
670 0 0 0
53 0 0 0
55 0 0 0
56 0 0 0
475 0 0 0
471 0 0 0
473 0 0 0
477 0 0 0
154 0 0 0
32 0 0 0
26 0 0 0
27 0 0 0
29 0 0 0
31 0 0 0
16 0 0 0
15 0 0 0
17 0 0 0
20 0 0 0
21 0 0 0
758 0 0 0
761 0 0 0
763 0 0 0
252 0 0 0
25 0 0 0
28 0 0 0
22 0 0 0
35 0 0 0
18 0 0 0
23 0 0 0
24 0 0 0
13 0 0 0
14 0 0 0
19 0 0 0
246 0 0 0
251 0 0 0
768 0 0 0
226 0 0 0
30 0 0 0
34 0 0 0
96 0 0 0
85 0 0 0
86 0 0 0
90 0 0 0
91 0 0 0
203 0 0 0
244 0 0 0
765 0 0 0
218 0 0 0
222 0 0 0
227 0 0 0
287 0 0 0
88 0 0 0
206 0 0 0
87 0 0 0
92 0 0 0
194 0 0 0
767 0 0 0
764 0 0 0
769 0 0 0
223 0 0 0
217 0 0 0
221 0 0 0
408 0 0 0
397 0 0 0
400 0 0 0
402 0 0 0
407 0 0 0
209 0 0 0
211 0 0 0
213 0 0 0
207 0 0 0
591 0 0 0
592 0 0 0
594 0 0 0
193 0 0 0
195 0 0 0
197 0 0 0
199 0 0 0
224 0 0 0
58 0 0 0
212 0 0 0
54 0 0 0
59 0 0 0
201 0 0 0
452 0 0 0
751 0 0 0
684 0 0 0
686 0 0 0
65 0 0 0
68 0 0 0
69 0 0 0
689 0 0 0
67 0 0 0
432 0 0 0
52 0 0 0
49 0 0 0
50 0 0 0
750 0 0 0
754 0 0 0
755 0 0 0
682 0 0 0
753 0 0 0
681 0 0 0
683 0 0 0
685 0 0 0
687 0 0 0
752 0 0 0
484 0 0 0
486 0 0 0
492 0 0 0
10 0 0 0
340 0 0 0
342 0 0 0
347 0 0 0
348 0 0 0
762 0 0 0
757 0 0 0
759 0 0 0
481 0 0 0
482 0 0 0
487 0 0 0
343 0 0 0
483 0 0 0
337 0 0 0
338 0 0 0
339 0 0 0
694 0 0 0
696 0 0 0
699 0 0 0
120 0 0 0
485 0 0 0
488 0 0 0
489 0 0 0
341 0 0 0
344 0 0 0
345 0 0 0
89 0 0 0
93 0 0 0
250 0 0 0
618 0 0 0
282 0 0 0
286 0 0 0
288 0 0 0
277 0 0 0
278 0 0 0
280 0 0 0
281 0 0 0
283 0 0 0
284 0 0 0
766 0 0 0
770 0 0 0
406 0 0 0
179 0 0 0
279 0 0 0
285 0 0 0
577 0 0 0
200 0 0 0
61 0 0 0
62 0 0 0
60 0 0 0
453 0 0 0
579 0 0 0
445 0 0 0
447 0 0 0
449 0 0 0
448 0 0 0
690 0 0 0
732 0 0 0
63 0 0 0
2 0 0 0
451 0 0 0
688 0 0 0
12 0 0 0
6 0 0 0
11 0 0 0
346 0 0 0
735 0 0 0
760 0 0 0
418 0 0 0
491 0 0 0
490 0 0 0
692 0 0 0
413 0 0 0
415 0 0 0
416 0 0 0
409 0 0 0
410 0 0 0
411 0 0 0
412 0 0 0
414 0 0 0
164 0 0 0
159 0 0 0
161 0 0 0
163 0 0 0
157 0 0 0
158 0 0 0
160 0 0 0
162 0 0 0
624 0 0 0
166 0 0 0
167 0 0 0
691 0 0 0
693 0 0 0
695 0 0 0
698 0 0 0
700 0 0 0
119 0 0 0
419 0 0 0
118 0 0 0
370 0 0 0
616 0 0 0
620 0 0 0
614 0 0 0
629 0 0 0
502 0 0 0
697 0 0 0
109 0 0 0
110 0 0 0
112 0 0 0
114 0 0 0
651 0 0 0
654 0 0 0
615 0 0 0
617 0 0 0
619 0 0 0
611 0 0 0
613 0 0 0
612 0 0 0
115 0 0 0
111 0 0 0
113 0 0 0
116 0 0 0
117 0 0 0
607 0 0 0
655 0 0 0
656 0 0 0
657 0 0 0
658 0 0 0
659 0 0 0
660 0 0 0
174 0 0 0
178 0 0 0
180 0 0 0
679 0 0 0
575 0 0 0
578 0 0 0
571 0 0 0
573 0 0 0
653 0 0 0
64 0 0 0
70 0 0 0
66 0 0 0
71 0 0 0
72 0 0 0
648 0 0 0
650 0 0 0
169 0 0 0
170 0 0 0
172 0 0 0
576 0 0 0
580 0 0 0
574 0 0 0
572 0 0 0
454 0 0 0
176 0 0 0
171 0 0 0
173 0 0 0
175 0 0 0
177 0 0 0
1 0 0 0
3 0 0 0
5 0 0 0
7 0 0 0
8 0 0 0
446 0 0 0
450 0 0 0
455 0 0 0
456 0 0 0
4 0 0 0
417 0 0 0

Bonds

1 7 388 390
2 7 268 270
3 4 270 274
4 4 270 275
5 4 270 276
6 7 315 317
7 4 317 319
8 4 317 320
9 4 317 321
10 15 736 737
11 15 736 738
12 15 736 739
13 15 736 740
14 15 736 741
15 15 736 742
16 4 354 358
17 4 354 359
18 4 354 360
19 4 389 391
20 4 389 392
21 4 389 393
22 8 385 386
23 7 385 387
24 7 385 388
25 7 387 389
26 8 621 622
27 7 621 623
28 7 621 624
29 7 623 626
30 8 265 266
31 7 265 267
32 7 265 268
33 7 267 269
34 4 269 271
35 4 269 272
36 4 269 273
37 7 364 366
38 4 366 370
39 4 366 371
40 4 366 372
41 1 625 626
42 4 625 629
43 4 625 630
44 4 626 627
45 4 626 628
46 7 496 498
47 4 498 502
48 4 498 503
49 4 498 504
50 8 601 602
51 7 601 603
52 7 601 604
53 7 603 606
54 7 604 605
55 4 305 307
56 4 305 308
57 4 305 309
58 1 605 606
59 4 605 609
60 4 605 610
61 4 606 607
62 4 606 608
63 7 643 646
64 1 675 676
65 4 675 679
66 4 675 680
67 4 676 677
68 4 676 678
69 8 671 672
70 7 671 673
71 7 671 674
72 7 673 676
73 8 641 642
74 7 641 643
75 7 641 644
76 7 644 645
77 1 645 646
78 4 645 649
79 4 645 650
80 4 646 647
81 4 646 648
82 7 674 675
83 7 99 101
84 4 101 103
85 4 101 104
86 4 101 105
87 4 390 394
88 4 390 395
89 4 390 396
90 8 313 314
91 7 313 315
92 7 313 316
93 7 316 318
94 8 349 350
95 7 349 351
96 7 349 352
97 7 352 354
98 4 137 139
99 4 137 140
100 4 137 141
101 8 361 362
102 7 361 363
103 7 361 364
104 7 363 365
105 4 533 535
106 4 533 536
107 4 533 537
108 8 493 494
109 7 493 495
110 7 493 496
111 7 495 497
112 4 497 499
113 4 497 500
114 4 497 501
115 8 133 134
116 7 133 135
117 7 133 136
118 7 135 137
119 4 365 367
120 4 365 368
121 4 365 369
122 7 303 305
123 8 301 302
124 7 301 303
125 7 301 304
126 7 136 138
127 4 138 142
128 4 138 143
129 4 138 144
130 4 462 466
131 4 462 467
132 4 462 468
133 7 304 306
134 7 460 462
135 4 126 130
136 4 126 131
137 4 126 132
138 8 457 458
139 7 457 459
140 7 457 460
141 7 459 461
142 4 461 463
143 4 461 464
144 4 461 465
145 4 185 187
146 4 185 188
147 4 185 189
148 7 328 330
149 4 330 334
150 4 330 335
151 4 330 336
152 4 377 379
153 4 377 380
154 4 377 381
155 8 97 98
156 7 97 99
157 7 97 100
158 7 100 102
159 8 373 374
160 7 373 375
161 7 373 376
162 7 375 377
163 7 713 716
164 1 715 716
165 4 715 719
166 4 715 720
167 4 716 717
168 4 716 718
169 7 376 378
170 4 378 382
171 4 378 383
172 4 378 384
173 1 555 556
174 4 555 559
175 4 555 560
176 7 554 555
177 4 556 557
178 4 556 558
179 8 505 506
180 7 505 507
181 7 505 508
182 7 508 510
183 4 510 514
184 4 510 515
185 4 510 516
186 4 318 322
187 4 318 323
188 4 318 324
189 7 351 353
190 4 353 355
191 4 353 356
192 4 353 357
193 7 507 509
194 4 509 511
195 4 509 512
196 4 509 513
197 4 42 46
198 4 42 47
199 4 42 48
200 1 565 566
201 4 565 569
202 4 565 570
203 8 561 562
204 7 561 563
205 7 561 564
206 7 563 566
207 7 256 258
208 7 255 257
209 8 37 38
210 7 37 39
211 7 37 40
212 7 40 42
213 8 529 530
214 7 529 531
215 7 529 532
216 7 532 534
217 7 531 533
218 8 229 230
219 7 229 231
220 7 229 232
221 7 232 234
222 4 234 238
223 4 234 239
224 4 234 240
225 4 41 43
226 4 41 44
227 4 41 45
228 7 39 41
229 8 121 122
230 7 121 123
231 7 121 124
232 4 534 538
233 4 534 539
234 4 534 540
235 4 306 310
236 4 306 311
237 4 306 312
238 1 545 546
239 4 545 549
240 4 545 550
241 7 124 126
242 4 546 547
243 4 546 548
244 8 181 182
245 7 181 183
246 7 181 184
247 7 183 185
248 7 327 329
249 7 543 546
250 8 541 542
251 7 541 543
252 7 541 544
253 7 544 545
254 4 102 106
255 4 102 107
256 4 102 108
257 8 711 712
258 7 711 713
259 7 711 714
260 7 184 186
261 4 186 190
262 4 186 191
263 4 186 192
264 8 325 326
265 7 325 327
266 7 325 328
267 7 436 438
268 8 433 434
269 7 433 435
270 7 433 436
271 7 435 437
272 4 437 439
273 4 437 440
274 4 437 441
275 7 714 715
276 4 438 442
277 4 438 443
278 4 438 444
279 8 551 552
280 7 551 553
281 7 551 554
282 7 553 556
283 8 581 582
284 7 581 583
285 7 581 584
286 7 584 585
287 7 664 665
288 7 147 149
289 8 145 146
290 7 145 147
291 7 145 148
292 7 148 150
293 4 78 82
294 4 78 83
295 4 78 84
296 4 257 259
297 4 257 260
298 4 257 261
299 7 703 706
300 8 701 702
301 7 701 703
302 7 701 704
303 7 704 705
304 4 149 151
305 4 149 152
306 4 149 153
307 4 566 567
308 4 566 568
309 4 245 247
310 4 245 248
311 4 245 249
312 7 564 565
313 4 258 262
314 4 258 263
315 4 258 264
316 8 253 254
317 7 253 255
318 7 253 256
319 1 705 706
320 4 705 709
321 4 705 710
322 4 706 707
323 4 706 708
324 4 521 523
325 4 521 524
326 4 521 525
327 7 231 233
328 4 233 235
329 4 233 236
330 4 233 237
331 7 123 125
332 4 125 127
333 4 125 128
334 4 125 129
335 8 517 518
336 7 517 519
337 7 517 520
338 7 520 522
339 4 522 526
340 4 522 527
341 4 522 528
342 7 519 521
343 7 724 725
344 4 726 727
345 4 726 728
346 15 743 744
347 15 743 745
348 15 743 746
349 15 743 747
350 15 743 748
351 15 743 749
352 7 634 635
353 4 636 637
354 4 636 638
355 8 721 722
356 7 721 723
357 7 721 724
358 7 723 726
359 1 725 726
360 4 725 729
361 4 725 730
362 8 631 632
363 7 631 633
364 7 631 634
365 7 633 636
366 1 635 636
367 4 635 639
368 4 635 640
369 4 329 331
370 4 329 332
371 4 329 333
372 8 661 662
373 7 661 663
374 7 661 664
375 7 663 666
376 1 665 666
377 4 665 669
378 4 665 670
379 7 75 77
380 7 76 78
381 7 583 586
382 1 585 586
383 4 585 589
384 4 585 590
385 4 586 587
386 4 586 588
387 4 150 154
388 4 150 155
389 4 150 156
390 8 73 74
391 7 73 75
392 7 73 76
393 4 77 79
394 4 77 80
395 4 77 81
396 8 241 242
397 7 241 243
398 7 241 244
399 7 243 245
400 7 220 222
401 4 210 214
402 4 210 215
403 4 210 216
404 7 196 198
405 4 198 202
406 4 198 203
407 4 198 204
408 7 291 293
409 4 293 295
410 4 293 296
411 4 293 297
412 7 219 221
413 7 399 401
414 4 401 403
415 4 401 404
416 4 401 405
417 8 205 206
418 7 205 207
419 7 205 208
420 7 208 210
421 7 593 596
422 1 595 596
423 4 595 599
424 4 595 600
425 4 596 597
426 4 596 598
427 7 292 294
428 8 289 290
429 7 289 291
430 7 289 292
431 7 423 425
432 7 424 426
433 4 426 430
434 4 426 431
435 4 426 432
436 4 474 478
437 4 474 479
438 4 474 480
439 4 294 298
440 4 294 299
441 4 294 300
442 4 425 427
443 4 425 428
444 4 425 429
445 8 421 422
446 7 421 423
447 7 421 424
448 7 51 53
449 8 469 470
450 7 469 471
451 7 469 472
452 7 472 474
453 4 666 667
454 4 666 668
455 4 53 55
456 4 53 56
457 4 53 57
458 7 471 473
459 4 473 475
460 4 473 476
461 4 473 477
462 7 27 29
463 4 29 31
464 4 29 32
465 4 29 33
466 7 16 18
467 7 15 17
468 4 17 19
469 4 17 20
470 4 17 21
471 8 25 26
472 7 25 27
473 7 25 28
474 7 28 30
475 4 18 22
476 4 18 23
477 4 18 24
478 8 13 14
479 7 13 15
480 7 13 16
481 4 246 250
482 4 246 251
483 4 246 252
484 4 30 34
485 4 30 35
486 4 30 36
487 8 85 86
488 7 85 87
489 7 85 88
490 4 90 94
491 4 90 95
492 4 90 96
493 7 244 246
494 4 222 226
495 4 222 227
496 4 222 228
497 7 88 90
498 7 87 89
499 15 764 765
500 15 764 766
501 15 764 767
502 15 764 768
503 15 764 769
504 15 764 770
505 8 217 218
506 7 217 219
507 7 217 220
508 4 221 223
509 4 221 224
510 4 221 225
511 8 397 398
512 7 397 399
513 7 397 400
514 7 400 402
515 4 402 406
516 4 402 407
517 4 402 408
518 4 209 211
519 4 209 212
520 4 209 213
521 7 207 209
522 8 591 592
523 7 591 593
524 7 591 594
525 7 594 595
526 8 193 194
527 7 193 195
528 7 193 196
529 7 195 197
530 4 197 199
531 4 197 200
532 4 197 201
533 4 54 58
534 4 54 59
535 4 54 60
536 7 684 685
537 4 686 687
538 4 686 688
539 4 65 67
540 4 65 68
541 4 65 69
542 7 52 54
543 8 49 50
544 7 49 51
545 7 49 52
546 15 750 751
547 15 750 752
548 15 750 753
549 15 750 754
550 15 750 755
551 15 750 756
552 8 681 682
553 7 681 683
554 7 681 684
555 7 683 686
556 1 685 686
557 4 685 689
558 4 685 690
559 7 484 486
560 4 486 490
561 4 486 491
562 4 486 492
563 7 340 342
564 4 342 346
565 4 342 347
566 4 342 348
567 15 757 758
568 15 757 759
569 15 757 760
570 15 757 761
571 15 757 762
572 15 757 763
573 8 481 482
574 7 481 483
575 7 481 484
576 7 483 485
577 8 337 338
578 7 337 339
579 7 337 340
580 7 339 341
581 7 694 695
582 4 696 697
583 4 696 698
584 4 485 487
585 4 485 488
586 4 485 489
587 4 341 343
588 4 341 344
589 4 341 345
590 4 89 91
591 4 89 92
592 4 89 93
593 4 282 286
594 4 282 287
595 4 282 288
596 8 277 278
597 7 277 279
598 7 277 280
599 7 280 282
600 4 281 283
601 4 281 284
602 4 281 285
603 7 279 281
604 8 61 62
605 7 61 63
606 7 61 64
607 8 445 446
608 7 445 447
609 7 445 448
610 7 447 449
611 4 449 451
612 4 449 452
613 4 449 453
614 7 448 450
615 7 63 65
616 4 6 10
617 4 6 11
618 4 6 12
619 4 413 415
620 4 413 416
621 4 413 417
622 8 409 410
623 7 409 411
624 7 409 412
625 7 411 413
626 7 412 414
627 4 414 418
628 4 414 419
629 4 414 420
630 7 159 161
631 4 161 163
632 4 161 164
633 4 161 165
634 8 157 158
635 7 157 159
636 7 157 160
637 7 160 162
638 4 162 166
639 4 162 167
640 4 162 168
641 7 624 625
642 8 691 692
643 7 691 693
644 7 691 694
645 7 693 696
646 1 695 696
647 4 695 699
648 4 695 700
649 4 616 617
650 4 616 618
651 7 614 615
652 8 109 110
653 7 109 111
654 7 109 112
655 7 112 114
656 4 114 118
657 4 114 119
658 4 114 120
659 8 651 652
660 7 651 653
661 7 651 654
662 7 654 655
663 1 615 616
664 4 615 619
665 4 615 620
666 8 611 612
667 7 611 613
668 7 611 614
669 7 613 616
670 7 111 113
671 4 113 115
672 4 113 116
673 4 113 117
674 1 655 656
675 4 655 659
676 4 655 660
677 4 656 657
678 4 656 658
679 4 174 178
680 4 174 179
681 4 174 180
682 1 575 576
683 4 575 579
684 4 575 580
685 8 571 572
686 7 571 573
687 7 571 574
688 7 573 576
689 7 653 656
690 7 64 66
691 4 66 70
692 4 66 71
693 4 66 72
694 8 169 170
695 7 169 171
696 7 169 172
697 7 172 174
698 4 576 577
699 4 576 578
700 7 574 575
701 7 171 173
702 4 173 175
703 4 173 176
704 4 173 177
705 8 1 2
706 7 1 3
707 7 1 4
708 7 3 5
709 4 5 7
710 4 5 8
711 4 5 9
712 4 450 454
713 4 450 455
714 4 450 456
715 7 4 6

Angles

1 9 385 388 390
2 9 265 268 270
3 4 268 270 274
4 4 268 270 275
5 4 268 270 276
6 7 274 270 275
7 7 274 270 276
8 7 275 270 276
9 9 313 315 317
10 4 315 317 319
11 4 315 317 320
12 4 315 317 321
13 7 319 317 320
14 7 319 317 321
15 7 320 317 321
16 18 737 736 738
17 18 739 736 740
18 18 741 736 742
19 17 737 736 739
20 17 737 736 740
21 17 737 736 741
22 17 737 736 742
23 17 738 736 739
24 17 738 736 740
25 17 738 736 741
26 17 738 736 742
27 17 739 736 741
28 17 739 736 742
29 17 740 736 741
30 17 740 736 742
31 4 352 354 358
32 4 352 354 359
33 4 352 354 360
34 7 358 354 359
35 7 358 354 360
36 7 359 354 360
37 4 387 389 391
38 4 387 389 392
39 4 387 389 393
40 7 391 389 392
41 7 391 389 393
42 7 392 389 393
43 11 386 385 387
44 11 386 385 388
45 12 387 385 388
46 9 385 387 389
47 11 622 621 623
48 11 622 621 624
49 12 623 621 624
50 9 621 623 626
51 11 266 265 267
52 11 266 265 268
53 12 267 265 268
54 9 265 267 269
55 4 267 269 271
56 4 267 269 272
57 4 267 269 273
58 7 271 269 272
59 7 271 269 273
60 7 272 269 273
61 9 361 364 366
62 4 364 366 370
63 4 364 366 371
64 4 364 366 372
65 7 370 366 371
66 7 370 366 372
67 7 371 366 372
68 13 624 625 626
69 4 626 625 629
70 4 626 625 630
71 6 629 625 630
72 13 623 626 625
73 4 625 626 627
74 4 625 626 628
75 6 627 626 628
76 9 493 496 498
77 4 496 498 502
78 4 496 498 503
79 4 496 498 504
80 7 502 498 503
81 7 502 498 504
82 7 503 498 504
83 11 602 601 603
84 11 602 601 604
85 12 603 601 604
86 9 601 603 606
87 9 601 604 605
88 4 303 305 307
89 4 303 305 308
90 4 303 305 309
91 7 307 305 308
92 7 307 305 309
93 7 308 305 309
94 13 604 605 606
95 4 606 605 609
96 4 606 605 610
97 6 609 605 610
98 13 603 606 605
99 4 605 606 607
100 4 605 606 608
101 6 607 606 608
102 9 641 643 646
103 13 674 675 676
104 4 676 675 679
105 4 676 675 680
106 6 679 675 680
107 13 673 676 675
108 4 675 676 677
109 4 675 676 678
110 6 677 676 678
111 11 672 671 673
112 11 672 671 674
113 12 673 671 674
114 9 671 673 676
115 11 642 641 643
116 11 642 641 644
117 12 643 641 644
118 9 641 644 645
119 13 644 645 646
120 4 646 645 649
121 4 646 645 650
122 6 649 645 650
123 13 643 646 645
124 4 645 646 647
125 4 645 646 648
126 6 647 646 648
127 9 671 674 675
128 9 97 99 101
129 4 99 101 103
130 4 99 101 104
131 4 99 101 105
132 7 103 101 104
133 7 103 101 105
134 7 104 101 105
135 4 388 390 394
136 4 388 390 395
137 4 388 390 396
138 7 394 390 395
139 7 394 390 396
140 7 395 390 396
141 11 314 313 315
142 11 314 313 316
143 12 315 313 316
144 9 313 316 318
145 11 350 349 351
146 11 350 349 352
147 12 351 349 352
148 9 349 352 354
149 4 135 137 139
150 4 135 137 140
151 4 135 137 141
152 7 139 137 140
153 7 139 137 141
154 7 140 137 141
155 11 362 361 363
156 11 362 361 364
157 12 363 361 364
158 9 361 363 365
159 4 531 533 535
160 4 531 533 536
161 4 531 533 537
162 7 535 533 536
163 7 535 533 537
164 7 536 533 537
165 11 494 493 495
166 11 494 493 496
167 12 495 493 496
168 9 493 495 497
169 4 495 497 499
170 4 495 497 500
171 4 495 497 501
172 7 499 497 500
173 7 499 497 501
174 7 500 497 501
175 11 134 133 135
176 11 134 133 136
177 12 135 133 136
178 9 133 135 137
179 4 363 365 367
180 4 363 365 368
181 4 363 365 369
182 7 367 365 368
183 7 367 365 369
184 7 368 365 369
185 9 301 303 305
186 11 302 301 303
187 11 302 301 304
188 12 303 301 304
189 9 133 136 138
190 4 136 138 142
191 4 136 138 143
192 4 136 138 144
193 7 142 138 143
194 7 142 138 144
195 7 143 138 144
196 4 460 462 466
197 4 460 462 467
198 4 460 462 468
199 7 466 462 467
200 7 466 462 468
201 7 467 462 468
202 9 301 304 306
203 9 457 460 462
204 4 124 126 130
205 4 124 126 131
206 4 124 126 132
207 7 130 126 131
208 7 130 126 132
209 7 131 126 132
210 11 458 457 459
211 11 458 457 460
212 12 459 457 460
213 9 457 459 461
214 4 459 461 463
215 4 459 461 464
216 4 459 461 465
217 7 463 461 464
218 7 463 461 465
219 7 464 461 465
220 4 183 185 187
221 4 183 185 188
222 4 183 185 189
223 7 187 185 188
224 7 187 185 189
225 7 188 185 189
226 9 325 328 330
227 4 328 330 334
228 4 328 330 335
229 4 328 330 336
230 7 334 330 335
231 7 334 330 336
232 7 335 330 336
233 4 375 377 379
234 4 375 377 380
235 4 375 377 381
236 7 379 377 380
237 7 379 377 381
238 7 380 377 381
239 11 98 97 99
240 11 98 97 100
241 12 99 97 100
242 9 97 100 102
243 11 374 373 375
244 11 374 373 376
245 12 375 373 376
246 9 373 375 377
247 9 711 713 716
248 13 714 715 716
249 4 716 715 719
250 4 716 715 720
251 6 719 715 720
252 13 713 716 715
253 4 715 716 717
254 4 715 716 718
255 6 717 716 718
256 9 373 376 378
257 4 376 378 382
258 4 376 378 383
259 4 376 378 384
260 7 382 378 383
261 7 382 378 384
262 7 383 378 384
263 13 554 555 556
264 4 556 555 559
265 4 556 555 560
266 6 559 555 560
267 9 551 554 555
268 13 553 556 555
269 4 555 556 557
270 4 555 556 558
271 6 557 556 558
272 11 506 505 507
273 11 506 505 508
274 12 507 505 508
275 9 505 508 510
276 4 508 510 514
277 4 508 510 515
278 4 508 510 516
279 7 514 510 515
280 7 514 510 516
281 7 515 510 516
282 4 316 318 322
283 4 316 318 323
284 4 316 318 324
285 7 322 318 323
286 7 322 318 324
287 7 323 318 324
288 9 349 351 353
289 4 351 353 355
290 4 351 353 356
291 4 351 353 357
292 7 355 353 356
293 7 355 353 357
294 7 356 353 357
295 9 505 507 509
296 4 507 509 511
297 4 507 509 512
298 4 507 509 513
299 7 511 509 512
300 7 511 509 513
301 7 512 509 513
302 4 40 42 46
303 4 40 42 47
304 4 40 42 48
305 7 46 42 47
306 7 46 42 48
307 7 47 42 48
308 13 564 565 566
309 4 566 565 569
310 4 566 565 570
311 6 569 565 570
312 11 562 561 563
313 11 562 561 564
314 12 563 561 564
315 9 561 563 566
316 9 253 256 258
317 9 253 255 257
318 11 38 37 39
319 11 38 37 40
320 12 39 37 40
321 9 37 40 42
322 11 530 529 531
323 11 530 529 532
324 12 531 529 532
325 9 529 532 534
326 9 529 531 533
327 11 230 229 231
328 11 230 229 232
329 12 231 229 232
330 9 229 232 234
331 4 232 234 238
332 4 232 234 239
333 4 232 234 240
334 7 238 234 239
335 7 238 234 240
336 7 239 234 240
337 4 39 41 43
338 4 39 41 44
339 4 39 41 45
340 7 43 41 44
341 7 43 41 45
342 7 44 41 45
343 9 37 39 41
344 11 122 121 123
345 11 122 121 124
346 12 123 121 124
347 4 532 534 538
348 4 532 534 539
349 4 532 534 540
350 7 538 534 539
351 7 538 534 540
352 7 539 534 540
353 4 304 306 310
354 4 304 306 311
355 4 304 306 312
356 7 310 306 311
357 7 310 306 312
358 7 311 306 312
359 13 544 545 546
360 4 546 545 549
361 4 546 545 550
362 6 549 545 550
363 9 121 124 126
364 13 543 546 545
365 4 545 546 547
366 4 545 546 548
367 6 547 546 548
368 11 182 181 183
369 11 182 181 184
370 12 183 181 184
371 9 181 183 185
372 9 325 327 329
373 9 541 543 546
374 11 542 541 543
375 11 542 541 544
376 12 543 541 544
377 9 541 544 545
378 4 100 102 106
379 4 100 102 107
380 4 100 102 108
381 7 106 102 107
382 7 106 102 108
383 7 107 102 108
384 11 712 711 713
385 11 712 711 714
386 12 713 711 714
387 9 181 184 186
388 4 184 186 190
389 4 184 186 191
390 4 184 186 192
391 7 190 186 191
392 7 190 186 192
393 7 191 186 192
394 11 326 325 327
395 11 326 325 328
396 12 327 325 328
397 9 433 436 438
398 11 434 433 435
399 11 434 433 436
400 12 435 433 436
401 9 433 435 437
402 4 435 437 439
403 4 435 437 440
404 4 435 437 441
405 7 439 437 440
406 7 439 437 441
407 7 440 437 441
408 9 711 714 715
409 4 436 438 442
410 4 436 438 443
411 4 436 438 444
412 7 442 438 443
413 7 442 438 444
414 7 443 438 444
415 11 552 551 553
416 11 552 551 554
417 12 553 551 554
418 9 551 553 556
419 11 582 581 583
420 11 582 581 584
421 12 583 581 584
422 9 581 584 585
423 9 661 664 665
424 9 145 147 149
425 11 146 145 147
426 11 146 145 148
427 12 147 145 148
428 9 145 148 150
429 4 76 78 82
430 4 76 78 83
431 4 76 78 84
432 7 82 78 83
433 7 82 78 84
434 7 83 78 84
435 4 255 257 259
436 4 255 257 260
437 4 255 257 261
438 7 259 257 260
439 7 259 257 261
440 7 260 257 261
441 9 701 703 706
442 11 702 701 703
443 11 702 701 704
444 12 703 701 704
445 9 701 704 705
446 4 147 149 151
447 4 147 149 152
448 4 147 149 153
449 7 151 149 152
450 7 151 149 153
451 7 152 149 153
452 13 563 566 565
453 4 565 566 567
454 4 565 566 568
455 6 567 566 568
456 4 243 245 247
457 4 243 245 248
458 4 243 245 249
459 7 247 245 248
460 7 247 245 249
461 7 248 245 249
462 9 561 564 565
463 4 256 258 262
464 4 256 258 263
465 4 256 258 264
466 7 262 258 263
467 7 262 258 264
468 7 263 258 264
469 11 254 253 255
470 11 254 253 256
471 12 255 253 256
472 13 704 705 706
473 4 706 705 709
474 4 706 705 710
475 6 709 705 710
476 13 703 706 705
477 4 705 706 707
478 4 705 706 708
479 6 707 706 708
480 4 519 521 523
481 4 519 521 524
482 4 519 521 525
483 7 523 521 524
484 7 523 521 525
485 7 524 521 525
486 9 229 231 233
487 4 231 233 235
488 4 231 233 236
489 4 231 233 237
490 7 235 233 236
491 7 235 233 237
492 7 236 233 237
493 9 121 123 125
494 4 123 125 127
495 4 123 125 128
496 4 123 125 129
497 7 127 125 128
498 7 127 125 129
499 7 128 125 129
500 11 518 517 519
501 11 518 517 520
502 12 519 517 520
503 9 517 520 522
504 4 520 522 526
505 4 520 522 527
506 4 520 522 528
507 7 526 522 527
508 7 526 522 528
509 7 527 522 528
510 9 517 519 521
511 9 721 724 725
512 13 723 726 725
513 4 725 726 727
514 4 725 726 728
515 6 727 726 728
516 18 744 743 745
517 18 746 743 747
518 18 748 743 749
519 17 744 743 746
520 17 744 743 747
521 17 744 743 748
522 17 744 743 749
523 17 745 743 746
524 17 745 743 747
525 17 745 743 748
526 17 745 743 749
527 17 746 743 748
528 17 746 743 749
529 17 747 743 748
530 17 747 743 749
531 9 631 634 635
532 13 633 636 635
533 4 635 636 637
534 4 635 636 638
535 6 637 636 638
536 11 722 721 723
537 11 722 721 724
538 12 723 721 724
539 9 721 723 726
540 13 724 725 726
541 4 726 725 729
542 4 726 725 730
543 6 729 725 730
544 11 632 631 633
545 11 632 631 634
546 12 633 631 634
547 9 631 633 636
548 13 634 635 636
549 4 636 635 639
550 4 636 635 640
551 6 639 635 640
552 4 327 329 331
553 4 327 329 332
554 4 327 329 333
555 7 331 329 332
556 7 331 329 333
557 7 332 329 333
558 11 662 661 663
559 11 662 661 664
560 12 663 661 664
561 9 661 663 666
562 13 664 665 666
563 4 666 665 669
564 4 666 665 670
565 6 669 665 670
566 9 73 75 77
567 9 73 76 78
568 9 581 583 586
569 13 584 585 586
570 4 586 585 589
571 4 586 585 590
572 6 589 585 590
573 13 583 586 585
574 4 585 586 587
575 4 585 586 588
576 6 587 586 588
577 4 148 150 154
578 4 148 150 155
579 4 148 150 156
580 7 154 150 155
581 7 154 150 156
582 7 155 150 156
583 11 74 73 75
584 11 74 73 76
585 12 75 73 76
586 4 75 77 79
587 4 75 77 80
588 4 75 77 81
589 7 79 77 80
590 7 79 77 81
591 7 80 77 81
592 11 242 241 243
593 11 242 241 244
594 12 243 241 244
595 9 241 243 245
596 9 217 220 222
597 4 208 210 214
598 4 208 210 215
599 4 208 210 216
600 7 214 210 215
601 7 214 210 216
602 7 215 210 216
603 9 193 196 198
604 4 196 198 202
605 4 196 198 203
606 4 196 198 204
607 7 202 198 203
608 7 202 198 204
609 7 203 198 204
610 9 289 291 293
611 4 291 293 295
612 4 291 293 296
613 4 291 293 297
614 7 295 293 296
615 7 295 293 297
616 7 296 293 297
617 9 217 219 221
618 9 397 399 401
619 4 399 401 403
620 4 399 401 404
621 4 399 401 405
622 7 403 401 404
623 7 403 401 405
624 7 404 401 405
625 11 206 205 207
626 11 206 205 208
627 12 207 205 208
628 9 205 208 210
629 9 591 593 596
630 13 594 595 596
631 4 596 595 599
632 4 596 595 600
633 6 599 595 600
634 13 593 596 595
635 4 595 596 597
636 4 595 596 598
637 6 597 596 598
638 9 289 292 294
639 11 290 289 291
640 11 290 289 292
641 12 291 289 292
642 9 421 423 425
643 9 421 424 426
644 4 424 426 430
645 4 424 426 431
646 4 424 426 432
647 7 430 426 431
648 7 430 426 432
649 7 431 426 432
650 4 472 474 478
651 4 472 474 479
652 4 472 474 480
653 7 478 474 479
654 7 478 474 480
655 7 479 474 480
656 4 292 294 298
657 4 292 294 299
658 4 292 294 300
659 7 298 294 299
660 7 298 294 300
661 7 299 294 300
662 4 423 425 427
663 4 423 425 428
664 4 423 425 429
665 7 427 425 428
666 7 427 425 429
667 7 428 425 429
668 11 422 421 423
669 11 422 421 424
670 12 423 421 424
671 9 49 51 53
672 11 470 469 471
673 11 470 469 472
674 12 471 469 472
675 9 469 472 474
676 13 663 666 665
677 4 665 666 667
678 4 665 666 668
679 6 667 666 668
680 4 51 53 55
681 4 51 53 56
682 4 51 53 57
683 7 55 53 56
684 7 55 53 57
685 7 56 53 57
686 9 469 471 473
687 4 471 473 475
688 4 471 473 476
689 4 471 473 477
690 7 475 473 476
691 7 475 473 477
692 7 476 473 477
693 9 25 27 29
694 4 27 29 31
695 4 27 29 32
696 4 27 29 33
697 7 31 29 32
698 7 31 29 33
699 7 32 29 33
700 9 13 16 18
701 9 13 15 17
702 4 15 17 19
703 4 15 17 20
704 4 15 17 21
705 7 19 17 20
706 7 19 17 21
707 7 20 17 21
708 11 26 25 27
709 11 26 25 28
710 12 27 25 28
711 9 25 28 30
712 4 16 18 22
713 4 16 18 23
714 4 16 18 24
715 7 22 18 23
716 7 22 18 24
717 7 23 18 24
718 11 14 13 15
719 11 14 13 16
720 12 15 13 16
721 4 244 246 250
722 4 244 246 251
723 4 244 246 252
724 7 250 246 251
725 7 250 246 252
726 7 251 246 252
727 4 28 30 34
728 4 28 30 35
729 4 28 30 36
730 7 34 30 35
731 7 34 30 36
732 7 35 30 36
733 11 86 85 87
734 11 86 85 88
735 12 87 85 88
736 4 88 90 94
737 4 88 90 95
738 4 88 90 96
739 7 94 90 95
740 7 94 90 96
741 7 95 90 96
742 9 241 244 246
743 4 220 222 226
744 4 220 222 227
745 4 220 222 228
746 7 226 222 227
747 7 226 222 228
748 7 227 222 228
749 9 85 88 90
750 9 85 87 89
751 18 765 764 766
752 18 767 764 768
753 18 769 764 770
754 17 765 764 767
755 17 765 764 768
756 17 765 764 769
757 17 765 764 770
758 17 766 764 767
759 17 766 764 768
760 17 766 764 769
761 17 766 764 770
762 17 767 764 769
763 17 767 764 770
764 17 768 764 769
765 17 768 764 770
766 11 218 217 219
767 11 218 217 220
768 12 219 217 220
769 4 219 221 223
770 4 219 221 224
771 4 219 221 225
772 7 223 221 224
773 7 223 221 225
774 7 224 221 225
775 11 398 397 399
776 11 398 397 400
777 12 399 397 400
778 9 397 400 402
779 4 400 402 406
780 4 400 402 407
781 4 400 402 408
782 7 406 402 407
783 7 406 402 408
784 7 407 402 408
785 4 207 209 211
786 4 207 209 212
787 4 207 209 213
788 7 211 209 212
789 7 211 209 213
790 7 212 209 213
791 9 205 207 209
792 11 592 591 593
793 11 592 591 594
794 12 593 591 594
795 9 591 594 595
796 11 194 193 195
797 11 194 193 196
798 12 195 193 196
799 9 193 195 197
800 4 195 197 199
801 4 195 197 200
802 4 195 197 201
803 7 199 197 200
804 7 199 197 201
805 7 200 197 201
806 4 52 54 58
807 4 52 54 59
808 4 52 54 60
809 7 58 54 59
810 7 58 54 60
811 7 59 54 60
812 9 681 684 685
813 13 683 686 685
814 4 685 686 687
815 4 685 686 688
816 6 687 686 688
817 4 63 65 67
818 4 63 65 68
819 4 63 65 69
820 7 67 65 68
821 7 67 65 69
822 7 68 65 69
823 9 49 52 54
824 11 50 49 51
825 11 50 49 52
826 12 51 49 52
827 18 751 750 752
828 18 753 750 754
829 18 755 750 756
830 17 751 750 753
831 17 751 750 754
832 17 751 750 755
833 17 751 750 756
834 17 752 750 753
835 17 752 750 754
836 17 752 750 755
837 17 752 750 756
838 17 753 750 755
839 17 753 750 756
840 17 754 750 755
841 17 754 750 756
842 11 682 681 683
843 11 682 681 684
844 12 683 681 684
845 9 681 683 686
846 13 684 685 686
847 4 686 685 689
848 4 686 685 690
849 6 689 685 690
850 9 481 484 486
851 4 484 486 490
852 4 484 486 491
853 4 484 486 492
854 7 490 486 491
855 7 490 486 492
856 7 491 486 492
857 9 337 340 342
858 4 340 342 346
859 4 340 342 347
860 4 340 342 348
861 7 346 342 347
862 7 346 342 348
863 7 347 342 348
864 18 758 757 759
865 18 760 757 761
866 18 762 757 763
867 17 758 757 760
868 17 758 757 761
869 17 758 757 762
870 17 758 757 763
871 17 759 757 760
872 17 759 757 761
873 17 759 757 762
874 17 759 757 763
875 17 760 757 762
876 17 760 757 763
877 17 761 757 762
878 17 761 757 763
879 11 482 481 483
880 11 482 481 484
881 12 483 481 484
882 9 481 483 485
883 11 338 337 339
884 11 338 337 340
885 12 339 337 340
886 9 337 339 341
887 9 691 694 695
888 13 693 696 695
889 4 695 696 697
890 4 695 696 698
891 6 697 696 698
892 4 483 485 487
893 4 483 485 488
894 4 483 485 489
895 7 487 485 488
896 7 487 485 489
897 7 488 485 489
898 4 339 341 343
899 4 339 341 344
900 4 339 341 345
901 7 343 341 344
902 7 343 341 345
903 7 344 341 345
904 4 87 89 91
905 4 87 89 92
906 4 87 89 93
907 7 91 89 92
908 7 91 89 93
909 7 92 89 93
910 4 280 282 286
911 4 280 282 287
912 4 280 282 288
913 7 286 282 287
914 7 286 282 288
915 7 287 282 288
916 11 278 277 279
917 11 278 277 280
918 12 279 277 280
919 9 277 280 282
920 4 279 281 283
921 4 279 281 284
922 4 279 281 285
923 7 283 281 284
924 7 283 281 285
925 7 284 281 285
926 9 277 279 281
927 11 62 61 63
928 11 62 61 64
929 12 63 61 64
930 11 446 445 447
931 11 446 445 448
932 12 447 445 448
933 9 445 447 449
934 4 447 449 451
935 4 447 449 452
936 4 447 449 453
937 7 451 449 452
938 7 451 449 453
939 7 452 449 453
940 9 445 448 450
941 9 61 63 65
942 4 4 6 10
943 4 4 6 11
944 4 4 6 12
945 7 10 6 11
946 7 10 6 12
947 7 11 6 12
948 4 411 413 415
949 4 411 413 416
950 4 411 413 417
951 7 415 413 416
952 7 415 413 417
953 7 416 413 417
954 11 410 409 411
955 11 410 409 412
956 12 411 409 412
957 9 409 411 413
958 9 409 412 414
959 4 412 414 418
960 4 412 414 419
961 4 412 414 420
962 7 418 414 419
963 7 418 414 420
964 7 419 414 420
965 9 157 159 161
966 4 159 161 163
967 4 159 161 164
968 4 159 161 165
969 7 163 161 164
970 7 163 161 165
971 7 164 161 165
972 11 158 157 159
973 11 158 157 160
974 12 159 157 160
975 9 157 160 162
976 4 160 162 166
977 4 160 162 167
978 4 160 162 168
979 7 166 162 167
980 7 166 162 168
981 7 167 162 168
982 9 621 624 625
983 11 692 691 693
984 11 692 691 694
985 12 693 691 694
986 9 691 693 696
987 13 694 695 696
988 4 696 695 699
989 4 696 695 700
990 6 699 695 700
991 13 613 616 615
992 4 615 616 617
993 4 615 616 618
994 6 617 616 618
995 9 611 614 615
996 11 110 109 111
997 11 110 109 112
998 12 111 109 112
999 9 109 112 114
1000 4 112 114 118
1001 4 112 114 119
1002 4 112 114 120
1003 7 118 114 119
1004 7 118 114 120
1005 7 119 114 120
1006 11 652 651 653
1007 11 652 651 654
1008 12 653 651 654
1009 9 651 654 655
1010 13 614 615 616
1011 4 616 615 619
1012 4 616 615 620
1013 6 619 615 620
1014 11 612 611 613
1015 11 612 611 614
1016 12 613 611 614
1017 9 611 613 616
1018 9 109 111 113
1019 4 111 113 115
1020 4 111 113 116
1021 4 111 113 117
1022 7 115 113 116
1023 7 115 113 117
1024 7 116 113 117
1025 13 654 655 656
1026 4 656 655 659
1027 4 656 655 660
1028 6 659 655 660
1029 13 653 656 655
1030 4 655 656 657
1031 4 655 656 658
1032 6 657 656 658
1033 4 172 174 178
1034 4 172 174 179
1035 4 172 174 180
1036 7 178 174 179
1037 7 178 174 180
1038 7 179 174 180
1039 13 574 575 576
1040 4 576 575 579
1041 4 576 575 580
1042 6 579 575 580
1043 11 572 571 573
1044 11 572 571 574
1045 12 573 571 574
1046 9 571 573 576
1047 9 651 653 656
1048 9 61 64 66
1049 4 64 66 70
1050 4 64 66 71
1051 4 64 66 72
1052 7 70 66 71
1053 7 70 66 72
1054 7 71 66 72
1055 11 170 169 171
1056 11 170 169 172
1057 12 171 169 172
1058 9 169 172 174
1059 13 573 576 575
1060 4 575 576 577
1061 4 575 576 578
1062 6 577 576 578
1063 9 571 574 575
1064 9 169 171 173
1065 4 171 173 175
1066 4 171 173 176
1067 4 171 173 177
1068 7 175 173 176
1069 7 175 173 177
1070 7 176 173 177
1071 11 2 1 3
1072 11 2 1 4
1073 12 3 1 4
1074 9 1 3 5
1075 4 3 5 7
1076 4 3 5 8
1077 4 3 5 9
1078 7 7 5 8
1079 7 7 5 9
1080 7 8 5 9
1081 4 448 450 454
1082 4 448 450 455
1083 4 448 450 456
1084 7 454 450 455
1085 7 454 450 456
1086 7 455 450 456
1087 9 1 4 6

Dihedrals

1 6 385 388 390 394
2 6 385 388 390 395
3 6 385 388 390 396
4 6 265 268 270 274
5 6 265 268 270 275
6 6 265 268 270 276
7 6 313 315 317 319
8 6 313 315 317 320
9 6 313 315 317 321
10 8 386 385 387 389
11 8 386 385 388 390
12 6 385 387 389 391
13 6 385 387 389 392
14 6 385 387 389 393
15 8 622 621 623 626
16 8 622 621 624 625
17 5 621 623 626 625
18 8 266 265 267 269
19 8 266 265 268 270
20 6 265 267 269 271
21 6 265 267 269 272
22 6 265 267 269 273
23 6 361 364 366 370
24 6 361 364 366 371
25 6 361 364 366 372
26 7 623 626 625 624
27 6 493 496 498 502
28 6 493 496 498 503
29 6 493 496 498 504
30 8 602 601 603 606
31 8 602 601 604 605
32 5 601 603 606 605
33 7 601 604 605 606
34 7 603 606 605 604
35 5 641 643 646 645
36 7 673 676 675 674
37 8 672 671 673 676
38 8 672 671 674 675
39 5 671 673 676 675
40 8 642 641 643 646
41 8 642 641 644 645
42 7 641 644 645 646
43 7 643 646 645 644
44 7 671 674 675 676
45 6 97 99 101 103
46 6 97 99 101 104
47 6 97 99 101 105
48 8 314 313 315 317
49 8 314 313 316 318
50 6 313 316 318 322
51 6 313 316 318 323
52 6 313 316 318 324
53 8 350 349 351 353
54 8 350 349 352 354
55 6 349 352 354 358
56 6 349 352 354 359
57 6 349 352 354 360
58 8 362 361 363 365
59 8 362 361 364 366
60 6 361 363 365 367
61 6 361 363 365 368
62 6 361 363 365 369
63 8 494 493 495 497
64 8 494 493 496 498
65 6 493 495 497 499
66 6 493 495 497 500
67 6 493 495 497 501
68 8 134 133 135 137
69 8 134 133 136 138
70 6 133 135 137 139
71 6 133 135 137 140
72 6 133 135 137 141
73 6 301 303 305 307
74 6 301 303 305 308
75 6 301 303 305 309
76 8 302 301 303 305
77 8 302 301 304 306
78 6 133 136 138 142
79 6 133 136 138 143
80 6 133 136 138 144
81 6 301 304 306 310
82 6 301 304 306 311
83 6 301 304 306 312
84 6 457 460 462 466
85 6 457 460 462 467
86 6 457 460 462 468
87 8 458 457 459 461
88 8 458 457 460 462
89 6 457 459 461 463
90 6 457 459 461 464
91 6 457 459 461 465
92 6 325 328 330 334
93 6 325 328 330 335
94 6 325 328 330 336
95 8 98 97 99 101
96 8 98 97 100 102
97 6 97 100 102 106
98 6 97 100 102 107
99 6 97 100 102 108
100 8 374 373 375 377
101 8 374 373 376 378
102 6 373 375 377 379
103 6 373 375 377 380
104 6 373 375 377 381
105 5 711 713 716 715
106 7 713 716 715 714
107 6 373 376 378 382
108 6 373 376 378 383
109 6 373 376 378 384
110 7 551 554 555 556
111 7 553 556 555 554
112 8 506 505 507 509
113 8 506 505 508 510
114 6 505 508 510 514
115 6 505 508 510 515
116 6 505 508 510 516
117 6 349 351 353 355
118 6 349 351 353 356
119 6 349 351 353 357
120 6 505 507 509 511
121 6 505 507 509 512
122 6 505 507 509 513
123 8 562 561 563 566
124 8 562 561 564 565
125 5 561 563 566 565
126 6 253 256 258 262
127 6 253 256 258 263
128 6 253 256 258 264
129 6 253 255 257 259
130 6 253 255 257 260
131 6 253 255 257 261
132 8 38 37 39 41
133 8 38 37 40 42
134 6 37 40 42 46
135 6 37 40 42 47
136 6 37 40 42 48
137 8 530 529 531 533
138 8 530 529 532 534
139 6 529 532 534 538
140 6 529 532 534 539
141 6 529 532 534 540
142 6 529 531 533 535
143 6 529 531 533 536
144 6 529 531 533 537
145 8 230 229 231 233
146 8 230 229 232 234
147 6 229 232 234 238
148 6 229 232 234 239
149 6 229 232 234 240
150 6 37 39 41 43
151 6 37 39 41 44
152 6 37 39 41 45
153 8 122 121 123 125
154 8 122 121 124 126
155 6 121 124 126 130
156 6 121 124 126 131
157 6 121 124 126 132
158 7 543 546 545 544
159 8 182 181 183 185
160 8 182 181 184 186
161 6 181 183 185 187
162 6 181 183 185 188
163 6 181 183 185 189
164 6 325 327 329 331
165 6 325 327 329 332
166 6 325 327 329 333
167 5 541 543 546 545
168 8 542 541 543 546
169 8 542 541 544 545
170 7 541 544 545 546
171 8 712 711 713 716
172 8 712 711 714 715
173 6 181 184 186 190
174 6 181 184 186 191
175 6 181 184 186 192
176 8 326 325 327 329
177 8 326 325 328 330
178 6 433 436 438 442
179 6 433 436 438 443
180 6 433 436 438 444
181 8 434 433 435 437
182 8 434 433 436 438
183 6 433 435 437 439
184 6 433 435 437 440
185 6 433 435 437 441
186 7 711 714 715 716
187 8 552 551 553 556
188 8 552 551 554 555
189 5 551 553 556 555
190 8 582 581 583 586
191 8 582 581 584 585
192 7 581 584 585 586
193 7 661 664 665 666
194 6 145 147 149 151
195 6 145 147 149 152
196 6 145 147 149 153
197 8 146 145 147 149
198 8 146 145 148 150
199 6 145 148 150 154
200 6 145 148 150 155
201 6 145 148 150 156
202 5 701 703 706 705
203 8 702 701 703 706
204 8 702 701 704 705
205 7 701 704 705 706
206 7 563 566 565 564
207 7 561 564 565 566
208 8 254 253 255 257
209 8 254 253 256 258
210 7 703 706 705 704
211 6 229 231 233 235
212 6 229 231 233 236
213 6 229 231 233 237
214 6 121 123 125 127
215 6 121 123 125 128
216 6 121 123 125 129
217 8 518 517 519 521
218 8 518 517 520 522
219 6 517 520 522 526
220 6 517 520 522 527
221 6 517 520 522 528
222 6 517 519 521 523
223 6 517 519 521 524
224 6 517 519 521 525
225 7 721 724 725 726
226 7 723 726 725 724
227 7 631 634 635 636
228 7 633 636 635 634
229 8 722 721 723 726
230 8 722 721 724 725
231 5 721 723 726 725
232 8 632 631 633 636
233 8 632 631 634 635
234 5 631 633 636 635
235 8 662 661 663 666
236 8 662 661 664 665
237 5 661 663 666 665
238 6 73 75 77 79
239 6 73 75 77 80
240 6 73 75 77 81
241 6 73 76 78 82
242 6 73 76 78 83
243 6 73 76 78 84
244 5 581 583 586 585
245 7 583 586 585 584
246 8 74 73 75 77
247 8 74 73 76 78
248 8 242 241 243 245
249 8 242 241 244 246
250 6 241 243 245 247
251 6 241 243 245 248
252 6 241 243 245 249
253 6 217 220 222 226
254 6 217 220 222 227
255 6 217 220 222 228
256 6 193 196 198 202
257 6 193 196 198 203
258 6 193 196 198 204
259 6 289 291 293 295
260 6 289 291 293 296
261 6 289 291 293 297
262 6 217 219 221 223
263 6 217 219 221 224
264 6 217 219 221 225
265 6 397 399 401 403
266 6 397 399 401 404
267 6 397 399 401 405
268 8 206 205 207 209
269 8 206 205 208 210
270 6 205 208 210 214
271 6 205 208 210 215
272 6 205 208 210 216
273 5 591 593 596 595
274 7 593 596 595 594
275 6 289 292 294 298
276 6 289 292 294 299
277 6 289 292 294 300
278 8 290 289 291 293
279 8 290 289 292 294
280 6 421 423 425 427
281 6 421 423 425 428
282 6 421 423 425 429
283 6 421 424 426 430
284 6 421 424 426 431
285 6 421 424 426 432
286 8 422 421 423 425
287 8 422 421 424 426
288 6 49 51 53 55
289 6 49 51 53 56
290 6 49 51 53 57
291 8 470 469 471 473
292 8 470 469 472 474
293 6 469 472 474 478
294 6 469 472 474 479
295 6 469 472 474 480
296 7 663 666 665 664
297 6 469 471 473 475
298 6 469 471 473 476
299 6 469 471 473 477
300 6 25 27 29 31
301 6 25 27 29 32
302 6 25 27 29 33
303 6 13 16 18 22
304 6 13 16 18 23
305 6 13 16 18 24
306 6 13 15 17 19
307 6 13 15 17 20
308 6 13 15 17 21
309 8 26 25 27 29
310 8 26 25 28 30
311 6 25 28 30 34
312 6 25 28 30 35
313 6 25 28 30 36
314 8 14 13 15 17
315 8 14 13 16 18
316 8 86 85 87 89
317 8 86 85 88 90
318 6 241 244 246 250
319 6 241 244 246 251
320 6 241 244 246 252
321 6 85 88 90 94
322 6 85 88 90 95
323 6 85 88 90 96
324 6 85 87 89 91
325 6 85 87 89 92
326 6 85 87 89 93
327 8 218 217 219 221
328 8 218 217 220 222
329 8 398 397 399 401
330 8 398 397 400 402
331 6 397 400 402 406
332 6 397 400 402 407
333 6 397 400 402 408
334 6 205 207 209 211
335 6 205 207 209 212
336 6 205 207 209 213
337 8 592 591 593 596
338 8 592 591 594 595
339 7 591 594 595 596
340 8 194 193 195 197
341 8 194 193 196 198
342 6 193 195 197 199
343 6 193 195 197 200
344 6 193 195 197 201
345 7 681 684 685 686
346 7 683 686 685 684
347 6 49 52 54 58
348 6 49 52 54 59
349 6 49 52 54 60
350 8 50 49 51 53
351 8 50 49 52 54
352 8 682 681 683 686
353 8 682 681 684 685
354 5 681 683 686 685
355 6 481 484 486 490
356 6 481 484 486 491
357 6 481 484 486 492
358 6 337 340 342 346
359 6 337 340 342 347
360 6 337 340 342 348
361 8 482 481 483 485
362 8 482 481 484 486
363 6 481 483 485 487
364 6 481 483 485 488
365 6 481 483 485 489
366 8 338 337 339 341
367 8 338 337 340 342
368 6 337 339 341 343
369 6 337 339 341 344
370 6 337 339 341 345
371 7 691 694 695 696
372 7 693 696 695 694
373 8 278 277 279 281
374 8 278 277 280 282
375 6 277 280 282 286
376 6 277 280 282 287
377 6 277 280 282 288
378 6 277 279 281 283
379 6 277 279 281 284
380 6 277 279 281 285
381 8 62 61 63 65
382 8 62 61 64 66
383 8 446 445 447 449
384 8 446 445 448 450
385 6 445 447 449 451
386 6 445 447 449 452
387 6 445 447 449 453
388 6 445 448 450 454
389 6 445 448 450 455
390 6 445 448 450 456
391 6 61 63 65 67
392 6 61 63 65 68
393 6 61 63 65 69
394 8 410 409 411 413
395 8 410 409 412 414
396 6 409 411 413 415
397 6 409 411 413 416
398 6 409 411 413 417
399 6 409 412 414 418
400 6 409 412 414 419
401 6 409 412 414 420
402 6 157 159 161 163
403 6 157 159 161 164
404 6 157 159 161 165
405 8 158 157 159 161
406 8 158 157 160 162
407 6 157 160 162 166
408 6 157 160 162 167
409 6 157 160 162 168
410 7 621 624 625 626
411 8 692 691 693 696
412 8 692 691 694 695
413 5 691 693 696 695
414 7 613 616 615 614
415 7 611 614 615 616
416 8 110 109 111 113
417 8 110 109 112 114
418 6 109 112 114 118
419 6 109 112 114 119
420 6 109 112 114 120
421 8 652 651 653 656
422 8 652 651 654 655
423 7 651 654 655 656
424 8 612 611 613 616
425 8 612 611 614 615
426 5 611 613 616 615
427 6 109 111 113 115
428 6 109 111 113 116
429 6 109 111 113 117
430 7 653 656 655 654
431 8 572 571 573 576
432 8 572 571 574 575
433 5 571 573 576 575
434 5 651 653 656 655
435 6 61 64 66 70
436 6 61 64 66 71
437 6 61 64 66 72
438 8 170 169 171 173
439 8 170 169 172 174
440 6 169 172 174 178
441 6 169 172 174 179
442 6 169 172 174 180
443 7 573 576 575 574
444 7 571 574 575 576
445 6 169 171 173 175
446 6 169 171 173 176
447 6 169 171 173 177
448 8 2 1 3 5
449 8 2 1 4 6
450 6 1 3 5 7
451 6 1 3 5 8
452 6 1 3 5 9
453 6 1 4 6 10
454 6 1 4 6 11
455 6 1 4 6 12
