LAMMPS Description

770  atoms
715  bonds
1087  angles
455  dihedrals
0  impropers

31  atom types
17  bond types
18  angle types
9  dihedral types
2  improper types

0.0 20.000000 xlo xhi
0.0 20.000000 ylo yhi
0.0 20.000000 zlo zhi

Masses

1 12.011  # opls_135
2 12.011  # opls_136
3 12.011  # opls_137
4 12.011  # opls_138
5 12.011  # opls_141
6 12.011  # opls_142
7 12.011  # opls_145
8 12.011  # opls_146
9 12.011  # opls_209
10 12.011  # opls_212
11 1.008  # opls_140
12 1.008  # opls_139
13 1.008  # opls_143
14 1.008  # opls_148
15 1.008  # opls_154
16 1.008  # opls_160
17 1.008  # opls_210
18 15.999  # opls_154O
19 15.999  # opls_156
20 15.999  # opls_211
21 15.999  # opls_213
22 14.007  # opls_157
23 14.007  # opls_158
24 14.007  # opls_159
25 14.007  # opls_236
26 18.998  # opls_303
27 30.974  # opls_901
28 6.941  # opls_402
29 32.065  # opls_180
30 32.065  # opls_903
31 6.941  # Li

Atoms

1 1 9 +0.52 5.524 12.471 6.128
2 1 20 -0.50 5.532 11.506 6.841
3 1 19 -0.35 6.638 12.803 5.422
4 1 19 -0.35 4.402 13.233 6.027
5 1 1 +0.22 7.768 11.944 5.592
6 1 1 +0.22 3.282 12.805 6.806
7 1 11 +0.06 7.515 11.145 6.289
8 1 11 +0.06 8.045 11.512 4.630
9 1 11 +0.06 8.606 12.519 5.987
10 1 11 +0.06 2.446 13.487 6.646
11 1 11 +0.06 2.992 11.799 6.505
12 1 11 +0.06 3.552 12.805 7.862
13 2 9 +0.52 17.558 17.025 8.419
14 2 20 -0.50 16.636 17.698 8.792
15 2 19 -0.35 18.670 17.618 7.907
16 2 19 -0.35 17.489 15.670 8.508
17 2 1 +0.22 18.649 19.047 7.854
18 2 1 +0.22 16.282 15.138 9.059
19 2 11 +0.06 17.702 19.413 8.251
20 2 11 +0.06 19.471 19.445 8.449
21 2 11 +0.06 18.759 19.373 6.819
22 2 11 +0.06 16.341 14.049 9.081
23 2 11 +0.06 16.147 15.514 10.073
24 2 11 +0.06 15.436 15.443 8.443
25 3 9 +0.52 5.279 17.084 6.267
26 3 20 -0.50 4.118 17.026 5.968
27 3 19 -0.35 5.767 16.289 7.256
28 3 19 -0.35 6.106 17.945 5.615
29 3 1 +0.22 4.822 15.418 7.883
30 3 1 +0.22 5.503 18.739 4.590
31 3 11 +0.06 3.841 15.558 7.430
32 3 11 +0.06 5.139 14.383 7.750
33 3 11 +0.06 4.768 15.646 8.948
34 3 11 +0.06 6.257 19.387 4.141
35 3 11 +0.06 5.082 18.087 3.825
36 3 11 +0.06 4.711 19.351 5.022
37 4 9 +0.52 6.735 8.618 11.251
38 4 20 -0.50 7.570 7.984 10.666
39 4 19 -0.35 5.789 7.978 11.990
40 4 19 -0.35 6.734 9.976 11.174
41 4 1 +0.22 5.871 6.550 12.011
42 4 1 +0.22 7.766 10.558 10.373
43 4 11 +0.06 6.714 6.225 11.402
44 4 11 +0.06 6.010 6.209 13.037
45 4 11 +0.06 4.949 6.128 11.610
46 4 11 +0.06 7.666 11.645 10.386
47 4 11 +0.06 8.740 10.279 10.775
48 4 11 +0.06 7.679 10.198 9.348
49 5 9 +0.52 16.254 9.010 10.045
50 5 20 -0.50 16.260 10.208 10.125
51 5 19 -0.35 15.119 8.359 9.673
52 5 19 -0.35 17.381 8.304 10.328
53 5 1 +0.22 13.985 9.185 9.396
54 5 1 +0.22 18.523 9.075 10.711
55 5 11 +0.06 14.253 10.231 9.542
56 5 11 +0.06 13.667 9.031 8.364
57 5 11 +0.06 13.170 8.921 10.070
58 5 11 +0.06 19.362 8.407 10.912
59 5 11 +0.06 18.789 9.758 9.903
60 5 11 +0.06 18.292 9.647 11.609
61 6 9 +0.52 19.041 9.021 4.951
62 6 20 -0.50 19.806 9.861 5.337
63 6 19 -0.35 18.727 8.943 3.630
64 6 19 -0.35 18.487 8.148 5.834
65 6 1 +0.22 19.358 9.902 2.778
66 6 1 +0.22 18.877 8.308 7.201
67 6 11 +0.06 20.003 10.548 3.373
68 6 11 +0.06 19.955 9.384 2.027
69 6 11 +0.06 18.597 10.505 2.283
70 6 11 +0.06 18.373 7.558 7.813
71 6 11 +0.06 19.956 8.182 7.289
72 6 11 +0.06 18.597 9.303 7.545
73 7 9 +0.52 15.734 19.445 14.081
74 7 20 -0.50 15.690 18.735 13.115
75 7 19 -0.35 16.933 19.761 14.640
76 7 19 -0.35 14.584 19.936 14.617
77 7 1 +0.22 18.086 19.199 14.008
78 7 1 +0.22 13.373 19.550 13.961
79 7 11 +0.06 17.775 18.594 13.156
80 7 11 +0.06 18.740 20.001 13.666
81 7 11 +0.06 18.623 18.573 14.722
82 7 11 +0.06 12.522 20.000 14.475
83 7 11 +0.06 13.394 19.893 12.927
84 7 11 +0.06 13.277 18.465 13.983
85 8 9 +0.52 14.731 2.485 14.098
86 8 20 -0.50 14.997 1.387 14.502
87 8 19 -0.35 13.751 3.212 14.700
88 8 19 -0.35 15.408 3.002 13.038
89 8 1 +0.22 13.096 2.585 15.805
90 8 1 +0.22 16.419 2.165 12.472
91 8 11 +0.06 13.522 1.595 15.968
92 8 11 +0.06 13.233 3.191 16.701
93 8 11 +0.06 12.031 2.491 15.591
94 8 11 +0.06 16.892 2.681 11.634
95 8 11 +0.06 17.170 1.938 13.228
96 8 11 +0.06 15.968 1.238 12.118
97 9 9 +0.52 13.495 2.417 7.444
98 9 20 -0.50 12.680 1.555 7.265
99 9 19 -0.35 13.093 3.680 7.751
100 9 19 -0.35 14.821 2.131 7.341
101 9 1 +0.22 11.681 3.884 7.837
102 9 1 +0.22 15.146 0.777 7.015
103 9 11 +0.06 11.164 2.946 7.633
104 9 11 +0.06 11.424 4.229 8.839
105 9 11 +0.06 11.376 4.634 7.107
106 9 11 +0.06 16.230 0.667 6.960
107 9 11 +0.06 14.754 0.113 7.785
108 9 11 +0.06 14.706 0.518 6.053
109 10 9 +0.52 10.866 9.713 10.934
110 10 20 -0.50 11.115 9.683 9.761
111 10 19 -0.35 10.803 10.905 11.586
112 10 19 -0.35 10.647 8.554 11.613
113 10 1 +0.22 11.047 12.068 10.790
114 10 1 +0.22 10.735 7.352 10.844
115 10 11 +0.06 11.248 11.769 9.761
116 10 11 +0.06 10.171 12.716 10.816
117 10 11 +0.06 11.908 12.605 11.187
118 10 11 +0.06 10.542 6.493 11.489
119 10 11 +0.06 9.996 7.377 10.043
120 10 11 +0.06 11.733 7.266 10.415
121 11 9 +0.52 0.767 12.386 9.358
122 11 20 -0.50 1.966 12.340 9.387
123 11 19 -0.35 0.130 13.585 9.444
124 11 19 -0.35 0.045 11.240 9.238
125 11 1 +0.22 0.973 14.734 9.567
126 11 1 +0.22 0.801 10.029 9.154
127 11 11 +0.06 2.017 14.422 9.569
128 11 11 +0.06 0.796 15.406 8.727
129 11 11 +0.06 0.746 15.252 10.499
130 11 11 +0.06 0.121 9.181 9.062
131 11 11 +0.06 1.454 10.067 8.282
132 11 11 +0.06 1.404 9.913 10.055
133 12 9 +0.52 14.375 11.716 12.755
134 12 20 -0.50 14.817 11.880 13.858
135 12 19 -0.35 15.076 12.144 11.671
136 12 19 -0.35 13.172 11.103 12.589
137 12 1 +0.22 16.329 12.776 11.945
138 12 1 +0.22 12.509 10.689 13.786
139 12 11 +0.06 16.497 12.800 13.021
140 12 11 +0.06 17.131 12.216 11.464
141 12 11 +0.06 16.314 13.795 11.557
142 12 11 +0.06 11.561 10.213 13.531
143 12 11 +0.06 13.137 9.979 14.323
144 12 11 +0.06 12.320 11.558 14.417
145 13 9 +0.52 0.817 2.948 18.697
146 13 20 -0.50 1.936 3.075 19.112
147 13 19 -0.35 0.301 1.704 18.504
148 13 19 -0.35 0.065 4.047 18.421
149 13 1 +0.22 1.165 0.611 18.823
150 13 1 +0.22 0.693 5.310 18.655
151 13 11 +0.06 2.121 0.994 19.178
152 13 11 +0.06 0.707 -0.000 19.601
153 13 11 +0.06 1.325 0.003 17.932
154 13 11 +0.06 -0.000 6.113 18.400
155 13 11 +0.06 0.968 5.390 19.707
156 13 11 +0.06 1.587 5.393 18.038
157 14 9 +0.52 7.676 17.070 18.598
158 14 20 -0.50 7.880 16.659 17.490
159 14 19 -0.35 7.909 18.378 18.892
160 14 19 -0.35 7.210 16.230 19.561
161 14 1 +0.22 8.398 19.184 17.817
162 14 1 +0.22 6.995 14.875 19.158
163 14 11 +0.06 8.496 18.573 16.920
164 14 11 +0.06 7.698 19.998 17.626
165 14 11 +0.06 9.371 19.596 18.084
166 14 11 +0.06 6.624 14.298 20.006
167 14 11 +0.06 6.261 14.846 18.352
168 14 11 +0.06 7.934 14.444 18.810
169 15 9 +0.52 14.185 19.453 7.919
170 15 20 -0.50 14.959 18.570 7.674
171 15 19 -0.35 13.338 19.902 6.955
172 15 19 -0.35 14.154 20.005 9.162
173 15 1 +0.22 13.443 19.261 5.681
174 15 1 +0.22 15.081 19.468 10.109
175 15 11 +0.06 14.219 18.496 5.721
176 15 11 +0.06 12.490 18.798 5.427
177 15 11 +0.06 13.701 20.000 4.922
178 15 11 +0.06 14.966 19.985 11.063
179 15 11 +0.06 14.886 18.405 10.247
180 15 11 +0.06 16.098 19.607 9.742
181 16 9 +0.52 4.965 19.074 14.558
182 16 20 -0.50 4.052 19.795 14.855
183 16 19 -0.35 5.200 18.779 13.251
184 16 19 -0.35 5.764 18.553 15.528
185 16 1 +0.22 4.308 19.373 12.304
186 16 1 +0.22 5.438 18.920 16.871
187 16 11 +0.06 3.571 19.980 12.830
188 16 11 +0.06 4.874 20.002 11.617
189 16 11 +0.06 3.800 18.589 11.743
190 16 11 +0.06 6.142 18.446 17.558
191 16 11 +0.06 5.501 20.003 16.978
192 16 11 +0.06 4.426 18.589 17.104
193 17 9 +0.52 7.474 14.684 1.250
194 17 20 -0.50 7.500 13.933 0.313
195 17 19 -0.35 8.604 15.344 1.622
196 17 19 -0.35 6.317 14.874 1.938
197 17 1 +0.22 9.771 15.080 0.840
198 17 1 +0.22 5.183 14.137 1.472
199 17 11 +0.06 9.528 14.366 0.053
200 17 11 +0.06 10.125 16.008 0.391
201 17 11 +0.06 10.551 14.665 1.479
202 17 11 +0.06 4.318 14.368 2.096
203 17 11 +0.06 4.969 14.412 0.439
204 17 11 +0.06 5.395 13.069 1.527
205 18 9 +0.52 1.695 17.020 0.884
206 18 20 -0.50 2.700 16.364 0.883
207 18 19 -0.35 0.482 16.405 0.885
208 18 19 -0.35 1.770 18.378 0.884
209 18 1 +0.22 0.504 14.976 0.884
210 18 1 +0.22 3.087 18.933 0.884
211 18 11 +0.06 1.536 14.627 0.883
212 18 11 +0.06 -0.004 14.604 1.775
213 18 11 +0.06 -0.006 14.605 -0.005
214 18 11 +0.06 3.024 20.022 0.884
215 18 11 +0.06 3.623 18.601 1.773
216 18 11 +0.06 3.622 18.602 -0.007
217 19 9 +0.52 4.990 7.723 4.934
218 19 20 -0.50 3.797 7.640 5.033
219 19 19 -0.35 5.758 6.603 5.005
220 19 19 -0.35 5.573 8.938 4.750
221 19 1 +0.22 5.056 5.373 5.200
222 19 1 +0.22 4.685 10.057 4.688
223 19 11 +0.06 3.985 5.570 5.258
224 19 11 +0.06 5.257 4.703 4.364
225 19 11 +0.06 5.390 4.907 6.127
226 19 11 +0.06 5.261 10.971 4.539
227 19 11 +0.06 3.992 9.926 3.856
228 19 11 +0.06 4.125 10.129 5.620
229 20 9 +0.52 2.872 10.508 19.023
230 20 20 -0.50 2.099 11.424 18.973
231 20 19 -0.35 4.211 10.746 18.990
232 20 19 -0.35 2.410 9.232 19.112
233 20 1 +0.22 4.601 12.119 18.896
234 20 1 +0.22 0.989 9.081 19.140
235 20 11 +0.06 3.712 12.748 18.867
236 20 11 +0.06 5.207 12.385 19.763
237 20 11 +0.06 5.183 12.269 17.987
238 20 11 +0.06 0.737 8.022 19.212
239 20 11 +0.06 0.583 9.609 20.003
240 20 11 +0.06 0.560 9.494 18.227
241 21 9 +0.52 9.749 10.906 14.964
242 21 20 -0.50 8.658 10.521 15.280
243 21 19 -0.35 9.885 11.823 13.968
244 21 19 -0.35 10.851 10.427 15.602
245 21 1 +0.22 8.672 12.268 13.358
246 21 1 +0.22 10.609 9.467 16.634
247 21 11 +0.06 7.824 11.768 13.825
248 21 11 +0.06 8.574 13.346 13.487
249 21 11 +0.06 8.692 12.031 12.293
250 21 11 +0.06 11.559 9.156 17.071
251 21 11 +0.06 9.984 9.914 17.407
252 21 11 +0.06 10.102 8.599 16.214
253 22 9 +0.52 15.771 12.271 0.931
254 22 20 -0.50 14.892 11.981 0.167
255 22 19 -0.35 15.992 13.575 1.250
256 22 19 -0.35 16.546 11.297 1.478
257 22 1 +0.22 15.127 14.528 0.626
258 22 1 +0.22 16.239 9.957 1.083
259 22 11 +0.06 14.418 14.009 -0.019
260 22 11 +0.06 14.583 15.081 1.392
261 22 11 +0.06 15.720 15.221 0.030
262 22 11 +0.06 16.920 9.266 1.581
263 22 11 +0.06 15.213 9.720 1.365
264 22 11 +0.06 16.350 9.861 0.003
265 23 9 +0.52 15.849 2.803 4.276
266 23 20 -0.50 15.138 2.498 5.193
267 23 19 -0.35 17.130 3.197 4.511
268 23 19 -0.35 15.376 2.754 3.002
269 23 1 +0.22 17.538 3.217 5.881
270 23 1 +0.22 14.019 2.327 2.854
271 23 11 +0.06 16.709 2.898 6.512
272 23 11 +0.06 18.381 2.541 6.019
273 23 11 +0.06 17.836 4.229 6.157
274 23 11 +0.06 13.751 2.327 1.797
275 23 11 +0.06 13.908 1.320 3.256
276 23 11 +0.06 13.362 3.009 3.394
277 24 9 +0.52 15.342 6.373 19.051
278 24 20 -0.50 15.819 7.292 19.658
279 24 19 -0.35 14.005 6.343 18.802
280 24 19 -0.35 16.139 5.362 18.612
281 24 1 +0.22 13.250 7.449 19.303
282 24 1 +0.22 17.530 5.481 18.921
283 24 11 +0.06 13.917 8.143 19.814
284 24 11 +0.06 12.761 7.960 18.473
285 24 11 +0.06 12.496 7.087 20.002
286 24 11 +0.06 18.066 4.619 18.521
287 24 11 +0.06 17.926 6.392 18.473
288 24 11 +0.06 17.661 5.520 20.002
289 25 9 +0.52 18.771 8.654 14.471
290 25 20 -0.50 17.717 8.534 15.031
291 25 19 -0.35 19.684 7.646 14.516
292 25 19 -0.35 19.054 9.798 13.791
293 25 1 +0.22 19.298 6.484 15.254
294 25 1 +0.22 18.034 10.800 13.799
295 25 11 +0.06 18.297 6.628 15.662
296 25 11 +0.06 19.299 5.617 14.594
297 25 11 +0.06 20.003 6.321 16.070
298 25 11 +0.06 18.370 11.665 13.227
299 25 11 +0.06 17.126 10.399 13.350
300 25 11 +0.06 17.829 11.102 14.826
301 26 9 +0.52 16.117 6.843 16.739
302 26 20 -0.50 14.944 7.095 16.749
303 26 19 -0.35 16.539 5.579 16.466
304 26 19 -0.35 17.025 7.822 17.001
305 26 1 +0.22 15.513 4.619 16.203
306 26 1 +0.22 16.488 9.117 17.277
307 26 11 +0.06 14.538 5.101 16.274
308 26 11 +0.06 15.645 4.211 15.201
309 26 11 +0.06 15.574 3.813 16.935
310 26 11 +0.06 17.303 9.816 17.471
311 26 11 +0.06 15.911 9.463 16.419
312 26 11 +0.06 15.840 9.065 18.152
313 27 9 +0.52 4.437 10.066 12.224
314 27 20 -0.50 3.889 9.170 11.643
315 27 19 -0.35 4.904 11.140 11.532
316 27 19 -0.35 4.591 10.007 13.574
317 27 1 +0.22 4.697 11.113 10.118
318 27 1 +0.22 4.068 8.840 14.213
319 27 11 +0.06 4.179 10.194 9.843
320 27 11 +0.06 4.094 11.972 9.822
321 27 11 +0.06 5.660 11.153 9.608
322 27 11 +0.06 4.247 8.902 15.288
323 27 11 +0.06 2.996 8.772 14.029
324 27 11 +0.06 4.562 7.954 13.815
325 28 9 +0.52 8.401 1.440 11.077
326 28 20 -0.50 8.203 0.287 10.808
327 28 19 -0.35 9.673 1.921 11.111
328 28 19 -0.35 7.354 2.265 11.347
329 28 1 +0.22 10.707 0.980 10.813
330 28 1 +0.22 6.056 1.670 11.287
331 28 11 +0.06 10.264 0.006 10.604
332 28 11 +0.06 11.267 1.319 9.941
333 28 11 +0.06 11.380 0.897 11.667
334 28 11 +0.06 5.300 2.421 11.520
335 28 11 +0.06 5.880 1.279 10.285
336 28 11 +0.06 5.993 0.857 12.010
337 29 9 +0.52 5.392 2.109 3.574
338 29 20 -0.50 5.580 0.938 3.390
339 29 19 -0.35 6.445 2.938 3.805
340 29 19 -0.35 4.127 2.606 3.553
341 29 1 +0.22 7.737 2.325 3.809
342 29 1 +0.22 3.085 1.659 3.303
343 29 11 +0.06 7.633 1.257 3.618
344 29 11 +0.06 8.355 2.775 3.032
345 29 11 +0.06 8.208 2.476 4.781
346 29 11 +0.06 2.121 2.169 3.308
347 29 11 +0.06 3.243 1.193 2.330
348 29 11 +0.06 3.095 0.894 4.079
349 30 9 +0.52 9.780 15.895 3.837
350 30 20 -0.50 9.234 16.749 3.193
351 30 19 -0.35 9.044 14.923 4.439
352 30 19 -0.35 11.134 15.901 3.964
353 30 1 +0.22 7.629 15.000 4.249
354 30 1 +0.22 11.821 16.962 3.296
355 30 11 +0.06 7.391 15.863 3.628
356 30 11 +0.06 7.278 14.091 3.758
357 30 11 +0.06 7.137 15.102 5.216
358 30 11 +0.06 12.894 16.865 3.468
359 30 11 +0.06 11.619 16.910 2.227
360 30 11 +0.06 11.478 17.921 3.685
361 31 9 +0.52 4.352 0.950 7.797
362 31 20 -0.50 3.612 0.350 7.066
363 31 19 -0.35 5.634 1.196 7.414
364 31 19 -0.35 3.908 1.384 9.007
365 31 1 +0.22 6.008 0.702 6.126
366 31 1 +0.22 2.547 1.078 9.322
367 31 11 +0.06 5.158 0.197 5.668
368 31 11 +0.06 6.319 1.534 5.494
369 31 11 +0.06 6.835 -0.001 6.232
370 31 11 +0.06 2.305 1.472 10.310
371 31 11 +0.06 1.891 1.532 8.580
372 31 11 +0.06 2.406 -0.003 9.318
373 32 9 +0.52 4.960 18.949 8.639
374 32 20 -0.50 4.327 19.510 9.490
375 32 19 -0.35 4.421 18.759 7.405
376 32 19 -0.35 6.217 18.505 8.909
377 32 1 +0.22 3.096 19.260 7.216
378 32 1 +0.22 6.698 18.751 10.232
379 32 11 +0.06 2.747 19.724 8.139
380 32 11 +0.06 3.098 20.001 6.416
381 32 11 +0.06 2.431 18.439 6.949
382 32 11 +0.06 7.710 18.353 10.332
383 32 11 +0.06 6.711 19.824 10.422
384 32 11 +0.06 6.045 18.262 10.954
385 33 9 +0.52 9.067 3.381 8.130
386 33 20 -0.50 9.446 2.695 9.038
387 33 19 -0.35 9.095 2.902 6.858
388 33 19 -0.35 8.608 4.638 8.374
389 33 1 +0.22 9.593 1.572 6.700
390 33 1 +0.22 8.616 5.054 9.742
391 33 11 +0.06 9.870 1.169 7.674
392 33 11 +0.06 8.820 0.945 6.254
393 33 11 +0.06 10.468 1.586 6.050
394 33 11 +0.06 8.230 6.071 9.816
395 33 11 +0.06 7.988 4.384 10.330
396 33 11 +0.06 9.636 5.025 10.126
397 34 9 +0.52 9.456 15.491 10.697
398 34 20 -0.50 8.586 16.120 11.233
399 34 19 -0.35 10.760 15.807 10.919
400 34 19 -0.35 9.138 14.461 9.867
401 34 1 +0.22 10.997 16.903 11.806
402 34 1 +0.22 7.742 14.204 9.695
403 34 11 +0.06 10.044 17.301 12.155
404 34 11 +0.06 11.582 16.561 12.659
405 34 11 +0.06 11.545 17.685 11.279
406 34 11 +0.06 7.608 13.363 9.013
407 34 11 +0.06 7.294 13.963 10.659
408 34 11 +0.06 7.257 15.087 9.279
409 35 9 +0.52 13.845 4.382 11.232
410 35 20 -0.50 14.103 3.253 10.918
411 35 19 -0.35 14.701 5.390 10.914
412 35 19 -0.35 12.695 4.654 11.906
413 35 1 +0.22 15.883 5.007 10.205
414 35 1 +0.22 11.858 3.531 12.196
415 35 11 +0.06 15.878 3.929 10.044
416 35 11 +0.06 15.911 5.518 9.243
417 35 11 +0.06 16.762 5.283 10.789
418 35 11 +0.06 10.972 3.868 12.735
419 35 11 +0.06 11.556 3.053 11.264
420 35 11 +0.06 12.406 2.817 12.810
421 36 9 +0.52 14.664 7.856 2.573
422 36 20 -0.50 15.367 6.888 2.659
423 36 19 -0.35 14.874 8.925 3.388
424 36 19 -0.35 13.655 7.885 1.661
425 36 1 +0.22 15.957 8.802 4.314
426 36 1 +0.22 13.511 6.716 0.849
427 36 11 +0.06 16.434 7.830 4.190
428 36 11 +0.06 16.685 9.592 4.128
429 36 11 +0.06 15.576 8.892 5.332
430 36 11 +0.06 12.677 6.853 0.160
431 36 11 +0.06 14.427 6.552 0.281
432 36 11 +0.06 13.318 5.853 1.485
433 37 9 +0.52 16.884 12.998 5.799
434 37 20 -0.50 16.749 11.830 5.557
435 37 19 -0.35 15.814 13.738 6.196
436 37 19 -0.35 18.106 13.581 5.676
437 37 1 +0.22 14.571 13.038 6.297
438 37 1 +0.22 19.170 12.724 5.253
439 37 11 +0.06 14.718 11.993 6.024
440 37 11 +0.06 14.202 13.097 7.321
441 37 11 +0.06 13.844 13.490 5.623
442 37 11 +0.06 20.096 13.298 5.190
443 37 11 +0.06 19.293 11.915 5.972
444 37 11 +0.06 18.935 12.308 4.274
445 38 9 +0.52 9.924 7.278 3.196
446 38 20 -0.50 9.800 7.999 2.245
447 38 19 -0.35 9.161 6.157 3.303
448 38 19 -0.35 10.826 7.582 4.167
449 38 1 +0.22 8.241 5.921 2.234
450 38 1 +0.22 11.581 8.779 3.968
451 38 11 +0.06 8.325 6.720 1.498
452 38 11 +0.06 8.471 4.966 1.761
453 38 11 +0.06 7.225 5.896 2.628
454 38 11 +0.06 12.268 8.920 4.804
455 38 11 +0.06 12.150 8.702 3.041
456 38 11 +0.06 10.904 9.632 3.908
457 39 9 +0.52 3.183 13.141 11.910
458 39 20 -0.50 2.632 13.808 12.742
459 39 19 -0.35 2.737 11.884 11.643
460 39 19 -0.35 4.252 13.642 11.235
461 39 1 +0.22 1.608 11.444 12.402
462 39 1 +0.22 4.647 14.971 11.585
463 39 11 +0.06 1.300 12.235 13.086
464 39 11 +0.06 0.786 11.207 11.726
465 39 11 +0.06 1.878 10.555 12.972
466 39 11 +0.06 5.508 15.264 10.983
467 39 11 +0.06 3.822 15.658 11.395
468 39 11 +0.06 4.914 15.006 12.641
469 40 9 +0.52 14.733 14.485 15.502
470 40 20 -0.50 13.600 14.538 15.893
471 40 19 -0.35 15.763 14.575 16.386
472 40 19 -0.35 14.987 14.335 14.174
473 40 1 +0.22 15.397 14.732 17.759
474 40 1 +0.22 13.842 14.249 13.323
475 40 11 +0.06 14.311 14.751 17.847
476 40 11 +0.06 15.794 13.898 18.338
477 40 11 +0.06 15.809 15.666 18.141
478 40 11 +0.06 14.166 14.131 12.288
479 40 11 +0.06 13.236 13.391 13.612
480 40 11 +0.06 13.251 15.160 13.415
481 41 9 +0.52 8.978 1.235 19.061
482 41 20 -0.50 9.051 0.249 19.740
483 41 19 -0.35 7.764 1.781 18.783
484 41 19 -0.35 10.110 1.808 18.570
485 41 1 +0.22 6.632 1.110 19.343
486 41 1 +0.22 11.338 1.163 18.915
487 41 11 +0.06 6.968 0.246 19.915
488 41 11 +0.06 6.093 1.793 20.000
489 41 11 +0.06 5.971 0.780 18.541
490 41 11 +0.06 12.172 1.707 18.469
491 41 11 +0.06 11.452 1.153 19.999
492 41 11 +0.06 11.331 0.140 18.540
493 42 9 +0.52 0.604 8.537 14.006
494 42 20 -0.50 1.170 7.770 14.735
495 42 19 -0.35 0.373 9.815 14.411
496 42 19 -0.35 0.196 8.129 12.774
497 42 1 +0.22 0.839 10.151 15.720
498 42 1 +0.22 0.483 6.770 12.437
499 42 11 +0.06 1.315 9.281 16.171
500 42 11 +0.06 1.560 10.966 15.651
501 42 11 +0.06 -0.004 10.465 16.336
502 42 11 +0.06 0.111 6.558 11.434
503 42 11 +0.06 1.560 6.608 12.466
504 42 11 +0.06 -0.004 6.107 13.152
505 43 9 +0.52 11.167 16.070 6.670
506 43 20 -0.50 11.265 15.069 7.326
507 43 19 -0.35 12.277 16.642 6.133
508 43 19 -0.35 9.945 16.631 6.465
509 43 1 +0.22 13.516 15.981 6.404
510 43 1 +0.22 8.837 15.958 7.068
511 43 11 +0.06 13.332 15.100 7.018
512 43 11 +0.06 13.979 15.678 5.464
513 43 11 +0.06 14.183 16.662 6.934
514 43 11 +0.06 7.916 16.495 6.837
515 43 11 +0.06 8.772 14.942 6.679
516 43 11 +0.06 8.976 15.926 8.149
517 44 9 +0.52 1.433 4.117 4.060
518 44 20 -0.50 2.354 4.860 3.863
519 44 19 -0.35 0.574 3.815 3.049
520 44 19 -0.35 1.247 3.577 5.295
521 44 1 +0.22 0.850 4.431 1.788
522 44 1 +0.22 2.199 3.953 6.293
523 44 11 +0.06 1.738 5.056 1.875
524 44 11 +0.06 1.022 3.659 1.037
525 44 11 +0.06 0.001 5.045 1.490
526 44 11 +0.06 1.951 3.462 7.235
527 44 11 +0.06 3.197 3.648 5.977
528 44 11 +0.06 2.176 5.034 6.430
529 45 9 +0.52 5.777 11.268 15.766
530 45 20 -0.50 6.863 11.778 15.799
531 45 19 -0.35 4.815 11.771 14.947
532 45 19 -0.35 5.509 10.188 16.548
533 45 1 +0.22 5.189 12.907 14.164
534 45 1 +0.22 6.582 9.732 17.375
535 45 11 +0.06 6.224 13.172 14.378
536 45 11 +0.06 5.088 12.668 13.105
537 45 11 +0.06 4.540 13.748 14.410
538 45 11 +0.06 6.253 8.867 17.953
539 45 11 +0.06 7.429 9.449 16.750
540 45 11 +0.06 6.882 10.529 18.055
541 46 9 +0.52 10.488 3.051 1.234
542 46 20 -0.50 10.894 4.179 1.175
543 46 19 -0.35 9.313 2.551 0.605
544 46 19 -0.35 11.097 1.979 1.946
545 46 2 +0.22 9.195 1.169 0.928
546 46 2 +0.22 10.298 0.816 1.757
547 46 11 +0.06 8.294 1.056 1.530
548 46 11 +0.06 9.303 0.612 -0.002
549 46 11 +0.06 9.892 0.544 2.731
550 46 11 +0.06 10.901 0.100 1.198
551 47 9 +0.52 10.612 10.097 7.610
552 47 20 -0.50 9.766 9.317 7.951
553 47 19 -0.35 10.490 11.515 7.605
554 47 19 -0.35 11.915 9.765 7.140
555 47 2 +0.22 11.717 12.061 7.132
556 47 2 +0.22 12.598 10.979 6.845
557 47 11 +0.06 11.503 12.559 6.186
558 47 11 +0.06 12.158 12.622 7.956
559 47 11 +0.06 12.779 10.991 5.770
560 47 11 +0.06 13.434 11.054 7.540
561 48 9 +0.52 18.034 16.251 19.122
562 48 20 -0.50 18.076 15.434 20.000
563 48 19 -0.35 17.879 17.656 19.293
564 48 19 -0.35 18.130 15.985 17.726
565 48 2 +0.22 17.879 18.259 18.003
566 48 2 +0.22 18.034 17.226 17.035
567 48 11 +0.06 16.891 18.693 17.852
568 48 11 +0.06 18.767 18.889 17.943
569 48 11 +0.06 17.116 17.196 16.448
570 48 11 +0.06 18.991 17.392 16.540
571 49 9 +0.52 14.387 5.358 5.002
572 49 20 -0.50 14.662 4.659 4.066
573 49 19 -0.35 14.914 6.656 5.261
574 49 19 -0.35 13.478 5.036 6.049
575 49 2 +0.22 14.330 7.135 6.467
576 49 2 +0.22 13.442 6.134 6.955
577 49 11 +0.06 15.134 7.233 7.196
578 49 11 +0.06 13.722 8.002 6.207
579 49 11 +0.06 13.848 5.781 7.903
580 49 11 +0.06 12.436 6.551 6.914
581 50 9 +0.52 5.381 10.208 0.961
582 50 20 -0.50 4.672 11.152 0.744
583 50 19 -0.35 5.998 9.894 2.206
584 50 19 -0.35 5.753 9.206 0.020
585 50 2 +0.22 6.752 8.699 2.034
586 50 2 +0.22 6.600 8.274 0.683
587 50 11 +0.06 7.801 8.959 2.171
588 50 11 +0.06 6.292 7.937 2.663
589 50 11 +0.06 7.582 8.343 0.214
590 50 11 +0.06 6.072 7.320 0.705
591 51 9 +0.52 13.139 7.608 13.115
592 51 20 -0.50 12.005 7.218 13.046
593 51 19 -0.35 14.005 7.860 12.013
594 51 19 -0.35 13.853 7.898 14.312
595 51 2 +0.22 15.254 8.307 12.529
596 51 2 +0.22 15.160 8.330 13.950
597 51 11 +0.06 15.996 7.551 12.270
598 51 11 +0.06 15.387 9.337 12.200
599 51 11 +0.06 15.860 7.586 14.330
600 51 11 +0.06 15.251 9.371 14.259
601 52 9 +0.52 11.558 12.998 3.631
602 52 20 -0.50 10.801 13.576 4.362
603 52 19 -0.35 11.366 12.767 2.240
604 52 19 -0.35 12.806 12.423 4.005
605 52 2 +0.22 12.495 12.049 1.753
606 52 2 +0.22 13.385 11.836 2.844
607 52 11 +0.06 12.139 11.069 1.435
608 52 11 +0.06 13.007 12.699 1.044
609 52 11 +0.06 13.429 10.761 3.016
610 52 11 +0.06 14.297 12.391 2.625
611 53 9 +0.52 11.636 11.310 18.966
612 53 20 -0.50 10.442 11.268 19.083
613 53 19 -0.35 12.439 12.485 19.009
614 53 19 -0.35 12.497 10.196 18.758
615 53 2 +0.22 13.797 12.096 18.829
616 53 2 +0.22 13.833 10.681 18.674
617 53 11 +0.06 14.132 12.530 17.887
618 53 11 +0.06 14.323 12.330 19.754
619 53 11 +0.06 14.184 10.479 17.662
620 53 11 +0.06 14.375 10.279 19.530
621 54 9 +0.52 3.905 6.955 8.211
622 54 20 -0.50 2.883 6.332 8.299
623 54 19 -0.35 5.161 6.446 7.772
624 54 19 -0.35 4.075 8.333 8.528
625 54 2 +0.22 6.106 7.510 7.817
626 54 2 +0.22 5.435 8.676 8.285
627 54 11 +0.06 6.850 7.245 8.569
628 54 11 +0.06 6.415 7.708 6.791
629 54 11 +0.06 5.878 8.935 9.246
630 54 11 +0.06 5.442 9.398 7.469
631 55 9 +0.52 7.565 1.180 16.239
632 55 20 -0.50 7.349 -0.001 16.241
633 55 19 -0.35 8.848 1.796 16.285
634 55 19 -0.35 6.583 2.210 16.193
635 55 2 +0.22 8.659 3.207 16.266
636 55 2 +0.22 7.260 3.463 16.209
637 55 11 +0.06 9.016 3.591 17.221
638 55 11 +0.06 9.090 3.575 15.335
639 55 11 +0.06 6.988 3.962 17.139
640 55 11 +0.06 7.062 3.947 15.252
641 56 9 +0.52 17.792 16.384 4.638
642 56 20 -0.50 18.177 17.148 5.480
643 56 19 -0.35 16.593 16.510 3.880
644 56 19 -0.35 18.453 15.194 4.222
645 56 2 +0.22 16.513 15.397 2.996
646 56 2 +0.22 17.663 14.583 3.207
647 56 11 +0.06 15.646 14.809 3.297
648 56 11 +0.06 16.581 15.788 1.981
649 56 11 +0.06 17.312 13.631 3.604
650 56 11 +0.06 18.247 14.610 2.287
651 57 9 +0.52 19.626 12.373 15.538
652 57 20 -0.50 20.004 11.367 15.004
653 57 19 -0.35 19.095 12.471 16.856
654 57 19 -0.35 19.628 13.677 14.967
655 57 2 +0.22 18.770 13.836 17.099
656 57 2 +0.22 19.100 14.581 15.931
657 57 11 +0.06 17.689 13.891 17.219
658 57 11 +0.06 19.426 14.185 17.896
659 57 11 +0.06 18.166 14.971 15.526
660 57 11 +0.06 19.904 15.265 16.203
661 58 9 +0.52 7.197 13.836 16.504
662 58 20 -0.50 6.007 13.677 16.508
663 58 19 -0.35 8.154 13.009 17.158
664 58 19 -0.35 7.898 14.886 15.845
665 58 2 +0.22 9.447 13.548 16.903
666 58 2 +0.22 9.289 14.707 16.092
667 58 11 +0.06 9.851 13.879 17.860
668 58 11 +0.06 9.989 12.812 16.308
669 58 11 +0.06 9.622 15.560 16.684
670 58 11 +0.06 9.760 14.493 15.132
671 59 9 +0.52 7.419 6.447 15.830
672 59 20 -0.50 6.782 6.125 16.795
673 59 19 -0.35 7.298 7.675 15.120
674 59 19 -0.35 8.429 5.669 15.196
675 59 2 +0.22 8.233 7.656 14.046
676 59 2 +0.22 8.932 6.416 14.093
677 59 11 +0.06 7.658 7.664 13.120
678 59 11 +0.06 8.962 8.442 14.241
679 59 11 +0.06 8.670 5.867 13.188
680 59 11 +0.06 9.975 6.645 14.310
681 60 9 +0.52 3.112 2.272 13.609
682 60 20 -0.50 2.630 1.264 13.169
683 60 19 -0.35 4.435 2.416 14.113
684 60 19 -0.35 2.459 3.533 13.717
685 60 2 +0.22 4.601 3.767 14.533
686 60 2 +0.22 3.379 4.457 14.288
687 60 11 +0.06 4.748 3.751 15.613
688 60 11 +0.06 5.356 4.213 13.887
689 60 11 +0.06 2.978 4.751 15.258
690 60 11 +0.06 3.586 5.213 13.531
691 61 9 +0.52 4.235 15.952 17.430
692 61 20 -0.50 5.250 16.022 16.793
693 61 19 -0.35 3.081 16.768 17.258
694 61 19 -0.35 3.974 15.039 18.491
695 61 2 +0.22 2.107 16.359 18.212
696 61 2 +0.22 2.659 15.290 18.975
697 61 11 +0.06 1.957 17.195 18.895
698 61 11 +0.06 1.263 15.952 17.655
699 61 11 +0.06 2.757 15.646 20.000
700 61 11 +0.06 2.064 14.403 18.760
701 62 9 +0.52 14.059 17.037 15.462
702 62 20 -0.50 14.602 16.465 14.557
703 62 19 -0.35 12.884 16.603 16.140
704 62 19 -0.35 14.476 18.266 16.046
705 62 2 +0.22 12.575 17.565 17.143
706 62 2 +0.22 13.558 18.593 17.085
707 62 11 +0.06 11.622 18.018 16.870
708 62 11 +0.06 12.686 17.070 18.108
709 62 11 +0.06 13.048 19.508 16.786
710 62 11 +0.06 14.112 18.560 18.024
711 63 9 +0.52 12.199 17.030 9.038
712 63 20 -0.50 12.855 16.029 8.954
713 63 19 -0.35 10.777 17.102 9.029
714 63 19 -0.35 12.705 18.355 9.165
715 63 2 +0.22 10.405 18.471 9.150
716 63 2 +0.22 11.596 19.245 9.234
717 63 11 +0.06 9.906 18.750 8.222
718 63 11 +0.06 9.885 18.579 10.102
719 63 11 +0.06 11.633 19.873 8.344
720 63 11 +0.06 11.613 19.701 10.224
721 64 9 +0.52 1.677 15.469 14.324
722 64 20 -0.50 0.936 14.526 14.369
723 64 19 -0.35 3.091 15.416 14.170
724 64 19 -0.35 1.295 16.838 14.413
725 64 2 +0.22 3.584 16.752 14.165
726 64 2 +0.22 2.473 17.631 14.315
727 64 11 +0.06 4.206 16.868 15.052
728 64 11 +0.06 4.005 16.934 13.176
729 64 11 +0.06 2.596 18.142 15.270
730 64 11 +0.06 2.396 18.208 13.394
731 65 31 1.0 9.595 4.236 5.097
732 66 31 1.0 10.890 8.001 6.325
733 67 31 1.0 14.567 5.816 14.153
734 68 31 1.0 11.798 0.941 3.754
735 69 31 1.0 18.945 7.903 0.000
736 70 27 +1.34 2.793 8.345 1.453
737 70 26 -0.39 2.872 6.789 1.131
738 70 26 -0.39 2.714 9.900 1.774
739 70 26 -0.39 1.439 8.447 0.626
740 70 26 -0.39 4.147 8.242 2.279
741 70 26 -0.39 3.622 8.659 0.133
742 70 26 -0.39 1.964 8.030 2.772
743 71 27 +1.34 9.156 11.407 1.159
744 71 26 -0.39 10.133 10.947 2.327
745 71 26 -0.39 8.180 11.866 -0.008
746 71 26 -0.39 9.068 9.906 0.642
747 71 26 -0.39 9.245 12.908 1.676
748 71 26 -0.39 10.408 11.659 0.212
749 71 26 -0.39 7.905 11.154 2.107
750 72 27 +1.34 1.492 12.887 3.943
751 72 26 -0.39 1.378 11.358 3.522
752 72 26 -0.39 1.606 14.416 4.365
753 72 26 -0.39 0.014 13.143 3.417
754 72 26 -0.39 2.970 12.632 4.470
755 72 26 -0.39 2.066 13.242 2.504
756 72 26 -0.39 0.918 12.533 5.383
757 73 27 +1.34 6.500 18.145 1.408
758 73 26 -0.39 7.191 17.899 2.818
759 73 26 -0.39 5.809 18.391 -0.003
760 73 26 -0.39 5.303 17.186 1.827
761 73 26 -0.39 7.697 19.104 0.988
762 73 26 -0.39 7.286 16.900 0.805
763 73 26 -0.39 5.714 19.389 2.010
764 74 27 +1.34 17.356 1.722 1.264
765 74 26 -0.39 17.233 0.581 0.163
766 74 26 -0.39 17.478 2.862 2.364
767 74 26 -0.39 18.591 0.961 1.914
768 74 26 -0.39 16.120 2.482 0.614
769 74 26 -0.39 16.363 0.916 2.209
770 74 26 -0.39 18.348 2.527 0.318

Bonds

1 8 1 2
2 7 1 3
3 7 1 4
4 7 3 5
5 7 4 6
6 4 5 7
7 4 5 8
8 4 5 9
9 4 6 10
10 4 6 11
11 4 6 12
12 8 13 14
13 7 13 15
14 7 13 16
15 7 15 17
16 7 16 18
17 4 17 19
18 4 17 20
19 4 17 21
20 4 18 22
21 4 18 23
22 4 18 24
23 8 25 26
24 7 25 27
25 7 25 28
26 7 27 29
27 7 28 30
28 4 29 31
29 4 29 32
30 4 29 33
31 4 30 34
32 4 30 35
33 4 30 36
34 8 37 38
35 7 37 39
36 7 37 40
37 7 39 41
38 7 40 42
39 4 41 43
40 4 41 44
41 4 41 45
42 4 42 46
43 4 42 47
44 4 42 48
45 8 49 50
46 7 49 51
47 7 49 52
48 7 51 53
49 7 52 54
50 4 53 55
51 4 53 56
52 4 53 57
53 4 54 58
54 4 54 59
55 4 54 60
56 8 61 62
57 7 61 63
58 7 61 64
59 7 63 65
60 7 64 66
61 4 65 67
62 4 65 68
63 4 65 69
64 4 66 70
65 4 66 71
66 4 66 72
67 8 73 74
68 7 73 75
69 7 73 76
70 7 75 77
71 7 76 78
72 4 77 79
73 4 77 80
74 4 77 81
75 4 78 82
76 4 78 83
77 4 78 84
78 8 85 86
79 7 85 87
80 7 85 88
81 7 87 89
82 7 88 90
83 4 89 91
84 4 89 92
85 4 89 93
86 4 90 94
87 4 90 95
88 4 90 96
89 8 97 98
90 7 97 99
91 7 97 100
92 7 99 101
93 7 100 102
94 4 101 103
95 4 101 104
96 4 101 105
97 4 102 106
98 4 102 107
99 4 102 108
100 8 109 110
101 7 109 111
102 7 109 112
103 7 111 113
104 7 112 114
105 4 113 115
106 4 113 116
107 4 113 117
108 4 114 118
109 4 114 119
110 4 114 120
111 8 121 122
112 7 121 123
113 7 121 124
114 7 123 125
115 7 124 126
116 4 125 127
117 4 125 128
118 4 125 129
119 4 126 130
120 4 126 131
121 4 126 132
122 8 133 134
123 7 133 135
124 7 133 136
125 7 135 137
126 7 136 138
127 4 137 139
128 4 137 140
129 4 137 141
130 4 138 142
131 4 138 143
132 4 138 144
133 8 145 146
134 7 145 147
135 7 145 148
136 7 147 149
137 7 148 150
138 4 149 151
139 4 149 152
140 4 149 153
141 4 150 154
142 4 150 155
143 4 150 156
144 8 157 158
145 7 157 159
146 7 157 160
147 7 159 161
148 7 160 162
149 4 161 163
150 4 161 164
151 4 161 165
152 4 162 166
153 4 162 167
154 4 162 168
155 8 169 170
156 7 169 171
157 7 169 172
158 7 171 173
159 7 172 174
160 4 173 175
161 4 173 176
162 4 173 177
163 4 174 178
164 4 174 179
165 4 174 180
166 8 181 182
167 7 181 183
168 7 181 184
169 7 183 185
170 7 184 186
171 4 185 187
172 4 185 188
173 4 185 189
174 4 186 190
175 4 186 191
176 4 186 192
177 8 193 194
178 7 193 195
179 7 193 196
180 7 195 197
181 7 196 198
182 4 197 199
183 4 197 200
184 4 197 201
185 4 198 202
186 4 198 203
187 4 198 204
188 8 205 206
189 7 205 207
190 7 205 208
191 7 207 209
192 7 208 210
193 4 209 211
194 4 209 212
195 4 209 213
196 4 210 214
197 4 210 215
198 4 210 216
199 8 217 218
200 7 217 219
201 7 217 220
202 7 219 221
203 7 220 222
204 4 221 223
205 4 221 224
206 4 221 225
207 4 222 226
208 4 222 227
209 4 222 228
210 8 229 230
211 7 229 231
212 7 229 232
213 7 231 233
214 7 232 234
215 4 233 235
216 4 233 236
217 4 233 237
218 4 234 238
219 4 234 239
220 4 234 240
221 8 241 242
222 7 241 243
223 7 241 244
224 7 243 245
225 7 244 246
226 4 245 247
227 4 245 248
228 4 245 249
229 4 246 250
230 4 246 251
231 4 246 252
232 8 253 254
233 7 253 255
234 7 253 256
235 7 255 257
236 7 256 258
237 4 257 259
238 4 257 260
239 4 257 261
240 4 258 262
241 4 258 263
242 4 258 264
243 8 265 266
244 7 265 267
245 7 265 268
246 7 267 269
247 7 268 270
248 4 269 271
249 4 269 272
250 4 269 273
251 4 270 274
252 4 270 275
253 4 270 276
254 8 277 278
255 7 277 279
256 7 277 280
257 7 279 281
258 7 280 282
259 4 281 283
260 4 281 284
261 4 281 285
262 4 282 286
263 4 282 287
264 4 282 288
265 8 289 290
266 7 289 291
267 7 289 292
268 7 291 293
269 7 292 294
270 4 293 295
271 4 293 296
272 4 293 297
273 4 294 298
274 4 294 299
275 4 294 300
276 8 301 302
277 7 301 303
278 7 301 304
279 7 303 305
280 7 304 306
281 4 305 307
282 4 305 308
283 4 305 309
284 4 306 310
285 4 306 311
286 4 306 312
287 8 313 314
288 7 313 315
289 7 313 316
290 7 315 317
291 7 316 318
292 4 317 319
293 4 317 320
294 4 317 321
295 4 318 322
296 4 318 323
297 4 318 324
298 8 325 326
299 7 325 327
300 7 325 328
301 7 327 329
302 7 328 330
303 4 329 331
304 4 329 332
305 4 329 333
306 4 330 334
307 4 330 335
308 4 330 336
309 8 337 338
310 7 337 339
311 7 337 340
312 7 339 341
313 7 340 342
314 4 341 343
315 4 341 344
316 4 341 345
317 4 342 346
318 4 342 347
319 4 342 348
320 8 349 350
321 7 349 351
322 7 349 352
323 7 351 353
324 7 352 354
325 4 353 355
326 4 353 356
327 4 353 357
328 4 354 358
329 4 354 359
330 4 354 360
331 8 361 362
332 7 361 363
333 7 361 364
334 7 363 365
335 7 364 366
336 4 365 367
337 4 365 368
338 4 365 369
339 4 366 370
340 4 366 371
341 4 366 372
342 8 373 374
343 7 373 375
344 7 373 376
345 7 375 377
346 7 376 378
347 4 377 379
348 4 377 380
349 4 377 381
350 4 378 382
351 4 378 383
352 4 378 384
353 8 385 386
354 7 385 387
355 7 385 388
356 7 387 389
357 7 388 390
358 4 389 391
359 4 389 392
360 4 389 393
361 4 390 394
362 4 390 395
363 4 390 396
364 8 397 398
365 7 397 399
366 7 397 400
367 7 399 401
368 7 400 402
369 4 401 403
370 4 401 404
371 4 401 405
372 4 402 406
373 4 402 407
374 4 402 408
375 8 409 410
376 7 409 411
377 7 409 412
378 7 411 413
379 7 412 414
380 4 413 415
381 4 413 416
382 4 413 417
383 4 414 418
384 4 414 419
385 4 414 420
386 8 421 422
387 7 421 423
388 7 421 424
389 7 423 425
390 7 424 426
391 4 425 427
392 4 425 428
393 4 425 429
394 4 426 430
395 4 426 431
396 4 426 432
397 8 433 434
398 7 433 435
399 7 433 436
400 7 435 437
401 7 436 438
402 4 437 439
403 4 437 440
404 4 437 441
405 4 438 442
406 4 438 443
407 4 438 444
408 8 445 446
409 7 445 447
410 7 445 448
411 7 447 449
412 7 448 450
413 4 449 451
414 4 449 452
415 4 449 453
416 4 450 454
417 4 450 455
418 4 450 456
419 8 457 458
420 7 457 459
421 7 457 460
422 7 459 461
423 7 460 462
424 4 461 463
425 4 461 464
426 4 461 465
427 4 462 466
428 4 462 467
429 4 462 468
430 8 469 470
431 7 469 471
432 7 469 472
433 7 471 473
434 7 472 474
435 4 473 475
436 4 473 476
437 4 473 477
438 4 474 478
439 4 474 479
440 4 474 480
441 8 481 482
442 7 481 483
443 7 481 484
444 7 483 485
445 7 484 486
446 4 485 487
447 4 485 488
448 4 485 489
449 4 486 490
450 4 486 491
451 4 486 492
452 8 493 494
453 7 493 495
454 7 493 496
455 7 495 497
456 7 496 498
457 4 497 499
458 4 497 500
459 4 497 501
460 4 498 502
461 4 498 503
462 4 498 504
463 8 505 506
464 7 505 507
465 7 505 508
466 7 507 509
467 7 508 510
468 4 509 511
469 4 509 512
470 4 509 513
471 4 510 514
472 4 510 515
473 4 510 516
474 8 517 518
475 7 517 519
476 7 517 520
477 7 519 521
478 7 520 522
479 4 521 523
480 4 521 524
481 4 521 525
482 4 522 526
483 4 522 527
484 4 522 528
485 8 529 530
486 7 529 531
487 7 529 532
488 7 531 533
489 7 532 534
490 4 533 535
491 4 533 536
492 4 533 537
493 4 534 538
494 4 534 539
495 4 534 540
496 8 541 542
497 7 541 543
498 7 541 544
499 7 543 546
500 7 544 545
501 1 545 546
502 4 546 547
503 4 546 548
504 4 545 549
505 4 545 550
506 8 551 552
507 7 551 553
508 7 551 554
509 7 553 556
510 7 554 555
511 1 555 556
512 4 556 557
513 4 556 558
514 4 555 559
515 4 555 560
516 8 561 562
517 7 561 563
518 7 561 564
519 7 563 566
520 7 564 565
521 1 565 566
522 4 566 567
523 4 566 568
524 4 565 569
525 4 565 570
526 8 571 572
527 7 571 573
528 7 571 574
529 7 573 576
530 7 574 575
531 1 575 576
532 4 576 577
533 4 576 578
534 4 575 579
535 4 575 580
536 8 581 582
537 7 581 583
538 7 581 584
539 7 583 586
540 7 584 585
541 1 585 586
542 4 586 587
543 4 586 588
544 4 585 589
545 4 585 590
546 8 591 592
547 7 591 593
548 7 591 594
549 7 593 596
550 7 594 595
551 1 595 596
552 4 596 597
553 4 596 598
554 4 595 599
555 4 595 600
556 8 601 602
557 7 601 603
558 7 601 604
559 7 603 606
560 7 604 605
561 1 605 606
562 4 606 607
563 4 606 608
564 4 605 609
565 4 605 610
566 8 611 612
567 7 611 613
568 7 611 614
569 7 613 616
570 7 614 615
571 1 615 616
572 4 616 617
573 4 616 618
574 4 615 619
575 4 615 620
576 8 621 622
577 7 621 623
578 7 621 624
579 7 623 626
580 7 624 625
581 1 625 626
582 4 626 627
583 4 626 628
584 4 625 629
585 4 625 630
586 8 631 632
587 7 631 633
588 7 631 634
589 7 633 636
590 7 634 635
591 1 635 636
592 4 636 637
593 4 636 638
594 4 635 639
595 4 635 640
596 8 641 642
597 7 641 643
598 7 641 644
599 7 643 646
600 7 644 645
601 1 645 646
602 4 646 647
603 4 646 648
604 4 645 649
605 4 645 650
606 8 651 652
607 7 651 653
608 7 651 654
609 7 653 656
610 7 654 655
611 1 655 656
612 4 656 657
613 4 656 658
614 4 655 659
615 4 655 660
616 8 661 662
617 7 661 663
618 7 661 664
619 7 663 666
620 7 664 665
621 1 665 666
622 4 666 667
623 4 666 668
624 4 665 669
625 4 665 670
626 8 671 672
627 7 671 673
628 7 671 674
629 7 673 676
630 7 674 675
631 1 675 676
632 4 676 677
633 4 676 678
634 4 675 679
635 4 675 680
636 8 681 682
637 7 681 683
638 7 681 684
639 7 683 686
640 7 684 685
641 1 685 686
642 4 686 687
643 4 686 688
644 4 685 689
645 4 685 690
646 8 691 692
647 7 691 693
648 7 691 694
649 7 693 696
650 7 694 695
651 1 695 696
652 4 696 697
653 4 696 698
654 4 695 699
655 4 695 700
656 8 701 702
657 7 701 703
658 7 701 704
659 7 703 706
660 7 704 705
661 1 705 706
662 4 706 707
663 4 706 708
664 4 705 709
665 4 705 710
666 8 711 712
667 7 711 713
668 7 711 714
669 7 713 716
670 7 714 715
671 1 715 716
672 4 716 717
673 4 716 718
674 4 715 719
675 4 715 720
676 8 721 722
677 7 721 723
678 7 721 724
679 7 723 726
680 7 724 725
681 1 725 726
682 4 726 727
683 4 726 728
684 4 725 729
685 4 725 730
686 15 736 737
687 15 736 738
688 15 736 739
689 15 736 740
690 15 736 741
691 15 736 742
692 15 743 744
693 15 743 745
694 15 743 746
695 15 743 747
696 15 743 748
697 15 743 749
698 15 750 751
699 15 750 752
700 15 750 753
701 15 750 754
702 15 750 755
703 15 750 756
704 15 757 758
705 15 757 759
706 15 757 760
707 15 757 761
708 15 757 762
709 15 757 763
710 15 764 765
711 15 764 766
712 15 764 767
713 15 764 768
714 15 764 769
715 15 764 770

Angles

1 11 2 1 3
2 11 2 1 4
3 12 3 1 4
4 9 1 3 5
5 9 1 4 6
6 4 3 5 7
7 4 3 5 8
8 4 3 5 9
9 4 4 6 10
10 4 4 6 11
11 4 4 6 12
12 7 7 5 8
13 7 7 5 9
14 7 8 5 9
15 7 10 6 11
16 7 10 6 12
17 7 11 6 12
18 11 14 13 15
19 11 14 13 16
20 12 15 13 16
21 9 13 15 17
22 9 13 16 18
23 4 15 17 19
24 4 15 17 20
25 4 15 17 21
26 4 16 18 22
27 4 16 18 23
28 4 16 18 24
29 7 19 17 20
30 7 19 17 21
31 7 20 17 21
32 7 22 18 23
33 7 22 18 24
34 7 23 18 24
35 11 26 25 27
36 11 26 25 28
37 12 27 25 28
38 9 25 27 29
39 9 25 28 30
40 4 27 29 31
41 4 27 29 32
42 4 27 29 33
43 4 28 30 34
44 4 28 30 35
45 4 28 30 36
46 7 31 29 32
47 7 31 29 33
48 7 32 29 33
49 7 34 30 35
50 7 34 30 36
51 7 35 30 36
52 11 38 37 39
53 11 38 37 40
54 12 39 37 40
55 9 37 39 41
56 9 37 40 42
57 4 39 41 43
58 4 39 41 44
59 4 39 41 45
60 4 40 42 46
61 4 40 42 47
62 4 40 42 48
63 7 43 41 44
64 7 43 41 45
65 7 44 41 45
66 7 46 42 47
67 7 46 42 48
68 7 47 42 48
69 11 50 49 51
70 11 50 49 52
71 12 51 49 52
72 9 49 51 53
73 9 49 52 54
74 4 51 53 55
75 4 51 53 56
76 4 51 53 57
77 4 52 54 58
78 4 52 54 59
79 4 52 54 60
80 7 55 53 56
81 7 55 53 57
82 7 56 53 57
83 7 58 54 59
84 7 58 54 60
85 7 59 54 60
86 11 62 61 63
87 11 62 61 64
88 12 63 61 64
89 9 61 63 65
90 9 61 64 66
91 4 63 65 67
92 4 63 65 68
93 4 63 65 69
94 4 64 66 70
95 4 64 66 71
96 4 64 66 72
97 7 67 65 68
98 7 67 65 69
99 7 68 65 69
100 7 70 66 71
101 7 70 66 72
102 7 71 66 72
103 11 74 73 75
104 11 74 73 76
105 12 75 73 76
106 9 73 75 77
107 9 73 76 78
108 4 75 77 79
109 4 75 77 80
110 4 75 77 81
111 4 76 78 82
112 4 76 78 83
113 4 76 78 84
114 7 79 77 80
115 7 79 77 81
116 7 80 77 81
117 7 82 78 83
118 7 82 78 84
119 7 83 78 84
120 11 86 85 87
121 11 86 85 88
122 12 87 85 88
123 9 85 87 89
124 9 85 88 90
125 4 87 89 91
126 4 87 89 92
127 4 87 89 93
128 4 88 90 94
129 4 88 90 95
130 4 88 90 96
131 7 91 89 92
132 7 91 89 93
133 7 92 89 93
134 7 94 90 95
135 7 94 90 96
136 7 95 90 96
137 11 98 97 99
138 11 98 97 100
139 12 99 97 100
140 9 97 99 101
141 9 97 100 102
142 4 99 101 103
143 4 99 101 104
144 4 99 101 105
145 4 100 102 106
146 4 100 102 107
147 4 100 102 108
148 7 103 101 104
149 7 103 101 105
150 7 104 101 105
151 7 106 102 107
152 7 106 102 108
153 7 107 102 108
154 11 110 109 111
155 11 110 109 112
156 12 111 109 112
157 9 109 111 113
158 9 109 112 114
159 4 111 113 115
160 4 111 113 116
161 4 111 113 117
162 4 112 114 118
163 4 112 114 119
164 4 112 114 120
165 7 115 113 116
166 7 115 113 117
167 7 116 113 117
168 7 118 114 119
169 7 118 114 120
170 7 119 114 120
171 11 122 121 123
172 11 122 121 124
173 12 123 121 124
174 9 121 123 125
175 9 121 124 126
176 4 123 125 127
177 4 123 125 128
178 4 123 125 129
179 4 124 126 130
180 4 124 126 131
181 4 124 126 132
182 7 127 125 128
183 7 127 125 129
184 7 128 125 129
185 7 130 126 131
186 7 130 126 132
187 7 131 126 132
188 11 134 133 135
189 11 134 133 136
190 12 135 133 136
191 9 133 135 137
192 9 133 136 138
193 4 135 137 139
194 4 135 137 140
195 4 135 137 141
196 4 136 138 142
197 4 136 138 143
198 4 136 138 144
199 7 139 137 140
200 7 139 137 141
201 7 140 137 141
202 7 142 138 143
203 7 142 138 144
204 7 143 138 144
205 11 146 145 147
206 11 146 145 148
207 12 147 145 148
208 9 145 147 149
209 9 145 148 150
210 4 147 149 151
211 4 147 149 152
212 4 147 149 153
213 4 148 150 154
214 4 148 150 155
215 4 148 150 156
216 7 151 149 152
217 7 151 149 153
218 7 152 149 153
219 7 154 150 155
220 7 154 150 156
221 7 155 150 156
222 11 158 157 159
223 11 158 157 160
224 12 159 157 160
225 9 157 159 161
226 9 157 160 162
227 4 159 161 163
228 4 159 161 164
229 4 159 161 165
230 4 160 162 166
231 4 160 162 167
232 4 160 162 168
233 7 163 161 164
234 7 163 161 165
235 7 164 161 165
236 7 166 162 167
237 7 166 162 168
238 7 167 162 168
239 11 170 169 171
240 11 170 169 172
241 12 171 169 172
242 9 169 171 173
243 9 169 172 174
244 4 171 173 175
245 4 171 173 176
246 4 171 173 177
247 4 172 174 178
248 4 172 174 179
249 4 172 174 180
250 7 175 173 176
251 7 175 173 177
252 7 176 173 177
253 7 178 174 179
254 7 178 174 180
255 7 179 174 180
256 11 182 181 183
257 11 182 181 184
258 12 183 181 184
259 9 181 183 185
260 9 181 184 186
261 4 183 185 187
262 4 183 185 188
263 4 183 185 189
264 4 184 186 190
265 4 184 186 191
266 4 184 186 192
267 7 187 185 188
268 7 187 185 189
269 7 188 185 189
270 7 190 186 191
271 7 190 186 192
272 7 191 186 192
273 11 194 193 195
274 11 194 193 196
275 12 195 193 196
276 9 193 195 197
277 9 193 196 198
278 4 195 197 199
279 4 195 197 200
280 4 195 197 201
281 4 196 198 202
282 4 196 198 203
283 4 196 198 204
284 7 199 197 200
285 7 199 197 201
286 7 200 197 201
287 7 202 198 203
288 7 202 198 204
289 7 203 198 204
290 11 206 205 207
291 11 206 205 208
292 12 207 205 208
293 9 205 207 209
294 9 205 208 210
295 4 207 209 211
296 4 207 209 212
297 4 207 209 213
298 4 208 210 214
299 4 208 210 215
300 4 208 210 216
301 7 211 209 212
302 7 211 209 213
303 7 212 209 213
304 7 214 210 215
305 7 214 210 216
306 7 215 210 216
307 11 218 217 219
308 11 218 217 220
309 12 219 217 220
310 9 217 219 221
311 9 217 220 222
312 4 219 221 223
313 4 219 221 224
314 4 219 221 225
315 4 220 222 226
316 4 220 222 227
317 4 220 222 228
318 7 223 221 224
319 7 223 221 225
320 7 224 221 225
321 7 226 222 227
322 7 226 222 228
323 7 227 222 228
324 11 230 229 231
325 11 230 229 232
326 12 231 229 232
327 9 229 231 233
328 9 229 232 234
329 4 231 233 235
330 4 231 233 236
331 4 231 233 237
332 4 232 234 238
333 4 232 234 239
334 4 232 234 240
335 7 235 233 236
336 7 235 233 237
337 7 236 233 237
338 7 238 234 239
339 7 238 234 240
340 7 239 234 240
341 11 242 241 243
342 11 242 241 244
343 12 243 241 244
344 9 241 243 245
345 9 241 244 246
346 4 243 245 247
347 4 243 245 248
348 4 243 245 249
349 4 244 246 250
350 4 244 246 251
351 4 244 246 252
352 7 247 245 248
353 7 247 245 249
354 7 248 245 249
355 7 250 246 251
356 7 250 246 252
357 7 251 246 252
358 11 254 253 255
359 11 254 253 256
360 12 255 253 256
361 9 253 255 257
362 9 253 256 258
363 4 255 257 259
364 4 255 257 260
365 4 255 257 261
366 4 256 258 262
367 4 256 258 263
368 4 256 258 264
369 7 259 257 260
370 7 259 257 261
371 7 260 257 261
372 7 262 258 263
373 7 262 258 264
374 7 263 258 264
375 11 266 265 267
376 11 266 265 268
377 12 267 265 268
378 9 265 267 269
379 9 265 268 270
380 4 267 269 271
381 4 267 269 272
382 4 267 269 273
383 4 268 270 274
384 4 268 270 275
385 4 268 270 276
386 7 271 269 272
387 7 271 269 273
388 7 272 269 273
389 7 274 270 275
390 7 274 270 276
391 7 275 270 276
392 11 278 277 279
393 11 278 277 280
394 12 279 277 280
395 9 277 279 281
396 9 277 280 282
397 4 279 281 283
398 4 279 281 284
399 4 279 281 285
400 4 280 282 286
401 4 280 282 287
402 4 280 282 288
403 7 283 281 284
404 7 283 281 285
405 7 284 281 285
406 7 286 282 287
407 7 286 282 288
408 7 287 282 288
409 11 290 289 291
410 11 290 289 292
411 12 291 289 292
412 9 289 291 293
413 9 289 292 294
414 4 291 293 295
415 4 291 293 296
416 4 291 293 297
417 4 292 294 298
418 4 292 294 299
419 4 292 294 300
420 7 295 293 296
421 7 295 293 297
422 7 296 293 297
423 7 298 294 299
424 7 298 294 300
425 7 299 294 300
426 11 302 301 303
427 11 302 301 304
428 12 303 301 304
429 9 301 303 305
430 9 301 304 306
431 4 303 305 307
432 4 303 305 308
433 4 303 305 309
434 4 304 306 310
435 4 304 306 311
436 4 304 306 312
437 7 307 305 308
438 7 307 305 309
439 7 308 305 309
440 7 310 306 311
441 7 310 306 312
442 7 311 306 312
443 11 314 313 315
444 11 314 313 316
445 12 315 313 316
446 9 313 315 317
447 9 313 316 318
448 4 315 317 319
449 4 315 317 320
450 4 315 317 321
451 4 316 318 322
452 4 316 318 323
453 4 316 318 324
454 7 319 317 320
455 7 319 317 321
456 7 320 317 321
457 7 322 318 323
458 7 322 318 324
459 7 323 318 324
460 11 326 325 327
461 11 326 325 328
462 12 327 325 328
463 9 325 327 329
464 9 325 328 330
465 4 327 329 331
466 4 327 329 332
467 4 327 329 333
468 4 328 330 334
469 4 328 330 335
470 4 328 330 336
471 7 331 329 332
472 7 331 329 333
473 7 332 329 333
474 7 334 330 335
475 7 334 330 336
476 7 335 330 336
477 11 338 337 339
478 11 338 337 340
479 12 339 337 340
480 9 337 339 341
481 9 337 340 342
482 4 339 341 343
483 4 339 341 344
484 4 339 341 345
485 4 340 342 346
486 4 340 342 347
487 4 340 342 348
488 7 343 341 344
489 7 343 341 345
490 7 344 341 345
491 7 346 342 347
492 7 346 342 348
493 7 347 342 348
494 11 350 349 351
495 11 350 349 352
496 12 351 349 352
497 9 349 351 353
498 9 349 352 354
499 4 351 353 355
500 4 351 353 356
501 4 351 353 357
502 4 352 354 358
503 4 352 354 359
504 4 352 354 360
505 7 355 353 356
506 7 355 353 357
507 7 356 353 357
508 7 358 354 359
509 7 358 354 360
510 7 359 354 360
511 11 362 361 363
512 11 362 361 364
513 12 363 361 364
514 9 361 363 365
515 9 361 364 366
516 4 363 365 367
517 4 363 365 368
518 4 363 365 369
519 4 364 366 370
520 4 364 366 371
521 4 364 366 372
522 7 367 365 368
523 7 367 365 369
524 7 368 365 369
525 7 370 366 371
526 7 370 366 372
527 7 371 366 372
528 11 374 373 375
529 11 374 373 376
530 12 375 373 376
531 9 373 375 377
532 9 373 376 378
533 4 375 377 379
534 4 375 377 380
535 4 375 377 381
536 4 376 378 382
537 4 376 378 383
538 4 376 378 384
539 7 379 377 380
540 7 379 377 381
541 7 380 377 381
542 7 382 378 383
543 7 382 378 384
544 7 383 378 384
545 11 386 385 387
546 11 386 385 388
547 12 387 385 388
548 9 385 387 389
549 9 385 388 390
550 4 387 389 391
551 4 387 389 392
552 4 387 389 393
553 4 388 390 394
554 4 388 390 395
555 4 388 390 396
556 7 391 389 392
557 7 391 389 393
558 7 392 389 393
559 7 394 390 395
560 7 394 390 396
561 7 395 390 396
562 11 398 397 399
563 11 398 397 400
564 12 399 397 400
565 9 397 399 401
566 9 397 400 402
567 4 399 401 403
568 4 399 401 404
569 4 399 401 405
570 4 400 402 406
571 4 400 402 407
572 4 400 402 408
573 7 403 401 404
574 7 403 401 405
575 7 404 401 405
576 7 406 402 407
577 7 406 402 408
578 7 407 402 408
579 11 410 409 411
580 11 410 409 412
581 12 411 409 412
582 9 409 411 413
583 9 409 412 414
584 4 411 413 415
585 4 411 413 416
586 4 411 413 417
587 4 412 414 418
588 4 412 414 419
589 4 412 414 420
590 7 415 413 416
591 7 415 413 417
592 7 416 413 417
593 7 418 414 419
594 7 418 414 420
595 7 419 414 420
596 11 422 421 423
597 11 422 421 424
598 12 423 421 424
599 9 421 423 425
600 9 421 424 426
601 4 423 425 427
602 4 423 425 428
603 4 423 425 429
604 4 424 426 430
605 4 424 426 431
606 4 424 426 432
607 7 427 425 428
608 7 427 425 429
609 7 428 425 429
610 7 430 426 431
611 7 430 426 432
612 7 431 426 432
613 11 434 433 435
614 11 434 433 436
615 12 435 433 436
616 9 433 435 437
617 9 433 436 438
618 4 435 437 439
619 4 435 437 440
620 4 435 437 441
621 4 436 438 442
622 4 436 438 443
623 4 436 438 444
624 7 439 437 440
625 7 439 437 441
626 7 440 437 441
627 7 442 438 443
628 7 442 438 444
629 7 443 438 444
630 11 446 445 447
631 11 446 445 448
632 12 447 445 448
633 9 445 447 449
634 9 445 448 450
635 4 447 449 451
636 4 447 449 452
637 4 447 449 453
638 4 448 450 454
639 4 448 450 455
640 4 448 450 456
641 7 451 449 452
642 7 451 449 453
643 7 452 449 453
644 7 454 450 455
645 7 454 450 456
646 7 455 450 456
647 11 458 457 459
648 11 458 457 460
649 12 459 457 460
650 9 457 459 461
651 9 457 460 462
652 4 459 461 463
653 4 459 461 464
654 4 459 461 465
655 4 460 462 466
656 4 460 462 467
657 4 460 462 468
658 7 463 461 464
659 7 463 461 465
660 7 464 461 465
661 7 466 462 467
662 7 466 462 468
663 7 467 462 468
664 11 470 469 471
665 11 470 469 472
666 12 471 469 472
667 9 469 471 473
668 9 469 472 474
669 4 471 473 475
670 4 471 473 476
671 4 471 473 477
672 4 472 474 478
673 4 472 474 479
674 4 472 474 480
675 7 475 473 476
676 7 475 473 477
677 7 476 473 477
678 7 478 474 479
679 7 478 474 480
680 7 479 474 480
681 11 482 481 483
682 11 482 481 484
683 12 483 481 484
684 9 481 483 485
685 9 481 484 486
686 4 483 485 487
687 4 483 485 488
688 4 483 485 489
689 4 484 486 490
690 4 484 486 491
691 4 484 486 492
692 7 487 485 488
693 7 487 485 489
694 7 488 485 489
695 7 490 486 491
696 7 490 486 492
697 7 491 486 492
698 11 494 493 495
699 11 494 493 496
700 12 495 493 496
701 9 493 495 497
702 9 493 496 498
703 4 495 497 499
704 4 495 497 500
705 4 495 497 501
706 4 496 498 502
707 4 496 498 503
708 4 496 498 504
709 7 499 497 500
710 7 499 497 501
711 7 500 497 501
712 7 502 498 503
713 7 502 498 504
714 7 503 498 504
715 11 506 505 507
716 11 506 505 508
717 12 507 505 508
718 9 505 507 509
719 9 505 508 510
720 4 507 509 511
721 4 507 509 512
722 4 507 509 513
723 4 508 510 514
724 4 508 510 515
725 4 508 510 516
726 7 511 509 512
727 7 511 509 513
728 7 512 509 513
729 7 514 510 515
730 7 514 510 516
731 7 515 510 516
732 11 518 517 519
733 11 518 517 520
734 12 519 517 520
735 9 517 519 521
736 9 517 520 522
737 4 519 521 523
738 4 519 521 524
739 4 519 521 525
740 4 520 522 526
741 4 520 522 527
742 4 520 522 528
743 7 523 521 524
744 7 523 521 525
745 7 524 521 525
746 7 526 522 527
747 7 526 522 528
748 7 527 522 528
749 11 530 529 531
750 11 530 529 532
751 12 531 529 532
752 9 529 531 533
753 9 529 532 534
754 4 531 533 535
755 4 531 533 536
756 4 531 533 537
757 4 532 534 538
758 4 532 534 539
759 4 532 534 540
760 7 535 533 536
761 7 535 533 537
762 7 536 533 537
763 7 538 534 539
764 7 538 534 540
765 7 539 534 540
766 11 542 541 543
767 11 542 541 544
768 12 543 541 544
769 9 541 543 546
770 9 541 544 545
771 13 543 546 545
772 13 544 545 546
773 4 545 546 547
774 4 545 546 548
775 4 546 545 549
776 4 546 545 550
777 6 547 546 548
778 6 549 545 550
779 11 552 551 553
780 11 552 551 554
781 12 553 551 554
782 9 551 553 556
783 9 551 554 555
784 13 553 556 555
785 13 554 555 556
786 4 555 556 557
787 4 555 556 558
788 4 556 555 559
789 4 556 555 560
790 6 557 556 558
791 6 559 555 560
792 11 562 561 563
793 11 562 561 564
794 12 563 561 564
795 9 561 563 566
796 9 561 564 565
797 13 563 566 565
798 13 564 565 566
799 4 565 566 567
800 4 565 566 568
801 4 566 565 569
802 4 566 565 570
803 6 567 566 568
804 6 569 565 570
805 11 572 571 573
806 11 572 571 574
807 12 573 571 574
808 9 571 573 576
809 9 571 574 575
810 13 573 576 575
811 13 574 575 576
812 4 575 576 577
813 4 575 576 578
814 4 576 575 579
815 4 576 575 580
816 6 577 576 578
817 6 579 575 580
818 11 582 581 583
819 11 582 581 584
820 12 583 581 584
821 9 581 583 586
822 9 581 584 585
823 13 583 586 585
824 13 584 585 586
825 4 585 586 587
826 4 585 586 588
827 4 586 585 589
828 4 586 585 590
829 6 587 586 588
830 6 589 585 590
831 11 592 591 593
832 11 592 591 594
833 12 593 591 594
834 9 591 593 596
835 9 591 594 595
836 13 593 596 595
837 13 594 595 596
838 4 595 596 597
839 4 595 596 598
840 4 596 595 599
841 4 596 595 600
842 6 597 596 598
843 6 599 595 600
844 11 602 601 603
845 11 602 601 604
846 12 603 601 604
847 9 601 603 606
848 9 601 604 605
849 13 603 606 605
850 13 604 605 606
851 4 605 606 607
852 4 605 606 608
853 4 606 605 609
854 4 606 605 610
855 6 607 606 608
856 6 609 605 610
857 11 612 611 613
858 11 612 611 614
859 12 613 611 614
860 9 611 613 616
861 9 611 614 615
862 13 613 616 615
863 13 614 615 616
864 4 615 616 617
865 4 615 616 618
866 4 616 615 619
867 4 616 615 620
868 6 617 616 618
869 6 619 615 620
870 11 622 621 623
871 11 622 621 624
872 12 623 621 624
873 9 621 623 626
874 9 621 624 625
875 13 623 626 625
876 13 624 625 626
877 4 625 626 627
878 4 625 626 628
879 4 626 625 629
880 4 626 625 630
881 6 627 626 628
882 6 629 625 630
883 11 632 631 633
884 11 632 631 634
885 12 633 631 634
886 9 631 633 636
887 9 631 634 635
888 13 633 636 635
889 13 634 635 636
890 4 635 636 637
891 4 635 636 638
892 4 636 635 639
893 4 636 635 640
894 6 637 636 638
895 6 639 635 640
896 11 642 641 643
897 11 642 641 644
898 12 643 641 644
899 9 641 643 646
900 9 641 644 645
901 13 643 646 645
902 13 644 645 646
903 4 645 646 647
904 4 645 646 648
905 4 646 645 649
906 4 646 645 650
907 6 647 646 648
908 6 649 645 650
909 11 652 651 653
910 11 652 651 654
911 12 653 651 654
912 9 651 653 656
913 9 651 654 655
914 13 653 656 655
915 13 654 655 656
916 4 655 656 657
917 4 655 656 658
918 4 656 655 659
919 4 656 655 660
920 6 657 656 658
921 6 659 655 660
922 11 662 661 663
923 11 662 661 664
924 12 663 661 664
925 9 661 663 666
926 9 661 664 665
927 13 663 666 665
928 13 664 665 666
929 4 665 666 667
930 4 665 666 668
931 4 666 665 669
932 4 666 665 670
933 6 667 666 668
934 6 669 665 670
935 11 672 671 673
936 11 672 671 674
937 12 673 671 674
938 9 671 673 676
939 9 671 674 675
940 13 673 676 675
941 13 674 675 676
942 4 675 676 677
943 4 675 676 678
944 4 676 675 679
945 4 676 675 680
946 6 677 676 678
947 6 679 675 680
948 11 682 681 683
949 11 682 681 684
950 12 683 681 684
951 9 681 683 686
952 9 681 684 685
953 13 683 686 685
954 13 684 685 686
955 4 685 686 687
956 4 685 686 688
957 4 686 685 689
958 4 686 685 690
959 6 687 686 688
960 6 689 685 690
961 11 692 691 693
962 11 692 691 694
963 12 693 691 694
964 9 691 693 696
965 9 691 694 695
966 13 693 696 695
967 13 694 695 696
968 4 695 696 697
969 4 695 696 698
970 4 696 695 699
971 4 696 695 700
972 6 697 696 698
973 6 699 695 700
974 11 702 701 703
975 11 702 701 704
976 12 703 701 704
977 9 701 703 706
978 9 701 704 705
979 13 703 706 705
980 13 704 705 706
981 4 705 706 707
982 4 705 706 708
983 4 706 705 709
984 4 706 705 710
985 6 707 706 708
986 6 709 705 710
987 11 712 711 713
988 11 712 711 714
989 12 713 711 714
990 9 711 713 716
991 9 711 714 715
992 13 713 716 715
993 13 714 715 716
994 4 715 716 717
995 4 715 716 718
996 4 716 715 719
997 4 716 715 720
998 6 717 716 718
999 6 719 715 720
1000 11 722 721 723
1001 11 722 721 724
1002 12 723 721 724
1003 9 721 723 726
1004 9 721 724 725
1005 13 723 726 725
1006 13 724 725 726
1007 4 725 726 727
1008 4 725 726 728
1009 4 726 725 729
1010 4 726 725 730
1011 6 727 726 728
1012 6 729 725 730
1013 18 737 736 738
1014 18 739 736 740
1015 18 741 736 742
1016 17 737 736 739
1017 17 737 736 740
1018 17 737 736 741
1019 17 737 736 742
1020 17 738 736 739
1021 17 738 736 740
1022 17 738 736 741
1023 17 738 736 742
1024 17 739 736 741
1025 17 739 736 742
1026 17 740 736 741
1027 17 740 736 742
1028 18 744 743 745
1029 18 746 743 747
1030 18 748 743 749
1031 17 744 743 746
1032 17 744 743 747
1033 17 744 743 748
1034 17 744 743 749
1035 17 745 743 746
1036 17 745 743 747
1037 17 745 743 748
1038 17 745 743 749
1039 17 746 743 748
1040 17 746 743 749
1041 17 747 743 748
1042 17 747 743 749
1043 18 751 750 752
1044 18 753 750 754
1045 18 755 750 756
1046 17 751 750 753
1047 17 751 750 754
1048 17 751 750 755
1049 17 751 750 756
1050 17 752 750 753
1051 17 752 750 754
1052 17 752 750 755
1053 17 752 750 756
1054 17 753 750 755
1055 17 753 750 756
1056 17 754 750 755
1057 17 754 750 756
1058 18 758 757 759
1059 18 760 757 761
1060 18 762 757 763
1061 17 758 757 760
1062 17 758 757 761
1063 17 758 757 762
1064 17 758 757 763
1065 17 759 757 760
1066 17 759 757 761
1067 17 759 757 762
1068 17 759 757 763
1069 17 760 757 762
1070 17 760 757 763
1071 17 761 757 762
1072 17 761 757 763
1073 18 765 764 766
1074 18 767 764 768
1075 18 769 764 770
1076 17 765 764 767
1077 17 765 764 768
1078 17 765 764 769
1079 17 765 764 770
1080 17 766 764 767
1081 17 766 764 768
1082 17 766 764 769
1083 17 766 764 770
1084 17 767 764 769
1085 17 767 764 770
1086 17 768 764 769
1087 17 768 764 770

Dihedrals

1 8 2 1 3 5
2 8 2 1 4 6
3 6 1 3 5 7
4 6 1 3 5 8
5 6 1 3 5 9
6 6 1 4 6 10
7 6 1 4 6 11
8 6 1 4 6 12
9 8 14 13 15 17
10 8 14 13 16 18
11 6 13 15 17 19
12 6 13 15 17 20
13 6 13 15 17 21
14 6 13 16 18 22
15 6 13 16 18 23
16 6 13 16 18 24
17 8 26 25 27 29
18 8 26 25 28 30
19 6 25 27 29 31
20 6 25 27 29 32
21 6 25 27 29 33
22 6 25 28 30 34
23 6 25 28 30 35
24 6 25 28 30 36
25 8 38 37 39 41
26 8 38 37 40 42
27 6 37 39 41 43
28 6 37 39 41 44
29 6 37 39 41 45
30 6 37 40 42 46
31 6 37 40 42 47
32 6 37 40 42 48
33 8 50 49 51 53
34 8 50 49 52 54
35 6 49 51 53 55
36 6 49 51 53 56
37 6 49 51 53 57
38 6 49 52 54 58
39 6 49 52 54 59
40 6 49 52 54 60
41 8 62 61 63 65
42 8 62 61 64 66
43 6 61 63 65 67
44 6 61 63 65 68
45 6 61 63 65 69
46 6 61 64 66 70
47 6 61 64 66 71
48 6 61 64 66 72
49 8 74 73 75 77
50 8 74 73 76 78
51 6 73 75 77 79
52 6 73 75 77 80
53 6 73 75 77 81
54 6 73 76 78 82
55 6 73 76 78 83
56 6 73 76 78 84
57 8 86 85 87 89
58 8 86 85 88 90
59 6 85 87 89 91
60 6 85 87 89 92
61 6 85 87 89 93
62 6 85 88 90 94
63 6 85 88 90 95
64 6 85 88 90 96
65 8 98 97 99 101
66 8 98 97 100 102
67 6 97 99 101 103
68 6 97 99 101 104
69 6 97 99 101 105
70 6 97 100 102 106
71 6 97 100 102 107
72 6 97 100 102 108
73 8 110 109 111 113
74 8 110 109 112 114
75 6 109 111 113 115
76 6 109 111 113 116
77 6 109 111 113 117
78 6 109 112 114 118
79 6 109 112 114 119
80 6 109 112 114 120
81 8 122 121 123 125
82 8 122 121 124 126
83 6 121 123 125 127
84 6 121 123 125 128
85 6 121 123 125 129
86 6 121 124 126 130
87 6 121 124 126 131
88 6 121 124 126 132
89 8 134 133 135 137
90 8 134 133 136 138
91 6 133 135 137 139
92 6 133 135 137 140
93 6 133 135 137 141
94 6 133 136 138 142
95 6 133 136 138 143
96 6 133 136 138 144
97 8 146 145 147 149
98 8 146 145 148 150
99 6 145 147 149 151
100 6 145 147 149 152
101 6 145 147 149 153
102 6 145 148 150 154
103 6 145 148 150 155
104 6 145 148 150 156
105 8 158 157 159 161
106 8 158 157 160 162
107 6 157 159 161 163
108 6 157 159 161 164
109 6 157 159 161 165
110 6 157 160 162 166
111 6 157 160 162 167
112 6 157 160 162 168
113 8 170 169 171 173
114 8 170 169 172 174
115 6 169 171 173 175
116 6 169 171 173 176
117 6 169 171 173 177
118 6 169 172 174 178
119 6 169 172 174 179
120 6 169 172 174 180
121 8 182 181 183 185
122 8 182 181 184 186
123 6 181 183 185 187
124 6 181 183 185 188
125 6 181 183 185 189
126 6 181 184 186 190
127 6 181 184 186 191
128 6 181 184 186 192
129 8 194 193 195 197
130 8 194 193 196 198
131 6 193 195 197 199
132 6 193 195 197 200
133 6 193 195 197 201
134 6 193 196 198 202
135 6 193 196 198 203
136 6 193 196 198 204
137 8 206 205 207 209
138 8 206 205 208 210
139 6 205 207 209 211
140 6 205 207 209 212
141 6 205 207 209 213
142 6 205 208 210 214
143 6 205 208 210 215
144 6 205 208 210 216
145 8 218 217 219 221
146 8 218 217 220 222
147 6 217 219 221 223
148 6 217 219 221 224
149 6 217 219 221 225
150 6 217 220 222 226
151 6 217 220 222 227
152 6 217 220 222 228
153 8 230 229 231 233
154 8 230 229 232 234
155 6 229 231 233 235
156 6 229 231 233 236
157 6 229 231 233 237
158 6 229 232 234 238
159 6 229 232 234 239
160 6 229 232 234 240
161 8 242 241 243 245
162 8 242 241 244 246
163 6 241 243 245 247
164 6 241 243 245 248
165 6 241 243 245 249
166 6 241 244 246 250
167 6 241 244 246 251
168 6 241 244 246 252
169 8 254 253 255 257
170 8 254 253 256 258
171 6 253 255 257 259
172 6 253 255 257 260
173 6 253 255 257 261
174 6 253 256 258 262
175 6 253 256 258 263
176 6 253 256 258 264
177 8 266 265 267 269
178 8 266 265 268 270
179 6 265 267 269 271
180 6 265 267 269 272
181 6 265 267 269 273
182 6 265 268 270 274
183 6 265 268 270 275
184 6 265 268 270 276
185 8 278 277 279 281
186 8 278 277 280 282
187 6 277 279 281 283
188 6 277 279 281 284
189 6 277 279 281 285
190 6 277 280 282 286
191 6 277 280 282 287
192 6 277 280 282 288
193 8 290 289 291 293
194 8 290 289 292 294
195 6 289 291 293 295
196 6 289 291 293 296
197 6 289 291 293 297
198 6 289 292 294 298
199 6 289 292 294 299
200 6 289 292 294 300
201 8 302 301 303 305
202 8 302 301 304 306
203 6 301 303 305 307
204 6 301 303 305 308
205 6 301 303 305 309
206 6 301 304 306 310
207 6 301 304 306 311
208 6 301 304 306 312
209 8 314 313 315 317
210 8 314 313 316 318
211 6 313 315 317 319
212 6 313 315 317 320
213 6 313 315 317 321
214 6 313 316 318 322
215 6 313 316 318 323
216 6 313 316 318 324
217 8 326 325 327 329
218 8 326 325 328 330
219 6 325 327 329 331
220 6 325 327 329 332
221 6 325 327 329 333
222 6 325 328 330 334
223 6 325 328 330 335
224 6 325 328 330 336
225 8 338 337 339 341
226 8 338 337 340 342
227 6 337 339 341 343
228 6 337 339 341 344
229 6 337 339 341 345
230 6 337 340 342 346
231 6 337 340 342 347
232 6 337 340 342 348
233 8 350 349 351 353
234 8 350 349 352 354
235 6 349 351 353 355
236 6 349 351 353 356
237 6 349 351 353 357
238 6 349 352 354 358
239 6 349 352 354 359
240 6 349 352 354 360
241 8 362 361 363 365
242 8 362 361 364 366
243 6 361 363 365 367
244 6 361 363 365 368
245 6 361 363 365 369
246 6 361 364 366 370
247 6 361 364 366 371
248 6 361 364 366 372
249 8 374 373 375 377
250 8 374 373 376 378
251 6 373 375 377 379
252 6 373 375 377 380
253 6 373 375 377 381
254 6 373 376 378 382
255 6 373 376 378 383
256 6 373 376 378 384
257 8 386 385 387 389
258 8 386 385 388 390
259 6 385 387 389 391
260 6 385 387 389 392
261 6 385 387 389 393
262 6 385 388 390 394
263 6 385 388 390 395
264 6 385 388 390 396
265 8 398 397 399 401
266 8 398 397 400 402
267 6 397 399 401 403
268 6 397 399 401 404
269 6 397 399 401 405
270 6 397 400 402 406
271 6 397 400 402 407
272 6 397 400 402 408
273 8 410 409 411 413
274 8 410 409 412 414
275 6 409 411 413 415
276 6 409 411 413 416
277 6 409 411 413 417
278 6 409 412 414 418
279 6 409 412 414 419
280 6 409 412 414 420
281 8 422 421 423 425
282 8 422 421 424 426
283 6 421 423 425 427
284 6 421 423 425 428
285 6 421 423 425 429
286 6 421 424 426 430
287 6 421 424 426 431
288 6 421 424 426 432
289 8 434 433 435 437
290 8 434 433 436 438
291 6 433 435 437 439
292 6 433 435 437 440
293 6 433 435 437 441
294 6 433 436 438 442
295 6 433 436 438 443
296 6 433 436 438 444
297 8 446 445 447 449
298 8 446 445 448 450
299 6 445 447 449 451
300 6 445 447 449 452
301 6 445 447 449 453
302 6 445 448 450 454
303 6 445 448 450 455
304 6 445 448 450 456
305 8 458 457 459 461
306 8 458 457 460 462
307 6 457 459 461 463
308 6 457 459 461 464
309 6 457 459 461 465
310 6 457 460 462 466
311 6 457 460 462 467
312 6 457 460 462 468
313 8 470 469 471 473
314 8 470 469 472 474
315 6 469 471 473 475
316 6 469 471 473 476
317 6 469 471 473 477
318 6 469 472 474 478
319 6 469 472 474 479
320 6 469 472 474 480
321 8 482 481 483 485
322 8 482 481 484 486
323 6 481 483 485 487
324 6 481 483 485 488
325 6 481 483 485 489
326 6 481 484 486 490
327 6 481 484 486 491
328 6 481 484 486 492
329 8 494 493 495 497
330 8 494 493 496 498
331 6 493 495 497 499
332 6 493 495 497 500
333 6 493 495 497 501
334 6 493 496 498 502
335 6 493 496 498 503
336 6 493 496 498 504
337 8 506 505 507 509
338 8 506 505 508 510
339 6 505 507 509 511
340 6 505 507 509 512
341 6 505 507 509 513
342 6 505 508 510 514
343 6 505 508 510 515
344 6 505 508 510 516
345 8 518 517 519 521
346 8 518 517 520 522
347 6 517 519 521 523
348 6 517 519 521 524
349 6 517 519 521 525
350 6 517 520 522 526
351 6 517 520 522 527
352 6 517 520 522 528
353 8 530 529 531 533
354 8 530 529 532 534
355 6 529 531 533 535
356 6 529 531 533 536
357 6 529 531 533 537
358 6 529 532 534 538
359 6 529 532 534 539
360 6 529 532 534 540
361 8 542 541 543 546
362 8 542 541 544 545
363 5 541 543 546 545
364 7 543 546 545 544
365 7 541 544 545 546
366 8 552 551 553 556
367 8 552 551 554 555
368 5 551 553 556 555
369 7 553 556 555 554
370 7 551 554 555 556
371 8 562 561 563 566
372 8 562 561 564 565
373 5 561 563 566 565
374 7 563 566 565 564
375 7 561 564 565 566
376 8 572 571 573 576
377 8 572 571 574 575
378 5 571 573 576 575
379 7 573 576 575 574
380 7 571 574 575 576
381 8 582 581 583 586
382 8 582 581 584 585
383 5 581 583 586 585
384 7 583 586 585 584
385 7 581 584 585 586
386 8 592 591 593 596
387 8 592 591 594 595
388 5 591 593 596 595
389 7 593 596 595 594
390 7 591 594 595 596
391 8 602 601 603 606
392 8 602 601 604 605
393 5 601 603 606 605
394 7 603 606 605 604
395 7 601 604 605 606
396 8 612 611 613 616
397 8 612 611 614 615
398 5 611 613 616 615
399 7 613 616 615 614
400 7 611 614 615 616
401 8 622 621 623 626
402 8 622 621 624 625
403 5 621 623 626 625
404 7 623 626 625 624
405 7 621 624 625 626
406 8 632 631 633 636
407 8 632 631 634 635
408 5 631 633 636 635
409 7 633 636 635 634
410 7 631 634 635 636
411 8 642 641 643 646
412 8 642 641 644 645
413 5 641 643 646 645
414 7 643 646 645 644
415 7 641 644 645 646
416 8 652 651 653 656
417 8 652 651 654 655
418 5 651 653 656 655
419 7 653 656 655 654
420 7 651 654 655 656
421 8 662 661 663 666
422 8 662 661 664 665
423 5 661 663 666 665
424 7 663 666 665 664
425 7 661 664 665 666
426 8 672 671 673 676
427 8 672 671 674 675
428 5 671 673 676 675
429 7 673 676 675 674
430 7 671 674 675 676
431 8 682 681 683 686
432 8 682 681 684 685
433 5 681 683 686 685
434 7 683 686 685 684
435 7 681 684 685 686
436 8 692 691 693 696
437 8 692 691 694 695
438 5 691 693 696 695
439 7 693 696 695 694
440 7 691 694 695 696
441 8 702 701 703 706
442 8 702 701 704 705
443 5 701 703 706 705
444 7 703 706 705 704
445 7 701 704 705 706
446 8 712 711 713 716
447 8 712 711 714 715
448 5 711 713 716 715
449 7 713 716 715 714
450 7 711 714 715 716
451 8 722 721 723 726
452 8 722 721 724 725
453 5 721 723 726 725
454 7 723 726 725 724
455 7 721 724 725 726

