LAMMPS data file via write_data, version 23 Jun 2022, timestep = 190

770 atoms
31 atom types
715 bonds
17 bond types
1087 angles
18 angle types
455 dihedrals
9 dihedral types
0 impropers
2 improper types

0 20 xlo xhi
0 20 ylo yhi
0 20 zlo zhi

Masses

1 12.011
2 12.011
3 12.011
4 12.011
5 12.011
6 12.011
7 12.011
8 12.011
9 12.011
10 12.011
11 1.008
12 1.008
13 1.008
14 1.008
15 1.008
16 1.008
17 1.008
18 15.999
19 15.999
20 15.999
21 15.999
22 14.007
23 14.007
24 14.007
25 14.007
26 18.998
27 30.974
28 6.941
29 32.065
30 32.065
31 6.941

Atoms # full

432 36 11 0.06 0.47282150460019406 1.194366654002848 19.38273424822268 0 0 -1
431 36 11 0.06 0.4728215046001441 1.194366654002816 19.382734248222672 0 0 -1
437 37 1 0.22 3.382752830501186 0.2037072799383932 19.582549432649937 0 0 -1
435 37 19 -0.35 4.72101423542758 0.3137652002987389 0.45663969575449426 0 0 0
439 37 11 0.06 3.8288968135520833 19.69361144657456 19.070462607910024 0 -1 -1
523 44 11 0.06 7.687105721555736 0.21781464313173285 0.012838942566769873 0 0 0
519 44 19 -0.35 7.698308572054682 0.5417088708427161 0.1583436606214695 0 0 0
521 44 1 0.22 7.87169850569969 0.3568359244288512 0.07038780094081076 0 0 0
517 44 9 0.52 9.31799762088202 2.0262824955633794 1.690408750659007 0 0 0
739 70 26 -0.39 12.270771083165599 1.1845042251724331 2.2835855683433532 0 0 0
441 37 11 0.06 18.182767927556778 0.3067357671533542 1.8848730128480589 -1 0 0
438 37 1 0.22 2.2157201432448543 6.426618548830828 19.069882551926295 0 0 -1
433 37 9 0.52 4.989719984993695 1.0233106577297628 1.3595021007449202 0 0 0
262 22 11 0.06 6.683652889253813 3.167475232029672 2.5375955906699152 0 0 0
515 43 11 0.06 11.218556882646572 1.5544506141840013 19.425528813470248 0 0 -1
518 44 20 -0.5 9.315087100501268 1.7990886135991575 2.1669274733907327 0 0 0
525 44 11 0.06 12.807499799075607 3.694842102892939 0.7140755112329118 0 0 0
742 70 26 -0.39 12.243085561246524 1.2592215682115868 2.3878504883871985 0 0 0
680 59 11 0.06 18.985767790972307 7.181355420989108 0.9432033601254558 -1 0 0
85 8 9 0.52 0.597043939624262 4.575772768332418 0.874556839856171 0 0 0
87 8 19 -0.35 19.210209372445394 4.2125193221605475 0.5398281265594839 -1 0 0
88 8 19 -0.35 1.7096931072225239 3.9124070691115342 1.0079056442116916 0 0 0
377 32 1 0.22 4.388589282152727 8.63950786551269 1.4820530437826718 0 0 0
520 44 19 -0.35 9.313005895461872 1.7969100571436176 2.1734655860688497 0 0 0
526 44 11 0.06 8.758232002049299 5.800484993939508 2.69396952175833 0 0 0
524 44 11 0.06 11.204532873810331 4.053105117981659 2.7441717134974057 0 0 0
330 28 1 0.22 14.006888435541638 7.432210503043467 0.8002786198354898 0 0 0
331 28 11 0.06 14.202417929815818 6.876042868394174 3.711693681127514 0 0 0
676 59 2 0.22 19.083543823814168 7.230999931681445 0.9591880898089495 -1 0 0
681 60 9 0.52 19.80735807787629 7.486499233897007 17.818191261276613 -1 0 -1
674 59 19 -0.35 0.8755501489715047 8.63710434574337 0.5765860571984407 0 0 0
671 59 9 0.52 1.232731068889122 9.000502562133168 0.2547957933934073 0 0 0
378 32 1 0.22 2.1851854160873136 7.24688826639951 2.9071579630650946 0 0 0
375 32 19 -0.35 4.445040182407869 8.626299114898416 1.444842803455081 0 0 0
379 32 11 0.06 4.476553660353585 8.645058298798823 1.447711392404066 0 0 0
187 16 11 0.06 11.276528578566102 8.632516598652646 0.8667831497821394 0 0 0
185 16 1 0.22 11.24643022837527 8.655151344051358 0.8656052367680923 0 0 0
189 16 11 0.06 11.240105350263995 8.629984634870604 0.8811747495751404 0 0 0
327 28 19 -0.35 14.189293617411778 6.876331065094849 3.666394294612959 0 0 0
329 28 1 0.22 14.175884702509865 6.903719770208483 3.6433591461064134 0 0 0
323 27 11 0.06 13.670149958082867 10.295988815429073 0.2664564297171493 0 0 0
325 28 9 0.52 14.016244360744658 7.405377633047763 0.8211101771355067 0 0 0
109 10 9 0.52 16.72437696195021 5.821259322073569 2.5356988948189465 0 0 0
672 59 20 -0.5 1.222577415756733 9.029305357278803 0.21944065799409637 0 0 0
744 71 26 -0.39 6.276423215157057 11.911345121897671 0.5150866208641639 0 0 0
743 71 27 1.34 6.29812371105575 12.03654407547306 0.5072744486488321 0 0 0
747 71 26 -0.39 6.267974952927328 12.057621934349621 0.48680250786015544 0 0 0
188 16 11 0.06 11.23998714782853 8.66241345970217 0.8432884189340509 0 0 0
745 71 26 -0.39 6.305859248522165 12.077938540931909 0.5003308516255304 0 0 0
186 16 1 0.22 12.879781105707952 13.617584268145132 2.1095674633513846 0 0 0
190 16 11 0.06 12.721806714401103 13.526659628600687 2.095460633833647 0 0 0
184 16 19 -0.35 11.547541354467558 10.800631458256818 2.9222462766986452 0 0 0
324 27 11 0.06 13.670149958082868 10.295988815429073 0.2664564297171485 0 0 0
326 28 20 -0.5 16.149945362524427 11.775184236777264 19.510317873662686 0 0 -1
328 28 19 -0.35 16.149547076616248 11.774879985780672 19.510646530353917 0 0 -1
334 28 11 0.06 14.464558318729555 11.295353996065764 2.9226689995509427 0 0 0
107 9 11 0.06 18.25405889421594 10.092804285192038 0.7808098047223989 0 0 0
643 56 19 -0.35 1.368461415695722 14.888796351872703 0.7989181839900503 0 0 0
48 4 11 0.06 4.276756110680969 14.210049442865769 0.9526591519818571 0 0 1
248 21 11 0.06 7.256177648798113 14.764812426269827 1.7494612904398996 0 0 0
749 71 26 -0.39 6.40083435633214 12.140616649624157 0.5611476920999079 0 0 0
595 51 2 0.22 15.188213097521492 15.662674270795794 1.7330783298929662 0 0 0
593 51 19 -0.35 15.18890604808618 15.681880464602497 1.6164735411339424 0 0 0
642 56 20 -0.5 1.3179827908826356 14.919890854421961 0.7307927737773573 0 0 0
639 55 11 0.06 2.621344005582355 17.56953504680184 0.6433591882552991 0 0 0
598 51 11 0.06 19.71904966543728 18.117043561272133 0.5971427586882297 0 0 0
641 56 9 0.52 1.3769298741615597 14.881347030947733 0.7815885382329668 0 0 0
637 55 11 0.06 5.401474695967241 16.98436576327707 1.0330413305410864 0 0 0
635 55 2 0.22 5.433390756135082 16.97470843460099 0.9173232784882673 0 0 0
638 55 11 0.06 5.40042346040369 16.984649106594922 1.025866975135353 0 0 0
594 51 19 -0.35 15.095935969886655 15.571707489775465 1.4417737265118573 0 0 0
591 51 9 0.52 15.068198026832917 16.19946489379998 1.1633404233781126 0 0 0
589 50 11 0.06 16.32733675883722 18.727379077524553 0.13147629742139189 0 0 0
587 50 11 0.06 17.90279271493833 15.780491899693466 0.3851611875029097 0 0 0
588 50 11 0.06 17.902792714938332 15.780491899693468 0.3851611875029089 0 0 0
596 51 2 0.22 19.718735219992276 18.08917082687098 0.6286984735500153 0 0 0
522 44 1 0.22 10.496672826656688 18.417742033023533 2.2358119872026676 0 -1 0
590 50 11 0.06 16.327336758828693 18.727379077526003 0.13147629738540012 0 0 0
592 51 20 -0.5 17.545308435875747 1.1119490955396965 18.95822546511323 0 1 -1
436 37 19 -0.35 1.5594028730846794 19.81083600499093 2.2631118470934175 0 -1 0
442 37 11 0.06 1.4752100603131333 19.98034890288427 2.2238521239369207 0 -1 0
434 37 20 -0.5 19.98732366263139 2.4635593528853192 2.9074890211746687 -1 0 0
440 37 11 0.06 18.182735446698107 0.3066644259297801 1.8851325135171089 -1 0 0
259 22 11 0.06 4.205069258084459 18.72101444334608 3.1388928945247234 0 -1 0
255 22 19 -0.35 4.21281507203504 18.753311640971926 3.144498444126068 0 -1 0
253 22 9 0.52 4.000885992161057 1.8958267131398723 4.011400527216254 0 0 0
252 21 11 0.06 7.766171151624017 19.332430999814065 2.8856459502082825 0 -1 0
251 21 11 0.06 7.766171151624013 19.33243099981405 2.8856459502082807 0 -1 0
738 70 26 -0.39 12.340881910377565 1.2764875786394134 2.3883758232349166 0 0 0
741 70 26 -0.39 12.288737631997316 1.1897953648935942 2.394489921887148 0 0 0
86 8 20 -0.5 0.9252236422615985 4.96198766369446 1.4804106633447425 0 0 0
89 8 1 0.22 18.627527222987542 3.498775640363363 0.28282409042824225 -1 0 0
84 7 11 0.06 18.591011232135383 4.6563584441245105 5.485257729701861 -1 0 0
90 8 1 0.22 2.4741778706622037 2.548692597442504 1.1217438316526667 0 0 0
381 32 11 0.06 1.3755191376140152 4.836580202724191 4.4610429437086445 0 0 0
256 22 19 -0.35 6.6730817808279665 3.166350531595877 2.5336829024933314 0 0 0
254 22 20 -0.5 3.9154655659875326 3.7875874439421717 3.386540820606485 0 0 0
261 22 11 0.06 8.95493818667796 3.510616515606888 4.595756725819698 0 0 0
737 70 26 -0.39 12.21971349437769 1.1569552943869688 2.4122467019451803 0 0 0
736 70 27 1.34 12.268018684242756 1.2097349808578348 2.403841506895734 0 0 0
740 70 26 -0.39 12.26482630124378 1.2788248392103005 2.4659554838366504 0 0 0
584 50 19 -0.35 16.812449663512478 2.8678149275378444 2.5746018285813386 0 0 0
83 7 11 0.06 18.42979120428003 4.45633073614477 4.512180810112024 -1 0 0
81 7 11 0.06 1.3692871516740066 8.810820044599938 5.356777350292797 0 0 0
372 31 11 0.06 4.083499260682167 5.687583872318478 1.2454504492432414 0 0 0
371 31 11 0.06 4.083499260682168 5.687583872318479 1.2454504492432417 0 0 0
260 22 11 0.06 8.954938240099933 3.5106163192073234 4.595756773454167 0 0 0
147 13 19 -0.35 9.521072386169196 6.28927997642901 5.811223135627384 0 0 0
585 50 2 0.22 16.584538271777273 2.7507438887143234 2.2600661282101213 0 0 0
580 49 11 0.06 16.809698736676907 7.438075023983347 5.04208823396379 0 0 0
586 50 2 0.22 16.79664544760584 2.8372933393751767 2.5739077623823485 0 0 0
673 59 19 -0.35 2.025132287192295 10.203128031679794 2.788868435730582 0 0 0
373 32 9 0.52 2.4786023099446863 7.255908875989761 3.164756284239891 0 0 0
547 46 11 0.06 6.0527215989049985 6.892345668204036 3.271244934837737 0 0 0
295 25 11 0.06 8.518452781891217 8.520580791913746 3.735191526045067 0 0 0
291 25 19 -0.35 8.638503625616059 8.700027501775086 3.3405154217088575 0 0 0
293 25 1 0.22 8.837383002921438 8.884446610627945 3.3799651205995356 0 0 0
294 25 1 0.22 8.67341472745831 10.166851579972114 0.7734821280959812 0 0 0
183 16 19 -0.35 11.231937697923083 8.666459084951256 0.8837124934839203 0 0 0
181 16 9 0.52 11.535438769254968 10.767315231759342 2.91405423689924 0 0 0
182 16 20 -0.5 11.551574513356199 10.755283872360641 2.9379781408482675 0 0 0
104 9 11 0.06 16.094567658217752 8.83930999863507 2.4277000106406166 0 0 0
106 9 11 0.06 18.25405889421594 10.092804285192038 0.780809804722399 0 0 0
101 9 1 0.22 16.183413394287093 8.73394601632647 2.4214076289666524 0 0 0
110 10 20 -0.5 16.481402069608034 5.807151561861538 1.8621082484397702 0 0 0
108 9 11 0.06 18.254058894215937 10.092804285192042 0.7808098047223978 0 0 0
735 69 31 1 19.13789795411944 10.017980077822603 3.6141497073427624 -1 0 0
576 49 2 0.22 17.132989342466136 6.674674456717017 7.1748438372653105 0 0 0
22 2 11 0.06 0.48748604037027365 12.043628723573597 1.0289631936236765 0 0 0
675 59 2 0.22 2.0230447452699765 10.203131923564369 2.81097218818084 0 0 0
677 59 11 0.06 2.021333233416143 10.228543962322794 2.840724689451753 0 0 0
679 59 11 0.06 4.41056321430784 9.276002944093374 4.3572985773417425 0 0 0
678 59 11 0.06 2.021333233423073 10.228543962295616 2.8407246894756963 0 0 0
288 24 11 0.06 6.9527479658337334 10.995790856534779 4.226002798669152 0 0 0
287 24 11 0.06 6.952747965833735 10.995790856534779 4.2260027986691515 0 0 0
289 25 9 0.52 8.72135012878262 10.749130522191601 1.8194496149197767 0 0 0
102 9 1 0.22 13.40624009445641 9.459221398911033 4.886247980156219 0 0 0
103 9 11 0.06 16.136828172899808 8.858685298610686 2.4988298684767267 0 0 0
105 9 11 0.06 16.108524800733292 8.843643805591116 2.442669597063783 0 0 0
384 32 11 0.06 16.21994071034482 10.347484768844783 5.108656043531648 0 0 0
734 68 31 1 19.17497616036647 14.531484880997734 2.7317905528282562 -1 0 0
242 21 20 -0.5 1.8404956463741982 13.20657987032322 3.3897113319403505 0 0 0
244 21 19 -0.35 1.7982148744013313 13.25607246392719 3.4206952615036452 0 0 0
250 21 11 0.06 4.473978378349387 11.91441133102985 2.895114113059699 0 0 0
249 21 11 0.06 4.5670935367694145 14.223091518013181 4.6310501193473295 0 0 0
297 25 11 0.06 10.059006478740475 14.746448194051805 0.7288828436869791 0 0 0
298 25 11 0.06 7.625810820784999 13.907471593253337 4.536146084246945 0 0 0
290 25 20 -0.5 8.849477694923388 12.409795187287441 2.268522530653686 0 0 0
292 25 19 -0.35 7.617238274780995 13.889339371394888 4.507757298628094 0 0 0
296 25 11 0.06 10.059006478740478 14.746448194051466 0.7288828436870962 0 0 0
391 33 11 0.06 14.144095921605569 13.638765520945432 4.743417364749384 0 0 0
394 33 11 0.06 16.642006788257646 13.103100109757877 2.1276648978957584 0 0 0
383 32 11 0.06 16.21994071034481 10.347484768844776 5.1086560435316475 0 0 0
388 33 19 -0.35 16.626223278363657 13.105401693779573 2.1353416015713305 0 0 0
392 33 11 0.06 18.095942404405925 12.598696547666115 4.690652953120388 0 0 0
236 20 11 0.06 2.6893176885207537 16.08842890370653 3.2066149995580373 0 0 0
636 55 2 0.22 5.762089093725691 17.219823465555717 1.0729939074448687 0 0 0
640 55 11 0.06 8.24773784396597 17.35104828354141 0.6963911861991355 0 0 0
644 56 19 -0.35 6.30468583723082 16.54271300280182 3.9403705349480878 0 0 0
646 56 2 0.22 6.331376662591541 16.534981105535977 3.9671621167906257 0 0 0
38 4 20 -0.5 9.690347530036536 15.842937409005062 3.492336053749057 0 0 0
716 63 2 0.22 14.17529931619659 18.859749700007704 2.201037612383055 0 0 0
710 62 11 0.06 16.664650325052243 15.149276948348609 4.284711026013579 0 0 0
712 63 20 -0.5 12.494762434259897 16.4347673111299 2.633989663810483 0 0 0
707 62 11 0.06 17.218694173940136 17.59754137684206 2.7337477354208084 0 0 0
709 62 11 0.06 16.66465037481381 15.14927691544908 4.284711078080959 0 0 0
708 62 11 0.06 17.218694173940133 17.597541376842052 2.733747735420805 0 0 0
715 63 2 0.22 19.923424048107012 17.73834477254665 3.998373532021608 0 0 0
711 63 9 0.52 0.059545128461060415 17.449679568346475 3.580161735318678 1 0 0
713 63 19 -0.35 0.0647291623733004 17.549732953547203 3.568694003114913 1 0 0
257 22 1 0.22 4.534874530089132 18.81484573912605 3.2446689972693643 0 -1 0
645 56 2 0.22 6.8837858901207785 16.721741136161913 4.034292338442673 0 0 0
718 63 11 0.06 14.160073456871702 18.85977987206945 2.2072214392606093 0 0 0
717 63 11 0.06 14.171485710210002 18.853757381793706 2.1879817702578657 0 0 0
597 51 11 0.06 19.72932294323436 18.12724254478588 0.6346378026362927 0 0 0
693 61 19 -0.35 1.2783631217644225 2.0456851765757165 5.571948441964808 0 0 0
258 22 1 0.22 3.9864430507623694 1.419532564720448 4.454702632705759 0 0 0
687 60 11 0.06 3.595815839921976 3.7656144558307347 6.3387529521777495 0 0 0
683 60 19 -0.35 2.394495824368144 1.6709774597459925 8.317484951662538 0 0 0
685 60 2 0.22 3.6208343600368207 3.6962614155468545 6.377507846262641 0 0 0
684 60 19 -0.35 2.3944271994930526 1.6709128889310998 8.317520594179125 0 0 0
689 60 11 0.06 6.923898113817779 1.3706458448252132 4.913262498110733 0 0 0
690 60 11 0.06 6.923898113829129 1.370645844824545 4.91326249810711 0 0 0
664 58 19 -0.35 9.578921181896417 1.0081864078080038 8.486260661425575 0 0 0
670 58 11 0.06 8.300886996839514 1.2247441489574158 7.573559741799163 0 0 0
752 72 26 -0.39 12.69743719703162 1.4519623626021791 7.883992704567968 0 0 0
753 72 26 -0.39 12.755842584541714 1.4368106682008603 7.892605539889688 0 0 0
602 52 20 -0.5 13.71942902423761 1.5165967254189567 5.0682379347678 0 1 0
756 72 26 -0.39 12.708771627596645 1.4059592577035585 7.918838833661001 0 0 0
750 72 27 1.34 12.741108122099211 1.3990629534547048 7.8985330540759815 0 0 0
601 52 9 0.52 13.731047698045058 1.4824141842742842 5.043566226404639 0 1 0
688 60 11 0.06 3.6014612552896117 3.7709084604623437 6.364719539949484 0 0 0
686 60 2 0.22 3.6184650547982957 3.755036544091898 6.359107512157703 0 0 0
380 32 11 0.06 0.9835619122512659 4.20767929149662 7.648662941965798 0 0 0
382 32 11 0.06 6.218624118749674 4.5573330406211365 5.132981687661408 0 0 0
149 13 1 0.22 10.72491044378121 1.2906590539226743 5.691102337112584 0 0 0
146 13 20 -0.5 9.293744607669067 6.3748564477287735 5.7034844726969185 0 0 0
150 13 1 0.22 12.12830569923601 3.890473584641357 5.5690377958542205 0 0 0
501 42 11 0.06 14.116337535924572 3.9239628974181495 3.3635563895491267 0 0 0
494 42 20 -0.5 12.583216244279477 4.321218693052132 8.495136019214995 0 0 0
496 42 19 -0.35 14.863430418350578 4.978398054749967 6.061907150417161 0 0 0
500 42 11 0.06 14.11633753882793 3.923962992833434 3.3635564553174535 0 0 0
692 61 20 -0.5 1.2773708843262446 2.0454721178792314 5.573895663363804 0 0 0
82 7 11 0.06 18.591010709844472 4.656358525779869 5.485257246969728 -1 0 0
374 32 20 -0.5 3.769508061769552 6.470396253060763 5.130619071910402 0 0 0
376 32 19 -0.35 6.212776515991554 4.560961104178271 5.124969266861002 0 0 0
143 12 11 0.06 6.589242447777179 5.157096023267742 8.261735945959048 0 0 0
145 13 9 0.52 9.511263289656195 6.290511906434225 5.76817319532881 0 0 0
148 13 19 -0.35 9.516520521664328 6.230295897323814 5.713152004812813 0 0 0
492 41 11 0.06 12.488399117004846 6.769476804550809 6.129302956372498 0 0 0
491 41 11 0.06 12.488399117004768 6.769476804550855 6.129302956372526 0 0 0
502 42 11 0.06 14.866213234930736 4.9809666318860115 6.059251988960094 0 0 0
578 49 11 0.06 17.22222837765177 6.181005057042219 7.660502676235568 0 0 0
575 49 2 0.22 17.062198759969124 6.951107857104679 6.518432371240584 0 0 0
28 3 19 -0.35 0.19840185672499733 7.024847298923118 7.413166590031588 0 0 0
23 2 11 0.06 19.502285899996487 7.088957285340243 3.8831511997425134 -1 0 0
25 3 9 0.52 0.1858297524387637 7.055881156317663 7.449391537628312 0 0 0
543 46 19 -0.35 6.504415773048884 7.52184040670202 5.711270639371671 0 0 0
545 46 2 0.22 6.381161367252735 7.325353883719399 6.222584064679203 0 0 0
541 46 9 0.52 6.423985378678165 7.324647330138892 6.2041409113557 0 0 0
546 46 2 0.22 6.499822247388802 7.345827521179143 6.140966468550734 0 0 0
312 26 11 0.06 8.091377124469025 10.206395522752644 6.845556821810723 0 0 0
317 27 1 0.22 10.613898305794697 9.106010130150576 5.78217952342806 0 0 0
315 27 19 -0.35 10.627068394953005 9.11151458094349 5.760298158051835 0 0 0
318 27 1 0.22 11.229571683307599 7.241688929823942 3.4943981509955444 0 0 0
319 27 11 0.06 10.615372960306196 9.074143934515515 5.778865047612013 0 0 0
581 50 9 0.52 18.67560749082585 9.508531571034858 6.504167094798821 0 0 0
577 49 11 0.06 17.220641415996088 6.179238201373155 7.659927339323159 0 0 0
579 49 11 0.06 16.809723490007453 7.438133381920867 5.042065170238481 0 0 0
583 50 19 -0.35 18.670134355525217 9.434001263068826 6.498946633173813 0 0 0
26 3 20 -0.5 0.0985333691096203 7.013939041003527 7.408910714399577 0 0 0
21 2 11 0.06 0.6539491132161428 11.57583530629717 5.593673838132555 0 0 0
24 2 11 0.06 3.4888823342486295 11.705065913579826 5.793660475737053 0 0 0
30 3 1 0.22 5.212315091802192 9.828722972397323 7.116905571862208 0 0 0
316 27 19 -0.35 6.971589619144477 10.214590470289046 9.568563005140119 0 0 0
321 27 11 0.06 6.188411727546917 12.50913364863977 6.680595856734003 0 0 0
314 27 20 -0.5 9.732305700969738 11.854992376938673 5.017762013551749 0 0 0
311 26 11 0.06 8.091377124469025 10.206395522752644 6.845556821810723 0 0 0
313 27 9 0.52 9.712950862027315 11.83753498387014 5.03040898110932 0 0 0
389 33 1 0.22 14.152065688646804 13.608807352783757 4.786395542073534 0 0 0
582 50 20 -0.5 18.725805368881392 9.522694773441474 6.520978517128641 0 0 0
393 33 11 0.06 18.095942404405925 12.598696547666112 4.690652953120393 0 0 0
241 21 9 0.52 1.8166222446669527 13.238794410911538 3.433413242209593 0 0 0
239 20 11 0.06 2.053690383824143 14.283492900670558 6.256573415528323 0 0 0
247 21 11 0.06 19.110809938775933 13.242787588500304 7.603268484403842 -1 0 0
243 21 19 -0.35 19.16409507772954 13.250901702476416 7.597045396871786 -1 0 0
245 21 1 0.22 19.045746768829535 13.146147680295618 7.509913624054368 -1 0 0
240 20 11 0.06 2.0536903838241436 14.283492900670558 6.256573415528324 0 0 0
402 34 1 0.22 4.037481659534735 15.750000674521878 8.693592224038754 0 0 0
320 27 11 0.06 6.188411727597241 12.509133648831462 6.680595856746217 0 0 0
39 4 19 -0.35 10.406429945731105 14.518749348355048 3.67750921510574 0 0 0
390 33 1 0.22 11.646581815303893 13.483123457781655 6.570970827050413 0 0 0
40 4 19 -0.35 10.403573359653686 14.513896269837058 3.6734355959665628 0 0 0
387 33 19 -0.35 14.032312887573669 13.864166567332562 4.878612310367503 0 0 0
385 33 9 0.52 11.806195451075139 13.403329254241168 6.436395114223515 0 0 0
450 38 1 0.22 14.096832380220434 11.530522240886363 6.927147941263169 0 0 0
386 33 20 -0.5 16.250849067795112 13.582080136149727 6.795224398660875 0 0 0
345 29 11 0.06 16.472769066923426 14.77835217679916 9.516836716042597 0 0 0
246 21 1 0.22 19.355767483204257 15.267087409675636 5.494511297996001 -1 0 0
232 20 19 -0.35 2.1680123137509666 19.212831379373917 5.2805725132387185 0 0 0
238 20 11 0.06 2.0536770233341635 14.283427920315262 6.2565327563531 0 0 0
237 20 11 0.06 2.689317688517538 16.088428903695842 3.2066149995457587 0 0 0
403 34 11 0.06 6.267646115142285 15.489449313941128 6.743366922058379 0 0 0
401 34 1 0.22 6.250361571772423 15.500123751555986 6.756911905899683 0 0 0
35 3 11 0.06 9.225216871225905 15.635322128881338 6.431018779185589 0 0 0
37 4 9 0.52 9.698834402142738 15.823969066859897 3.4825565727199606 0 0 0
36 3 11 0.06 9.225216871225904 15.635322128881338 6.43101877918559 0 0 0
33 3 11 0.06 7.774490969979307 17.764480935097996 7.968310902978891 0 0 0
534 45 1 0.22 11.974906325849153 16.22382371437012 5.507169533289043 0 0 0
535 45 11 0.06 11.495827081207942 16.01453979695453 8.358651591290668 0 0 0
340 29 19 -0.35 15.296898608749675 16.35969863394629 7.235914754537112 0 0 0
346 29 11 0.06 14.57247785583988 17.132761239763425 4.5803776408252 0 0 0
344 29 11 0.06 17.554957474617435 17.566161034123052 5.733789632614129 0 0 0
714 63 19 -0.35 0.06750623984073911 17.50944864691437 3.6346255130054956 1 0 0
227 19 11 0.06 3.6952265209942756 16.73984880498831 5.9204890700450346 0 0 0
230 20 20 -0.5 2.167211493259881 19.213005025752032 5.279704080192333 0 0 0
229 20 9 0.52 5.820831002319972 18.809249062092086 5.945125651137154 0 0 0
668 58 11 0.06 9.04591025813346 18.831880369892332 5.49791815355923 0 -1 0
604 52 19 -0.35 11.403936095643594 18.792923133416927 7.301434953037846 0 0 0
608 52 11 0.06 12.26694118186765 18.99650462617761 4.4864279937075535 0 0 0
609 52 11 0.06 11.403110935543507 18.78821870431305 7.304524642961797 0 0 0
599 51 11 0.06 14.293681491854228 19.135229547539907 6.732931632857186 0 0 0
600 51 11 0.06 14.293681491854226 19.135229547539907 6.732931632857182 0 0 0
606 52 2 0.22 16.005521818775087 19.808985401246257 4.360888333009122 0 0 0
605 52 2 0.22 15.94150222885364 19.842173969245184 4.359204913391214 0 0 0
603 52 19 -0.35 16.016784677666298 19.830190561131772 4.3538391042110645 0 0 0
607 52 11 0.06 16.02737345095533 19.780185193198545 4.357105947091183 0 0 0
159 14 19 -0.35 18.903891946559227 0.4483453219804611 4.770101887470173 0 1 0
732 66 31 1 18.65415001461855 2.5477147661048547 7.574424340606414 -1 0 0
694 61 19 -0.35 1.2764065251765768 2.0468982668089315 5.573118219792497 0 0 0
120 10 11 0.06 0.12699766452241412 2.348804089740225 10.172782111698785 0 0 0
111 10 19 -0.35 3.44594970434566 4.318510770429801 9.285062563089946 0 0 0
691 61 9 0.52 5.236880985663053 1.4699211443612685 7.363898142715487 0 0 0
112 10 19 -0.35 5.130676341788674 0.4143949629987234 10.11139819226947 0 0 0
669 58 11 0.06 8.300886996839605 1.2247441489574034 7.573559741799153 0 0 0
662 58 20 -0.5 10.422312106390661 0.4495631196407139 9.559142854302788 0 0 0
755 72 26 -0.39 12.763015275620717 1.4422490399845724 7.871926590092127 0 0 0
659 57 11 0.06 9.828624962245938 3.796042551865004 7.4277233343136615 0 0 0
661 58 9 0.52 10.362107154762084 0.8642375366361231 9.69413883329652 0 0 0
751 72 26 -0.39 12.762224442386438 1.4024635301723163 7.93503669507934 0 0 0
276 23 11 0.06 17.366760447291274 1.6169576665902654 11.023405592460211 0 0 0
275 23 11 0.06 17.36676044729127 1.6169576665902625 11.023405592460211 0 0 0
157 14 9 0.52 18.905623199542852 0.42674914013584825 4.784922085011124 0 1 0
118 10 11 0.06 0.13851276351419184 2.36509777134137 10.19574348980374 0 0 0
113 10 1 0.22 3.4450400418306844 4.275594911091748 9.323175954758366 0 0 0
141 12 11 0.06 7.0398493320270425 2.6754554571697056 9.850185532633184 0 0 0
142 12 11 0.06 6.589242458970232 5.157096026589108 8.261735948201892 0 0 0
144 12 11 0.06 6.585084307859618 5.157827043760754 8.255300565540349 0 0 0
660 57 11 0.06 9.82862496224594 3.796042551865002 7.4277233343136615 0 0 0
665 58 2 0.22 11.107750312505651 3.0095692094487094 10.737888314842824 0 0 0
286 24 11 0.06 16.471313837686765 2.5301357717338346 5.525016558705862 0 0 0
280 24 19 -0.35 15.39571092243092 3.281574925809333 8.520867877128573 0 0 0
284 24 11 0.06 17.896514392630053 4.297701935940657 9.851858478832419 0 0 0
285 24 11 0.06 17.896514305038107 4.297702073770415 9.851858457670017 0 0 0
278 24 20 -0.5 15.681731475866302 3.1396406171149236 8.254839004878104 0 0 0
540 45 11 0.06 3.024047370719285 7.9471901383536325 7.617602223600131 0 0 0
539 45 11 0.06 3.0240473707192854 7.9471901383536325 7.617602223600131 0 0 0
550 46 11 0.06 2.986302231159582 6.910440384733908 10.669733621849128 0 0 0
544 46 19 -0.35 3.2948644527792457 7.121832830451019 10.467148817951477 0 0 0
542 46 20 -0.5 5.467303074358703 7.708724034562179 9.219251013043134 0 0 0
498 42 1 0.22 8.997962148763474 4.941454500221817 9.97566961075644 0 0 0
493 42 9 0.52 12.562490892884437 4.341775600935963 8.473231781744753 0 0 0
495 42 19 -0.35 11.426745214970195 6.170468905441548 8.857447400741805 0 0 0
497 42 1 0.22 11.070014269042636 6.690988121343616 8.715805163057977 0 0 0
499 42 11 0.06 11.107317514907377 6.850314812265371 8.73130234404202 0 0 0
569 48 11 0.06 14.376083695470259 6.702290476828614 8.449627657312965 0 0 0
27 3 19 -0.35 0.1520144072333854 7.059215911189225 7.435834404682047 0 0 0
162 14 1 0.22 1.15304595080606 9.008443786954631 9.70080080613369 0 0 0
161 14 1 0.22 3.874274846577996 10.184342727215462 9.69426347560046 0 0 0
170 15 20 -0.5 8.307975330439774 7.713104360450976 8.47292679993027 0 0 0
164 14 11 0.06 3.865525487076879 10.181828110998847 9.7090713288735 0 0 0
166 14 11 0.06 5.563192329073535 9.052487582991727 11.939199826194509 0 0 0
453 38 11 0.06 12.779346092894453 9.15030987553982 7.824344652686606 0 0 0
452 38 11 0.06 10.64808819183533 8.535575662727783 10.993595982999285 0 0 0
448 38 19 -0.35 13.604557883324443 8.648940184835855 10.586193656450705 0 0 0
444 37 11 0.06 15.778705339412303 9.256486971965323 7.857398005959123 0 0 0
564 48 19 -0.35 14.361472996726844 6.713316475355393 8.454407520720421 0 0 0
563 48 19 -0.35 16.32840599573572 6.695614492695249 10.690850569606226 0 0 0
568 48 11 0.06 16.320614305874685 6.685255549294576 10.689107665671782 0 0 0
573 49 19 -0.35 18.272257430672425 8.457960429234843 9.292132572656541 0 0 0
29 3 1 0.22 1.6611626189614819 11.47205760784863 8.195105099982811 0 0 0
180 15 11 0.06 19.199949421377994 11.241644995392718 9.816501844194406 -1 0 0
169 15 9 0.52 8.296926625556134 7.747284157485316 8.492055643442702 0 0 0
322 27 11 0.06 6.975225112581497 10.21024042799102 9.574817538895072 0 0 0
657 57 11 0.06 5.195676832703826 12.203783873407165 11.45337827260723 0 0 0
649 56 11 0.06 8.924849167519232 12.956343322296412 7.695175342423556 0 0 0
647 56 11 0.06 8.535378975064932 12.514468602325758 10.603516735972468 0 0 0
654 57 19 -0.35 10.330311820919977 10.549170557427024 8.79531518877181 0 0 0
651 57 9 0.52 10.263187690987426 10.574867475653873 8.855520832489951 0 0 0
655 57 2 0.22 10.298123002448069 10.443826183940608 8.805366096309925 0 0 0
446 38 20 -0.5 13.437072998364624 11.380539970802342 9.727747814565562 0 0 0
653 57 19 -0.35 10.229269403383096 10.553987093099364 8.905906514527183 0 0 0
443 37 11 0.06 15.7787053394123 9.256486971965325 7.857398005959122 0 0 0
445 38 9 0.52 13.454599103893141 11.356002813080533 9.668221538994864 0 0 0
447 38 19 -0.35 16.305742480457138 11.828594029759866 9.24905827337092 0 0 0
449 38 1 0.22 16.277842260221558 11.850396783590481 9.21118195200534 0 0 0
574 49 19 -0.35 18.27259798297101 8.458024445439229 9.288667356137973 0 0 0
702 62 20 -0.5 19.03478788673897 14.071731557042598 10.789598424491212 -1 0 0
656 57 2 0.22 5.517416129526985 12.004167225981863 11.445573572268327 0 0 0
650 56 11 0.06 8.92484916752216 12.956343322274277 7.695175342404737 0 0 0
652 57 20 -0.5 6.349141656224359 13.935406557010426 9.28262687707742 0 0 0
528 44 11 0.06 11.201568614063282 13.304699437871806 9.57191779915578 0 0 0
336 28 11 0.06 13.851856541039217 14.062607915167087 8.458719442735307 0 0 0
451 38 11 0.06 16.346442842112097 11.838696540275258 9.221992041994119 0 0 0
731 65 31 1 18.643838147762125 16.127050299755357 8.182110617915932 -1 0 0
695 61 2 0.22 1.4634543965847981 16.996075731711525 7.872871298423163 0 0 0
698 61 11 0.06 1.439507292323453 16.97550375265689 7.8849291487096895 0 0 0
228 19 11 0.06 3.695226520994275 16.739848804988313 5.920489070045036 0 0 0
697 61 11 0.06 1.4544606812986312 16.993037568645974 7.873789216465812 0 0 0
397 34 9 0.52 6.164408264833927 16.741741661544864 10.265540246961962 0 0 0
399 34 19 -0.35 6.270657662888957 15.459762872084093 6.748838331060769 0 0 0
395 33 11 0.06 8.820486178102229 15.48309512901741 9.589468477203626 0 0 0
34 3 11 0.06 9.225216871225905 15.63532212888134 6.431018779185589 0 0 0
31 3 11 0.06 7.774490969979315 17.764480935097993 7.968310902978891 0 0 0
396 33 11 0.06 8.820486178102229 15.483095129017409 9.589468477203628 0 0 0
32 3 11 0.06 7.774490969979314 17.764480935097993 7.968310902978894 0 0 0
531 45 19 -0.35 11.50390636392074 15.996719590003432 8.39302902207124 0 0 0
533 45 1 0.22 11.47495012399489 16.003429151480226 8.40828768721938 0 0 0
529 45 9 0.52 10.97904393172723 17.755763146182606 10.720384614921496 0 0 0
527 44 11 0.06 11.201568614063282 13.304699437871802 9.571917799155782 0 0 0
335 28 11 0.06 13.851856541039217 14.062607915167085 8.458719442735308 0 0 0
337 29 9 0.52 16.067607178789824 17.344615682699875 8.274116438691571 0 0 0
338 29 20 -0.5 15.359160604169714 16.373196333211713 7.315702511536208 0 0 0
160 14 19 -0.35 18.26351592119137 18.809358556632528 9.625755452324324 0 0 0
705 62 2 0.22 0.04914671023047207 19.58952330445016 7.403066490896029 0 0 0
704 62 19 -0.35 0.18402641987517077 19.67364446607786 7.500472838250359 0 0 0
700 61 11 0.06 1.161439903846969 19.58743113776268 10.31190707415472 0 0 0
231 20 19 -0.35 3.7005004141250772 18.9767833071259 7.910655695662982 0 0 0
233 20 1 0.22 3.6494800757056938 19.00693630557483 7.858884084168798 0 0 0
235 20 11 0.06 3.668722148490947 18.983541507642446 7.938951162123589 0 0 0
234 20 1 0.22 5.852213833476568 18.766684274753832 5.906345315692015 0 0 0
610 52 11 0.06 11.403110912088941 18.788218737368634 7.304524638132516 0 0 0
754 72 26 -0.39 12.751475660495142 1.3745148087834047 7.890391475793069 0 0 0
151 13 11 0.06 15.165533753564818 0.42063783758389045 9.380350058556196 0 1 0
152 13 11 0.06 15.165533753564471 0.4206378375841013 9.38035005855643 0 1 0
153 13 11 0.06 15.165533753574032 0.42063783757822176 9.380350058550091 0 1 0
154 13 11 0.06 17.09345552082192 0.10578735390559757 7.135719442036776 0 1 0
156 13 11 0.06 17.093455520821916 0.10578735390560112 7.135719442036772 0 1 0
155 13 11 0.06 17.093455520821923 0.10578735390559757 7.135719442036774 0 1 0
119 10 11 0.06 0.1456809281514762 2.3905710801973368 10.154570156806923 0 0 0
114 10 1 0.22 0.14579583717354297 2.3723116383445215 10.183682195984684 0 0 0
116 10 11 0.06 3.461404499636768 4.285914753474427 9.339485994699604 0 0 0
347 29 11 0.06 6.431297006287041 19.095175542604686 12.989971597722535 0 -1 0
349 30 9 0.52 7.921168848382698 1.6216476306394585 12.490902592237594 0 0 0
348 29 11 0.06 6.431297006287044 19.09517554260469 12.989971597722533 0 -1 0
354 30 1 0.22 7.746249803554522 1.6503419613411725 12.47124682731546 0 0 0
351 30 19 -0.35 9.891024983555758 19.599659960651564 12.869341933755376 0 -1 0
353 30 1 0.22 9.358301169837402 19.56418513196033 13.422168473064756 0 -1 0
355 30 11 0.06 9.95286424082827 19.520200872216144 12.947875054377878 0 -1 0
770 74 26 -0.39 12.136675273263915 1.0446559610188517 14.339903081399267 0 0 0
277 24 9 0.52 14.21031115565879 2.9654449518524375 10.611582282249774 0 0 0
279 24 19 -0.35 13.052285030802997 0.4122243028550522 11.533168335243529 0 0 0
282 24 1 0.22 14.174785904003055 3.0298623395696893 10.599527450984873 0 0 0
281 24 1 0.22 13.4879688808706 0.4319388042003032 11.788560671018821 0 0 0
115 10 11 0.06 3.5105572798892983 4.294747320544548 9.287511197114945 0 0 0
117 10 11 0.06 3.487773952638076 4.261639931929352 9.310667626026516 0 0 0
213 18 11 0.06 5.252734686023408 3.0384268979239124 12.4621069434196 0 0 0
204 17 11 0.06 7.806996965211635 4.579864151684894 12.692943857484169 0 0 0
663 58 19 -0.35 10.835810433134489 2.219342134017458 10.625867217864407 0 0 0
667 58 11 0.06 11.26749894833367 3.337069077394803 10.997096971507588 0 0 0
666 58 2 0.22 11.174836840351208 2.98039561417444 10.759117609167692 0 0 0
570 48 11 0.06 14.376085665573942 6.702294607726891 8.449626779688769 0 0 0
474 40 1 0.22 15.313346793274876 1.7607813240110477 13.758568073083103 0 0 0
471 40 19 -0.35 16.29080040540853 4.183488639775208 12.368848180435558 0 0 0
473 40 1 0.22 16.347478193276086 4.225124670405051 12.39432426750273 0 0 0
416 35 11 0.06 0.3173700150098082 4.173509927231773 12.603528305188794 0 0 0
412 35 19 -0.35 1.0535876444870773 7.036843877615394 12.96265526947292 0 0 0
418 35 11 0.06 0.059721935440069984 6.294362993792681 10.318233876044102 0 0 0
548 46 11 0.06 5.577193790914031 5.517711771084527 11.044624718941046 0 0 0
549 46 11 0.06 2.9863022311595833 6.910440384733908 10.669733621849128 0 0 0
203 17 11 0.06 7.806996965211632 4.5798641516848955 12.692943857484167 0 0 0
210 18 1 0.22 7.982393599397334 7.259135391613264 11.393908150741108 0 0 0
209 18 1 0.22 10.446181120002423 5.897640869297432 12.401920671580234 0 0 0
205 18 9 0.52 7.9100965473398785 7.267764921431605 11.389771036776764 0 0 0
207 18 19 -0.35 10.469876471412 5.893115168165202 12.347349316431226 0 0 0
211 18 11 0.06 10.490035243059406 5.881119193741737 12.36551687183851 0 0 0
567 48 11 0.06 16.321291606323406 6.6848937663723635 10.688771240826581 0 0 0
571 49 9 0.52 13.309538596126284 5.758476513390008 11.124274696304923 0 0 0
565 48 2 0.22 15.96673158667132 6.785574214258793 10.294737578256578 0 0 0
428 36 11 0.06 13.145796733178573 3.7506444881090695 13.322822521342486 0 0 0
475 40 11 0.06 16.288936601339795 4.211994023306243 12.370337184197851 0 0 0
417 35 11 0.06 0.14276952219836758 4.261445977566773 12.498556098470448 0 0 0
408 34 11 0.06 19.28609951844548 9.237264428784812 12.005040887236929 -1 0 0
174 15 1 0.22 19.198738084060484 11.250634895396894 9.801893706527142 -1 0 0
172 15 19 -0.35 2.629245672229544 9.450535780361758 12.311487524549134 0 0 0
171 15 19 -0.35 2.63317825509118 9.463549394574313 12.311236216661827 0 0 0
163 14 11 0.06 3.8802468303181756 10.174078528237661 9.719550629219862 0 0 0
165 14 11 0.06 3.8964314730106975 10.175530435291506 9.713320504759343 0 0 0
168 14 11 0.06 5.563192329074054 9.052487582991695 11.93919982619453 0 0 0
454 38 11 0.06 13.6096046363363 8.60480114064456 10.609908098041977 0 0 0
566 48 2 0.22 15.978877211668477 6.813977676282651 10.30006229736181 0 0 0
216 18 11 0.06 16.33865426635513 9.624064085459665 11.2611907669145 0 0 0
572 49 20 -0.5 18.272788220494988 8.461906083751733 9.298205077116998 0 0 0
176 15 11 0.06 1.894665151113394 12.081521310994566 11.106679984617621 0 0 0
179 15 11 0.06 19.2106387067747 11.260998850968491 9.837527077278557 -1 0 0
178 15 11 0.06 3.911972986576594 12.89855875078329 8.495746560978963 0 0 0
173 15 1 0.22 2.06160923414224 12.106507895455975 11.131068511271696 0 0 0
175 15 11 0.06 2.0262858659358156 12.124341431416832 11.102379837767572 0 0 0
177 15 11 0.06 2.065654388338839 12.117960000949257 11.109578599400697 0 0 0
557 47 11 0.06 5.286073057964552 10.931385059042931 14.35139065842121 0 0 0
167 14 11 0.06 5.563192329074011 9.0524875829917 11.93919982619453 0 0 0
558 47 11 0.06 5.286073057965085 10.931385059039767 14.351390658422229 0 0 0
648 56 11 0.06 8.535378975064935 12.514468602325758 10.603516735972468 0 0 0
462 39 1 0.22 8.85565840315475 9.550393396899851 12.98892997433761 0 0 0
72 6 11 0.06 10.916293366268455 11.498473550024507 12.093962621005844 0 0 0
226 19 11 0.06 13.893505503366463 10.798835225967496 12.569686035020654 0 0 0
220 19 19 -0.35 13.970329900563863 10.781573717633755 12.614373782091723 0 0 0
225 19 11 0.06 15.375759703124267 13.207585314069647 11.713819503485407 0 0 0
699 61 11 0.06 1.461849365422966 14.342265338597825 9.168901593692823 0 0 0
701 62 9 0.52 19.04607773683539 14.072274013589688 10.780751116624694 -1 0 0
703 62 19 -0.35 3.4183905441659075 14.747077551848463 11.329565263296645 0 0 0
658 57 11 0.06 5.220823635274902 12.171400389164853 11.479236643096606 0 0 0
405 34 11 0.06 6.930746480462844 14.533420382299017 12.123862794941395 0 0 0
537 45 11 0.06 10.198299538935089 14.570990834732665 12.075374506356583 0 0 0
532 45 19 -0.35 11.295681646645647 17.185769516089888 11.12422868103912 0 0 0
538 45 11 0.06 12.848491931330587 15.373199163615475 10.93886509887598 0 0 0
763 73 26 -0.39 15.363944888238967 14.554603541378869 14.392461746140825 0 0 0
696 61 2 0.22 1.4488839275024519 17.000663431807954 7.861488660357238 0 0 0
192 16 11 0.06 0.24205921141654133 16.78458435532539 10.60254255807953 0 0 0
202 17 11 0.06 3.4093299904229997 17.80395436124286 10.644933064892093 0 0 0
201 17 11 0.06 1.982983698390529 16.9720126255268 13.017195048182405 0 0 0
398 34 20 -0.5 6.1694946000810935 16.845144055825774 10.297180810148552 0 0 0
400 34 19 -0.35 8.4237252655103 17.082985732276907 12.083015571346172 0 0 0
406 34 11 0.06 8.455082669136472 17.076899979490584 12.098488538251372 0 0 0
530 45 20 -0.5 10.984051774590892 17.79163859752137 10.735589685548634 0 0 0
339 29 19 -0.35 15.063109172281377 17.3097479660799 9.39177007710137 0 0 0
341 29 1 0.22 13.74216160449901 17.77967557457098 9.323698349582084 0 0 0
343 29 11 0.06 13.568480831672348 17.92518466595728 9.341097057839338 0 0 0
342 29 1 0.22 14.142814011460368 17.59608535795238 12.241053523167121 0 0 0
706 62 2 0.22 0.0819302064562862 19.59849954920272 7.370346327065922 0 0 0
195 17 19 -0.35 19.248968730820096 19.02156669081478 12.535391368173624 -1 0 0
193 17 9 0.52 19.670042133287012 18.717730190536834 12.881738805855875 -1 0 0
357 30 11 0.06 1.0739575388075018 1.2898390961203587 13.384198265945217 0 0 0
196 17 19 -0.35 3.4522076254227363 19.53275894683172 12.734347788662726 0 0 0
191 16 11 0.06 0.2420592114165368 16.784584355325386 10.602542558079532 0 0 0
194 17 20 -0.5 3.5403102976908905 19.708557555604074 12.869288387273023 0 0 0
200 17 11 0.06 7.872440663695705 19.462353968569833 10.418306086052594 0 0 0
283 24 11 0.06 13.005020631635263 0.26474230318334474 11.510564822800006 0 0 0
158 14 20 -0.5 18.22411560033238 18.9156321561603 9.638041216934141 0 0 0
199 17 11 0.06 16.540926936972948 19.28076705823904 12.647093368160412 -1 0 0
69 6 11 0.06 1.814779815906038 19.00250693114583 15.186453444582227 0 0 0
352 30 19 -0.35 4.771277768755754 1.5962560727729995 15.00592682088765 0 0 0
356 30 11 0.06 1.073887526443617 1.2897817230368411 13.38430448185324 0 0 0
350 30 20 -0.5 4.7705415452513735 1.5960251884381995 15.006451798078507 0 0 0
358 30 11 0.06 2.9094044940733346 1.9927294467457541 11.166154142573895 0 0 0
765 74 26 -0.39 12.193144209826286 1.1037896671891576 14.376248448462992 0 0 0
764 74 27 1.34 12.153064676917857 1.0795208460094485 14.37229602887358 0 0 0
766 74 26 -0.39 12.160040472466912 1.0481629540764523 14.38596566624782 0 0 0
212 18 11 0.06 3.4708653360533694 4.308162591010292 12.773339532806945 0 0 0
97 9 9 0.52 1.8267847739955783 3.567305837020803 15.154916340567729 0 0 0
214 18 11 0.06 7.583678497308878 2.5241363607823146 15.305778137367332 0 0 0
208 18 19 -0.35 5.643177038401929 4.913341589194811 14.718307847203821 0 0 0
464 39 11 0.06 10.224654631956863 3.2718703961467117 13.79444086457481 0 0 0
768 74 26 -0.39 12.12146146968068 1.0357132235769575 14.34967515256849 0 0 0
430 36 11 0.06 12.123036855718476 5.805869969115477 15.190108534397709 0 0 0
429 36 11 0.06 13.145796733178566 3.7506444881090717 13.322822521342477 0 0 0
469 40 9 0.52 15.318115018024507 1.745862475336909 13.769680343852418 0 0 0
467 39 11 0.06 18.22611169244857 2.38020516916064 13.775520397331947 0 0 0
468 39 11 0.06 18.226111692448548 2.380205169160664 13.775520397331924 0 0 0
410 35 20 -0.5 1.067321229620271 7.026484110618602 12.963251867474973 0 0 0
270 23 1 0.22 3.9697480620339136 7.060429241760492 13.484084286516632 0 0 0
128 11 11 0.06 1.8537929844820102 6.688364390913223 15.815940311797052 0 0 0
125 11 1 0.22 1.8686133481416127 6.710688266674165 15.811144200954299 0 0 0
127 11 11 0.06 1.8779965591309136 6.717019146973069 15.83786372381331 0 0 0
206 18 20 -0.5 5.642966674795955 4.913042173881119 14.71844318837986 0 0 0
269 23 1 0.22 7.096161736499499 7.472943993154209 14.242844280933575 0 0 0
458 39 20 -0.5 8.732923732128775 5.257555935909067 15.439108818527517 0 0 0
460 39 19 -0.35 8.732496685193873 5.258363962705936 15.438074161837198 0 0 0
465 39 11 0.06 10.224654631956868 3.2718703961467184 13.794440864574813 0 0 0
80 7 11 0.06 15.026153996445656 6.734839441518958 13.346345591753423 0 0 0
424 36 19 -0.35 16.08366255846094 4.720538390459121 15.315997921602 0 0 0
422 36 20 -0.5 16.071906531536495 4.723203462277303 15.304293177340389 0 0 0
79 7 11 0.06 15.267162571121938 7.608535140003879 13.350744929015445 0 0 0
407 34 11 0.06 19.286099518445482 9.237264428784814 12.005040887236929 -1 0 0
409 35 9 0.52 19.836224015530238 8.681916414778184 14.883438730936236 -1 0 0
265 23 9 0.52 4.807979756583871 7.503913707905118 15.98264781934192 0 0 0
271 23 11 0.06 7.158255250801033 7.450223765444802 14.234421510729133 0 0 0
267 23 19 -0.35 6.891244542245623 7.571555958103683 14.178666167390162 0 0 0
455 38 11 0.06 10.037082726826974 7.922469681831936 15.140324864160828 0 0 0
457 39 9 0.52 8.775290271926057 9.593402652443967 13.01651159414517 0 0 0
74 7 20 -0.5 12.341731523601688 8.005575260509321 13.222748105595011 0 0 0
71 6 11 0.06 10.916293366268455 11.498473550024507 12.093962621005844 0 0 0
456 38 11 0.06 10.037082726826974 7.922469681831938 15.140324864160828 0 0 0
76 7 19 -0.35 12.391234825362856 8.354207644101407 13.376365666542728 0 0 0
73 7 9 0.52 12.802214857247698 8.838532891012086 14.528487321468798 0 0 0
75 7 19 -0.35 14.438440323487713 7.521150970477691 13.259900488045325 0 0 0
77 7 1 0.22 15.257381197751265 7.638369000184368 13.299403096689849 0 0 0
221 19 1 0.22 18.08197711948024 6.7444123996427185 13.107714303483373 0 0 0
219 19 19 -0.35 18.10242708281525 6.748153147893724 13.146784490684409 0 0 0
223 19 11 0.06 18.088274188610534 6.6638849988568145 13.099729672566188 0 0 0
215 18 11 0.06 16.338654266355128 9.624064085459667 11.2611907669145 0 0 0
217 19 9 0.52 16.240950757420027 10.300953390590587 14.168245500907418 0 0 0
222 19 1 0.22 17.92990139567362 11.87060228095513 12.441956391815879 0 0 0
411 35 19 -0.35 0.7895408550049136 11.25360622129401 13.824151303484735 0 0 0
413 35 1 0.22 0.6955803655008639 11.235144233409954 13.710243848089698 0 0 0
415 35 11 0.06 0.802249975072267 11.266031357664993 13.81331360240362 0 0 0
559 47 11 0.06 2.7462675460728496 9.529017484614098 15.275146956204562 0 0 0
553 47 19 -0.35 4.684498690148934 13.77369279995749 13.94266412587079 0 0 0
555 47 2 0.22 5.226369199177771 11.021064647641087 14.356868062701162 0 0 0
459 39 19 -0.35 7.797178674355337 10.006545970652205 15.692392355557896 0 0 0
463 39 11 0.06 7.728012302794317 9.956687518349858 15.76490592386434 0 0 0
461 39 1 0.22 7.857519447576017 9.921598842460686 15.753573527012898 0 0 0
224 19 11 0.06 12.886617155443382 13.459170068599365 13.080307145562026 0 0 0
218 19 20 -0.5 16.012529100989664 10.24927282316762 14.54309463522321 0 0 0
759 73 26 -0.39 15.361402683585778 14.529108112797111 14.407069018012132 0 0 0
728 64 11 0.06 18.501098908025735 11.264501339832343 15.712229897005452 0 0 0
364 31 19 -0.35 0.3514766586997186 13.523614663474662 15.95548789563499 0 0 0
368 31 11 0.06 1.1771076163677712 14.141025156355798 13.165707871832769 0 0 0
370 31 11 0.06 0.3510895832879003 13.516808535611228 15.954453961360446 0 0 0
369 31 11 0.06 1.1771076281551274 14.141025159129311 13.165707932279558 0 0 0
552 47 20 -0.5 4.613747634278145 13.811596340457434 13.89331797330321 0 0 0
551 47 9 0.52 4.675089195072778 13.80658187987261 13.912557369939348 0 0 0
631 55 9 0.52 8.50885803246528 12.452984520061724 13.552615061770078 0 0 0
536 45 11 0.06 10.198286089561336 14.571008200406785 12.075387757923126 0 0 0
760 73 26 -0.39 15.375509016999613 14.53291203650253 14.352464703706245 0 0 0
309 26 11 0.06 12.792413680875867 16.102948475157653 14.454031468427184 0 0 0
757 73 27 1.34 15.36577719127971 14.534291017614002 14.38711270477833 0 0 0
761 73 26 -0.39 15.339742460037106 14.527056885230188 14.404902718582152 0 0 0
758 73 26 -0.39 15.300486199769285 14.573044316645591 14.38687749648879 0 0 0
762 73 26 -0.39 15.334925983743535 14.539869617294107 14.353768492384283 0 0 0
724 64 19 -0.35 18.31598553444469 14.461872348324452 13.968134567274435 0 0 0
729 64 11 0.06 18.256228774544006 14.588815810304991 13.602055205780694 0 0 0
730 64 11 0.06 18.25622877454401 14.588815810304986 13.602055205780688 0 0 0
719 63 11 0.06 17.405979003169136 16.67411235834315 11.521406850765748 0 0 0
362 31 20 -0.5 19.99506343811486 16.631206271959556 15.163449180497185 -1 0 0
562 48 20 -0.5 2.620834081574316 15.385111777102269 15.478178918955809 0 0 0
561 48 9 0.52 4.932236107411743 16.5926368675579 12.997494442632624 0 0 0
404 34 11 0.06 6.930746480462955 14.533420382298607 12.123862794941198 0 0 0
630 54 11 0.06 8.197842624671704 15.563798207099866 14.640117426892266 0 0 0
621 54 9 0.52 10.722396167512949 17.985552258735886 15.4014582222603 0 0 0
308 26 11 0.06 12.792413686746267 16.1029487230273 14.454031542291542 0 0 0
720 63 11 0.06 17.40597900316919 16.674112358342875 11.521406850765606 0 0 0
725 64 2 0.22 17.111066003618117 16.960229481063323 14.4832191984917 0 0 0
197 17 1 0.22 19.046749355844167 18.952785959202007 12.505927745774839 -1 0 0
67 6 11 0.06 1.7979845952583262 19.025022951920107 15.178923169460209 0 0 0
198 17 1 0.22 18.029812968414173 19.742640044891992 15.154705458547289 -1 0 0
64 6 19 -0.35 4.698712466661639 18.883694494207226 16.244407073464867 0 0 0
63 6 19 -0.35 3.951549132511635 18.64997881454758 15.639660262373697 0 0 0
61 6 9 0.52 4.659158162595663 18.7863909621718 16.0661590670955 0 0 0
65 6 1 0.22 1.8097029809910978 19.023566961537814 15.16437049047564 0 0 0
62 6 20 -0.5 4.678518843970126 18.78743282716288 16.04822786215793 0 0 0
620 53 11 0.06 14.114262671292591 18.863032937954625 14.898531232838595 0 0 0
767 74 26 -0.39 12.155447130325966 1.085054494782413 14.402212006883232 0 0 0
733 67 31 1 15.763680766459242 19.40025663800171 17.291167010407626 -1 -1 0
93 8 11 0.06 2.5300073712354996 1.3138926077868136 16.96555107363374 0 0 0
91 8 11 0.06 8.7140309300286 2.40480786160123 18.06690505050557 0 0 0
95 8 11 0.06 6.019066909475722 1.1548011583160032 17.701113680626555 0 0 0
98 9 20 -0.5 4.775493583218025 3.2680752233942476 19.41816167386977 0 0 0
92 8 11 0.06 8.714030930032273 2.404807861603313 18.066905050503422 0 0 0
94 8 11 0.06 6.019066909469134 1.1548011583189077 17.70111368062762 0 0 0
769 74 26 -0.39 12.124382956974596 1.0911083259693464 14.429356140323884 0 0 0
96 8 11 0.06 6.019066909468696 1.1548011583190414 17.701113680627728 0 0 0
99 9 19 -0.35 1.786978785440175 3.5982108230064274 15.146442283295645 0 0 0
100 9 19 -0.35 4.800479518838838 3.359911159136481 19.484705629118505 0 0 0
419 35 11 0.06 13.86177233275056 2.8901955371591237 16.10568240411605 0 0 0
420 35 11 0.06 13.861772332750562 2.890195537159124 16.105682404116045 0 0 0
425 36 1 0.22 15.29651814650582 3.0861163473404094 18.71466998617298 0 0 0
423 36 19 -0.35 15.327630479008736 3.0986236975520756 18.719272942253742 0 0 0
470 40 20 -0.5 16.6880834264595 2.004790152353228 16.306032877753683 0 0 0
472 40 19 -0.35 19.07172203102038 4.829983458204426 15.238526055490945 0 0 0
477 40 11 0.06 19.663250171176745 1.8834670852584183 16.35617312468094 0 0 0
478 40 11 0.06 19.075984125134056 4.834280285894459 15.238839732108437 0 0 0
476 40 11 0.06 19.66325016179885 1.8834670128386086 16.356173153779288 0 0 0
130 11 11 0.06 0.57067175141051 4.298003722505248 17.847174586912576 0 0 0
126 11 1 0.22 1.2905284690425622 3.7447961420639793 18.07990632836521 0 0 0
129 11 11 0.06 1.8747449548664892 6.723988738516405 15.814079775985705 0 0 0
123 11 19 -0.35 1.9778168298276761 6.413859960116899 16.080276008072843 0 0 0
124 11 19 -0.35 0.5854617387128501 4.325298551725239 17.7929735072636 0 0 0
121 11 9 0.52 3.7264252967462634 4.7721262651304075 17.079934013045097 0 0 0
122 11 20 -0.5 3.774022440639441 4.759989477738599 17.03731103353228 0 0 0
12 1 11 0.06 6.688079559631319 4.511361524191524 17.479673266795558 0 0 0
466 39 11 0.06 11.027665805014188 3.514215011507041 16.645946978980767 0 0 0
11 1 11 0.06 6.688079559631325 4.51136152419153 17.47967326679555 0 0 0
14 2 20 -0.5 8.014493477281096 4.405045815494648 0.1585180095745534 0 0 1
485 41 1 0.22 12.650255645136937 8.124275612106945 18.266096848925677 0 0 0
480 40 11 0.06 14.555155208251565 7.128475860391622 16.231378417389212 0 0 0
421 36 9 0.52 16.16002368659296 4.778354995347487 17.081805493692414 0 0 0
489 41 11 0.06 17.480385846917876 7.243764400516457 16.0295364807369 0 0 0
414 35 1 0.22 19.77870219859625 8.671242614547635 14.904493713048502 -1 0 0
266 23 20 -0.5 4.808345501175616 7.510539547163074 16.04871014459987 0 0 0
268 23 19 -0.35 4.760244183908832 7.479891527219549 15.979489644625302 0 0 0
263 22 11 0.06 7.551344220250761 7.34695141736152 17.21519663175512 0 0 0
264 22 11 0.06 7.551344220250759 7.34695141736152 17.215196631755116 0 0 0
58 5 11 0.06 5.354237791375726 11.059832390608376 17.33555288299111 0 0 0
510 43 1 0.22 10.42718804066448 6.251030845896032 17.6157346104875 0 0 0
509 43 1 0.22 9.854361724115423 9.156758895742414 17.81256321858899 0 0 0
511 43 11 0.06 9.827484990130449 9.143260659839173 17.889372836481556 0 0 0
507 43 19 -0.35 9.845836617750013 9.161515114085622 17.929934355906923 0 0 0
78 7 1 0.22 13.211048128694108 9.505308155183153 15.139959006999277 0 0 0
505 43 9 0.52 10.94881317318827 11.938884067640108 0.20957080539198353 0 0 1
7 1 11 0.06 0.793097473852129 10.328537876024436 17.400605009606675 0 0 0
9 1 11 0.06 0.8078894181167922 10.380508329793733 17.391387344665876 0 0 0
6 1 1 0.22 1.831081545014628 12.949060893573932 18.539128143709604 0 0 0
60 5 11 0.06 5.34930376892329 11.034837550098068 17.346402687048673 0 0 0
56 5 11 0.06 8.183871483869057 11.619605078036047 18.186099961811788 0 0 0
57 5 11 0.06 8.25682469726212 11.632477247000029 18.253783400748723 0 0 0
55 5 11 0.06 8.180700837382613 11.610655570963925 18.209725187048612 0 0 0
504 42 11 0.06 10.587271667917474 10.871960673665601 15.000494397247374 0 0 0
503 42 11 0.06 10.587271667917475 10.8719606736656 15.000494397247378 0 0 0
513 43 11 0.06 14.813912382351992 10.014210791289653 17.512726785430157 0 0 0
508 43 19 -0.35 11.033667360580777 11.358533117249264 19.455632307596762 0 0 0
10 1 11 0.06 1.7645937988528315 12.971353597484633 18.527625577176366 0 0 0
42 4 1 0.22 3.059937158086507 12.373085510865364 15.959594797912537 0 0 0
41 4 1 0.22 4.6314850789314 13.932488763730259 17.983006089482963 0 0 0
59 5 11 0.06 5.346589556374836 11.078186263491466 17.3687714685054 0 0 0
554 47 19 -0.35 4.6736043879396885 13.825357260578484 13.966656488871893 0 0 0
44 4 11 0.06 4.648703197769614 13.925401633720877 17.989056023340087 0 0 0
627 54 11 0.06 10.653344519293151 13.938876249567992 14.964247978414445 0 0 0
629 54 11 0.06 8.197842624672855 15.563798207099477 14.640117426892177 0 0 0
625 54 2 0.22 9.776633183171723 14.714884044667269 15.038338424360644 0 0 0
624 54 19 -0.35 8.20821814346578 15.557889462209992 14.639042445417816 0 0 0
623 54 19 -0.35 10.653100427148159 13.97425642973444 14.967151942860163 0 0 0
514 43 11 0.06 12.056750180708926 11.10804746497263 17.57550905366269 0 0 0
300 25 11 0.06 13.24088646577756 13.560830002181138 16.37380351584939 0 0 0
299 25 11 0.06 13.24088646577756 13.560830002181138 16.37380351584939 0 0 0
722 64 20 -0.5 17.80733598718788 14.907078648022438 16.538283156088674 0 0 0
359 30 11 0.06 0.8297838064617109 15.706967760879394 17.890644081458436 0 0 0
360 30 11 0.06 0.8297838064616916 15.706967760879364 17.89064408145843 0 0 0
361 31 9 0.52 0.5026114512379827 18.66797923388894 17.819042697373018 0 0 0
363 31 19 -0.35 18.37453566981893 17.984327327830627 17.886779041466493 -1 0 0
365 31 1 0.22 18.47404634348442 17.705944453653775 17.365520533689427 -1 0 0
556 47 2 0.22 5.500509454398825 15.831202198214747 15.840707056129686 0 0 0
560 47 11 0.06 5.5129838753356015 15.88291588617452 15.873340562007787 0 0 0
132 11 11 0.06 7.63257209905593 18.560272314774366 15.6540417511364 0 0 0
131 11 11 0.06 7.6325720990424095 18.560272314772423 15.654041751145016 0 0 0
134 12 20 -0.5 9.06388977942571 16.48343890304661 17.381430265149234 0 0 0
310 26 11 0.06 12.013628164770061 16.10606517969043 17.340925614192642 0 0 0
611 53 9 0.52 12.681585879789491 19.99544240370863 17.277034240088373 0 0 0
612 53 20 -0.5 12.780167605473194 0.2906087117071063 17.2073963307065 0 1 0
302 26 20 -0.5 14.851025012202747 16.537271110855414 16.60454430538338 0 0 0
304 26 19 -0.35 12.026321506338787 16.10925295414882 17.33255697046794 0 0 0
726 64 2 0.22 17.11403478963392 16.966701614540554 14.518676066380113 0 0 0
301 26 9 0.52 14.838220991049647 16.48442251169779 16.62422950512259 0 0 0
721 64 9 0.52 17.77324399358443 14.924549256607461 16.484748242808692 0 0 0
723 64 19 -0.35 16.969362860947648 17.054361697033418 14.60676028025543 0 0 0
366 31 1 0.22 1.2859641630895577 18.573118078131664 18.109277210697865 0 0 0
68 6 11 0.06 1.8227909817657888 19.013352740876044 15.19545796734473 0 0 0
66 6 1 0.22 6.412753461694876 17.56733044196235 18.17495980410297 0 0 0
70 6 11 0.06 6.468551690180479 18.073583876444264 18.337286777052306 0 0 0
614 53 19 -0.35 12.82961506533463 19.50654022221512 16.83878797628411 0 0 0
616 53 2 0.22 14.0296196141586 18.80556763310388 14.965512552792545 0 0 0
622 54 20 -0.5 9.91082564355541 0.37696526088148485 16.237851756322684 0 1 0
727 64 11 0.06 16.961477172659237 17.05950824949191 14.580048680327412 0 0 0
18 2 1 0.22 5.153109532071346 6.696621331569014 18.808927430522726 0 0 0
516 43 11 0.06 11.218556880480033 1.5544506154353512 19.425528815151907 0 0 -1
427 36 11 0.06 15.518728452086592 3.2570185651003603 19.522254103501332 0 0 0
426 36 1 0.22 17.61340805326494 4.692780158166753 17.80753744945197 0 0 0
13 2 9 0.52 6.903504668883302 5.213454278967186 0.38571257278573867 0 0 1
15 2 19 -0.35 8.586545191618885 7.165318272502504 0.04125685762588012 0 0 1
17 2 1 0.22 8.709816770136966 7.2741932847893445 19.948835493336 0 0 0
16 2 19 -0.35 8.002118048523448 4.415363571908313 0.16341449172689876 0 0 1
483 41 19 -0.35 12.63033085220308 8.12613830884947 18.27109458459052 0 0 0
486 41 1 0.22 13.17645869650391 5.15843231612999 17.906609743472114 0 0 0
20 2 11 0.06 10.679006703976524 5.743966037519393 0.4416422765793089 0 0 1
487 41 11 0.06 12.622894679519217 8.169435954845062 18.24239783416329 0 0 0
479 40 11 0.06 14.555155208251566 7.128475860391618 16.231378417389212 0 0 0
481 41 9 0.52 13.618030131234352 5.514165665548585 18.5383343246426 0 0 0
482 41 20 -0.5 16.421421984588555 7.0799687788735 19.09618383700511 0 0 0
682 60 20 -0.5 19.771889728367253 7.472030165266112 17.918151331441628 -1 0 -1
273 23 11 0.06 3.3592933133816407 8.992613472817835 18.147179117348752 0 0 0
274 23 11 0.06 6.474719125184392 9.16047948198994 19.31632153373072 0 0 0
19 2 11 0.06 8.732770806386704 7.30633859720198 19.981634354969394 0 0 0
484 41 19 -0.35 16.17742281916607 7.247958922703643 18.751022393752685 0 0 0
490 41 11 0.06 17.673426337985028 9.530921665017841 17.92749166208329 0 0 0
488 41 11 0.06 17.48038408734799 7.243774922505055 16.02952925312398 0 0 0
5 1 1 0.22 0.7964349905001593 10.367611712459384 17.417908658374554 0 0 0
8 1 11 0.06 0.5349367001932195 10.382095345195786 17.682979746942074 0 0 0
3 1 19 -0.35 3.3987978746638214 11.150883944275712 0.21009151202793538 0 0 1
4 1 19 -0.35 2.7811146297025022 11.82980293051733 19.116706017452962 0 0 0
272 23 11 0.06 3.3592933133816003 8.992613472817863 18.14717911734877 0 0 0
1 1 9 0.52 3.374065730631915 11.150910632950698 0.2232994790876934 0 0 1
2 1 20 -0.5 3.3416705119310124 11.142332930110044 0.26181716233858876 0 0 1
54 5 1 0.22 5.3317598938136355 11.099148926083453 17.345290986081025 0 0 0
51 5 19 -0.35 8.163139265322402 11.647081720327996 18.19796030565487 0 0 0
52 5 19 -0.35 5.323029302874167 11.114106480347278 17.368853979285966 0 0 0
53 5 1 0.22 8.116452663633199 11.6239615773005 18.157795586792375 0 0 0
748 71 26 -0.39 6.245651228488275 11.982454562963966 0.47631052614530234 0 0 0
634 55 19 -0.35 10.229003660560512 13.791149641397265 17.916669003411833 0 0 0
632 55 20 -0.5 10.232695557518948 13.784985941616785 17.91115615961275 0 0 0
506 43 20 -0.5 10.951910250985142 11.93883333131533 0.23560510832076015 0 0 1
512 43 11 0.06 14.813912382369411 10.014210791298039 17.51272678542173 0 0 0
333 28 11 0.06 13.468618605724101 13.06738735128152 19.27635570307255 0 0 -1
332 28 11 0.06 18.687993775306396 13.232562023430264 18.985176643029618 0 0 -1
43 4 11 0.06 4.596499618165515 13.934202444465331 18.005699013591787 0 0 0
746 71 26 -0.39 6.320624348230741 12.01210697586289 0.5393600200025632 0 0 0
50 5 20 -0.5 7.4493117536109 14.449493569435608 18.83775789330371 0 0 0
633 55 19 -0.35 10.229392395793942 13.791402189630361 17.916975626927062 0 0 0
138 12 1 0.22 6.913826367968256 13.046714893110176 15.77626248922815 0 0 0
626 54 2 0.22 9.783602470741085 14.668904256012468 15.07695593733157 0 0 0
628 54 11 0.06 10.652511145934403 13.936736253745 14.964246359294618 0 0 0
306 26 1 0.22 15.977134356175739 12.522147452158329 16.481086677212264 0 0 0
303 26 19 -0.35 15.448125389010741 15.591540879281625 18.238597891890215 0 0 0
305 26 1 0.22 15.72464630069306 14.765619300179361 18.63474476285616 0 0 0
307 26 11 0.06 15.793917287707233 14.622015404044166 18.675657174986476 0 0 0
45 4 11 0.06 4.607455340373929 13.943664893917003 17.95439364053009 0 0 0
47 4 11 0.06 3.6088613555510376 16.74646318989747 17.987544965598552 0 0 0
46 4 11 0.06 4.276752472284406 14.210046040416398 0.952656247523907 0 0 1
133 12 9 0.52 9.055568033295495 16.50838415880827 17.38924367504205 0 0 0
49 5 9 0.52 7.44541243070743 14.435456384061439 18.806238084013202 0 0 0
136 12 19 -0.35 9.052600355105806 16.50033114007816 17.34014927958665 0 0 0
135 12 19 -0.35 9.4858918203111 17.678162115839633 18.060803213537458 0 0 0
140 12 11 0.06 10.692395729397997 18.216570993376198 19.22084950269027 0 0 0
137 12 1 0.22 10.102437421751986 18.859248105699393 18.77215868904054 0 0 0
139 12 11 0.06 10.692353932236221 18.21654005755787 19.21914648643411 0 0 0
617 53 11 0.06 13.665418826512385 17.83823841375215 19.10729820583529 0 0 0
613 53 19 -0.35 12.774699188366858 19.449088170602693 17.463796809211345 0 0 0
618 53 11 0.06 13.665418793056746 17.838238498434965 19.107298211204665 0 0 0
615 53 2 0.22 13.667084496219735 18.047477713801985 18.917646897468863 0 0 0
619 53 11 0.06 14.031106814215185 0.6870007900855468 19.87101716537623 0 1 0
367 31 11 0.06 17.909595065133026 17.49920284966385 17.940701030207986 -1 0 0

Velocities

432 0 0 0
431 0 0 0
437 0 0 0
435 0 0 0
439 0 0 0
523 0 0 0
519 0 0 0
521 0 0 0
517 0 0 0
739 0 0 0
441 0 0 0
438 0 0 0
433 0 0 0
262 0 0 0
515 0 0 0
518 0 0 0
525 0 0 0
742 0 0 0
680 0 0 0
85 0 0 0
87 0 0 0
88 0 0 0
377 0 0 0
520 0 0 0
526 0 0 0
524 0 0 0
330 0 0 0
331 0 0 0
676 0 0 0
681 0 0 0
674 0 0 0
671 0 0 0
378 0 0 0
375 0 0 0
379 0 0 0
187 0 0 0
185 0 0 0
189 0 0 0
327 0 0 0
329 0 0 0
323 0 0 0
325 0 0 0
109 0 0 0
672 0 0 0
744 0 0 0
743 0 0 0
747 0 0 0
188 0 0 0
745 0 0 0
186 0 0 0
190 0 0 0
184 0 0 0
324 0 0 0
326 0 0 0
328 0 0 0
334 0 0 0
107 0 0 0
643 0 0 0
48 0 0 0
248 0 0 0
749 0 0 0
595 0 0 0
593 0 0 0
642 0 0 0
639 0 0 0
598 0 0 0
641 0 0 0
637 0 0 0
635 0 0 0
638 0 0 0
594 0 0 0
591 0 0 0
589 0 0 0
587 0 0 0
588 0 0 0
596 0 0 0
522 0 0 0
590 0 0 0
592 0 0 0
436 0 0 0
442 0 0 0
434 0 0 0
440 0 0 0
259 0 0 0
255 0 0 0
253 0 0 0
252 0 0 0
251 0 0 0
738 0 0 0
741 0 0 0
86 0 0 0
89 0 0 0
84 0 0 0
90 0 0 0
381 0 0 0
256 0 0 0
254 0 0 0
261 0 0 0
737 0 0 0
736 0 0 0
740 0 0 0
584 0 0 0
83 0 0 0
81 0 0 0
372 0 0 0
371 0 0 0
260 0 0 0
147 0 0 0
585 0 0 0
580 0 0 0
586 0 0 0
673 0 0 0
373 0 0 0
547 0 0 0
295 0 0 0
291 0 0 0
293 0 0 0
294 0 0 0
183 0 0 0
181 0 0 0
182 0 0 0
104 0 0 0
106 0 0 0
101 0 0 0
110 0 0 0
108 0 0 0
735 0 0 0
576 0 0 0
22 0 0 0
675 0 0 0
677 0 0 0
679 0 0 0
678 0 0 0
288 0 0 0
287 0 0 0
289 0 0 0
102 0 0 0
103 0 0 0
105 0 0 0
384 0 0 0
734 0 0 0
242 0 0 0
244 0 0 0
250 0 0 0
249 0 0 0
297 0 0 0
298 0 0 0
290 0 0 0
292 0 0 0
296 0 0 0
391 0 0 0
394 0 0 0
383 0 0 0
388 0 0 0
392 0 0 0
236 0 0 0
636 0 0 0
640 0 0 0
644 0 0 0
646 0 0 0
38 0 0 0
716 0 0 0
710 0 0 0
712 0 0 0
707 0 0 0
709 0 0 0
708 0 0 0
715 0 0 0
711 0 0 0
713 0 0 0
257 0 0 0
645 0 0 0
718 0 0 0
717 0 0 0
597 0 0 0
693 0 0 0
258 0 0 0
687 0 0 0
683 0 0 0
685 0 0 0
684 0 0 0
689 0 0 0
690 0 0 0
664 0 0 0
670 0 0 0
752 0 0 0
753 0 0 0
602 0 0 0
756 0 0 0
750 0 0 0
601 0 0 0
688 0 0 0
686 0 0 0
380 0 0 0
382 0 0 0
149 0 0 0
146 0 0 0
150 0 0 0
501 0 0 0
494 0 0 0
496 0 0 0
500 0 0 0
692 0 0 0
82 0 0 0
374 0 0 0
376 0 0 0
143 0 0 0
145 0 0 0
148 0 0 0
492 0 0 0
491 0 0 0
502 0 0 0
578 0 0 0
575 0 0 0
28 0 0 0
23 0 0 0
25 0 0 0
543 0 0 0
545 0 0 0
541 0 0 0
546 0 0 0
312 0 0 0
317 0 0 0
315 0 0 0
318 0 0 0
319 0 0 0
581 0 0 0
577 0 0 0
579 0 0 0
583 0 0 0
26 0 0 0
21 0 0 0
24 0 0 0
30 0 0 0
316 0 0 0
321 0 0 0
314 0 0 0
311 0 0 0
313 0 0 0
389 0 0 0
582 0 0 0
393 0 0 0
241 0 0 0
239 0 0 0
247 0 0 0
243 0 0 0
245 0 0 0
240 0 0 0
402 0 0 0
320 0 0 0
39 0 0 0
390 0 0 0
40 0 0 0
387 0 0 0
385 0 0 0
450 0 0 0
386 0 0 0
345 0 0 0
246 0 0 0
232 0 0 0
238 0 0 0
237 0 0 0
403 0 0 0
401 0 0 0
35 0 0 0
37 0 0 0
36 0 0 0
33 0 0 0
534 0 0 0
535 0 0 0
340 0 0 0
346 0 0 0
344 0 0 0
714 0 0 0
227 0 0 0
230 0 0 0
229 0 0 0
668 0 0 0
604 0 0 0
608 0 0 0
609 0 0 0
599 0 0 0
600 0 0 0
606 0 0 0
605 0 0 0
603 0 0 0
607 0 0 0
159 0 0 0
732 0 0 0
694 0 0 0
120 0 0 0
111 0 0 0
691 0 0 0
112 0 0 0
669 0 0 0
662 0 0 0
755 0 0 0
659 0 0 0
661 0 0 0
751 0 0 0
276 0 0 0
275 0 0 0
157 0 0 0
118 0 0 0
113 0 0 0
141 0 0 0
142 0 0 0
144 0 0 0
660 0 0 0
665 0 0 0
286 0 0 0
280 0 0 0
284 0 0 0
285 0 0 0
278 0 0 0
540 0 0 0
539 0 0 0
550 0 0 0
544 0 0 0
542 0 0 0
498 0 0 0
493 0 0 0
495 0 0 0
497 0 0 0
499 0 0 0
569 0 0 0
27 0 0 0
162 0 0 0
161 0 0 0
170 0 0 0
164 0 0 0
166 0 0 0
453 0 0 0
452 0 0 0
448 0 0 0
444 0 0 0
564 0 0 0
563 0 0 0
568 0 0 0
573 0 0 0
29 0 0 0
180 0 0 0
169 0 0 0
322 0 0 0
657 0 0 0
649 0 0 0
647 0 0 0
654 0 0 0
651 0 0 0
655 0 0 0
446 0 0 0
653 0 0 0
443 0 0 0
445 0 0 0
447 0 0 0
449 0 0 0
574 0 0 0
702 0 0 0
656 0 0 0
650 0 0 0
652 0 0 0
528 0 0 0
336 0 0 0
451 0 0 0
731 0 0 0
695 0 0 0
698 0 0 0
228 0 0 0
697 0 0 0
397 0 0 0
399 0 0 0
395 0 0 0
34 0 0 0
31 0 0 0
396 0 0 0
32 0 0 0
531 0 0 0
533 0 0 0
529 0 0 0
527 0 0 0
335 0 0 0
337 0 0 0
338 0 0 0
160 0 0 0
705 0 0 0
704 0 0 0
700 0 0 0
231 0 0 0
233 0 0 0
235 0 0 0
234 0 0 0
610 0 0 0
754 0 0 0
151 0 0 0
152 0 0 0
153 0 0 0
154 0 0 0
156 0 0 0
155 0 0 0
119 0 0 0
114 0 0 0
116 0 0 0
347 0 0 0
349 0 0 0
348 0 0 0
354 0 0 0
351 0 0 0
353 0 0 0
355 0 0 0
770 0 0 0
277 0 0 0
279 0 0 0
282 0 0 0
281 0 0 0
115 0 0 0
117 0 0 0
213 0 0 0
204 0 0 0
663 0 0 0
667 0 0 0
666 0 0 0
570 0 0 0
474 0 0 0
471 0 0 0
473 0 0 0
416 0 0 0
412 0 0 0
418 0 0 0
548 0 0 0
549 0 0 0
203 0 0 0
210 0 0 0
209 0 0 0
205 0 0 0
207 0 0 0
211 0 0 0
567 0 0 0
571 0 0 0
565 0 0 0
428 0 0 0
475 0 0 0
417 0 0 0
408 0 0 0
174 0 0 0
172 0 0 0
171 0 0 0
163 0 0 0
165 0 0 0
168 0 0 0
454 0 0 0
566 0 0 0
216 0 0 0
572 0 0 0
176 0 0 0
179 0 0 0
178 0 0 0
173 0 0 0
175 0 0 0
177 0 0 0
557 0 0 0
167 0 0 0
558 0 0 0
648 0 0 0
462 0 0 0
72 0 0 0
226 0 0 0
220 0 0 0
225 0 0 0
699 0 0 0
701 0 0 0
703 0 0 0
658 0 0 0
405 0 0 0
537 0 0 0
532 0 0 0
538 0 0 0
763 0 0 0
696 0 0 0
192 0 0 0
202 0 0 0
201 0 0 0
398 0 0 0
400 0 0 0
406 0 0 0
530 0 0 0
339 0 0 0
341 0 0 0
343 0 0 0
342 0 0 0
706 0 0 0
195 0 0 0
193 0 0 0
357 0 0 0
196 0 0 0
191 0 0 0
194 0 0 0
200 0 0 0
283 0 0 0
158 0 0 0
199 0 0 0
69 0 0 0
352 0 0 0
356 0 0 0
350 0 0 0
358 0 0 0
765 0 0 0
764 0 0 0
766 0 0 0
212 0 0 0
97 0 0 0
214 0 0 0
208 0 0 0
464 0 0 0
768 0 0 0
430 0 0 0
429 0 0 0
469 0 0 0
467 0 0 0
468 0 0 0
410 0 0 0
270 0 0 0
128 0 0 0
125 0 0 0
127 0 0 0
206 0 0 0
269 0 0 0
458 0 0 0
460 0 0 0
465 0 0 0
80 0 0 0
424 0 0 0
422 0 0 0
79 0 0 0
407 0 0 0
409 0 0 0
265 0 0 0
271 0 0 0
267 0 0 0
455 0 0 0
457 0 0 0
74 0 0 0
71 0 0 0
456 0 0 0
76 0 0 0
73 0 0 0
75 0 0 0
77 0 0 0
221 0 0 0
219 0 0 0
223 0 0 0
215 0 0 0
217 0 0 0
222 0 0 0
411 0 0 0
413 0 0 0
415 0 0 0
559 0 0 0
553 0 0 0
555 0 0 0
459 0 0 0
463 0 0 0
461 0 0 0
224 0 0 0
218 0 0 0
759 0 0 0
728 0 0 0
364 0 0 0
368 0 0 0
370 0 0 0
369 0 0 0
552 0 0 0
551 0 0 0
631 0 0 0
536 0 0 0
760 0 0 0
309 0 0 0
757 0 0 0
761 0 0 0
758 0 0 0
762 0 0 0
724 0 0 0
729 0 0 0
730 0 0 0
719 0 0 0
362 0 0 0
562 0 0 0
561 0 0 0
404 0 0 0
630 0 0 0
621 0 0 0
308 0 0 0
720 0 0 0
725 0 0 0
197 0 0 0
67 0 0 0
198 0 0 0
64 0 0 0
63 0 0 0
61 0 0 0
65 0 0 0
62 0 0 0
620 0 0 0
767 0 0 0
733 0 0 0
93 0 0 0
91 0 0 0
95 0 0 0
98 0 0 0
92 0 0 0
94 0 0 0
769 0 0 0
96 0 0 0
99 0 0 0
100 0 0 0
419 0 0 0
420 0 0 0
425 0 0 0
423 0 0 0
470 0 0 0
472 0 0 0
477 0 0 0
478 0 0 0
476 0 0 0
130 0 0 0
126 0 0 0
129 0 0 0
123 0 0 0
124 0 0 0
121 0 0 0
122 0 0 0
12 0 0 0
466 0 0 0
11 0 0 0
14 0 0 0
485 0 0 0
480 0 0 0
421 0 0 0
489 0 0 0
414 0 0 0
266 0 0 0
268 0 0 0
263 0 0 0
264 0 0 0
58 0 0 0
510 0 0 0
509 0 0 0
511 0 0 0
507 0 0 0
78 0 0 0
505 0 0 0
7 0 0 0
9 0 0 0
6 0 0 0
60 0 0 0
56 0 0 0
57 0 0 0
55 0 0 0
504 0 0 0
503 0 0 0
513 0 0 0
508 0 0 0
10 0 0 0
42 0 0 0
41 0 0 0
59 0 0 0
554 0 0 0
44 0 0 0
627 0 0 0
629 0 0 0
625 0 0 0
624 0 0 0
623 0 0 0
514 0 0 0
300 0 0 0
299 0 0 0
722 0 0 0
359 0 0 0
360 0 0 0
361 0 0 0
363 0 0 0
365 0 0 0
556 0 0 0
560 0 0 0
132 0 0 0
131 0 0 0
134 0 0 0
310 0 0 0
611 0 0 0
612 0 0 0
302 0 0 0
304 0 0 0
726 0 0 0
301 0 0 0
721 0 0 0
723 0 0 0
366 0 0 0
68 0 0 0
66 0 0 0
70 0 0 0
614 0 0 0
616 0 0 0
622 0 0 0
727 0 0 0
18 0 0 0
516 0 0 0
427 0 0 0
426 0 0 0
13 0 0 0
15 0 0 0
17 0 0 0
16 0 0 0
483 0 0 0
486 0 0 0
20 0 0 0
487 0 0 0
479 0 0 0
481 0 0 0
482 0 0 0
682 0 0 0
273 0 0 0
274 0 0 0
19 0 0 0
484 0 0 0
490 0 0 0
488 0 0 0
5 0 0 0
8 0 0 0
3 0 0 0
4 0 0 0
272 0 0 0
1 0 0 0
2 0 0 0
54 0 0 0
51 0 0 0
52 0 0 0
53 0 0 0
748 0 0 0
634 0 0 0
632 0 0 0
506 0 0 0
512 0 0 0
333 0 0 0
332 0 0 0
43 0 0 0
746 0 0 0
50 0 0 0
633 0 0 0
138 0 0 0
626 0 0 0
628 0 0 0
306 0 0 0
303 0 0 0
305 0 0 0
307 0 0 0
45 0 0 0
47 0 0 0
46 0 0 0
133 0 0 0
49 0 0 0
136 0 0 0
135 0 0 0
140 0 0 0
137 0 0 0
139 0 0 0
617 0 0 0
613 0 0 0
618 0 0 0
615 0 0 0
619 0 0 0
367 0 0 0

Bonds

1 4 437 439
2 4 437 440
3 4 437 441
4 7 435 437
5 7 519 521
6 4 521 523
7 4 521 524
8 4 521 525
9 8 517 518
10 7 517 519
11 7 517 520
12 4 438 442
13 4 438 443
14 4 438 444
15 8 433 434
16 7 433 435
17 7 433 436
18 8 85 86
19 7 85 87
20 7 85 88
21 7 87 89
22 7 88 90
23 4 377 379
24 4 377 380
25 4 377 381
26 7 520 522
27 4 330 334
28 4 330 335
29 4 330 336
30 4 676 677
31 4 676 678
32 8 681 682
33 7 681 683
34 7 681 684
35 7 674 675
36 8 671 672
37 7 671 673
38 7 671 674
39 4 378 382
40 4 378 383
41 4 378 384
42 7 375 377
43 4 185 187
44 4 185 188
45 4 185 189
46 7 327 329
47 4 329 331
48 4 329 332
49 4 329 333
50 8 325 326
51 7 325 327
52 7 325 328
53 8 109 110
54 7 109 111
55 7 109 112
56 15 743 744
57 15 743 745
58 15 743 746
59 15 743 747
60 15 743 748
61 15 743 749
62 4 186 190
63 4 186 191
64 4 186 192
65 7 184 186
66 7 328 330
67 7 643 646
68 1 595 596
69 4 595 599
70 4 595 600
71 7 593 596
72 8 641 642
73 7 641 643
74 7 641 644
75 1 635 636
76 4 635 639
77 4 635 640
78 7 594 595
79 8 591 592
80 7 591 593
81 7 591 594
82 4 596 597
83 4 596 598
84 4 522 526
85 4 522 527
86 4 522 528
87 7 436 438
88 7 255 257
89 8 253 254
90 7 253 255
91 7 253 256
92 4 89 91
93 4 89 92
94 4 89 93
95 4 90 94
96 4 90 95
97 4 90 96
98 7 256 258
99 15 736 737
100 15 736 738
101 15 736 739
102 15 736 740
103 15 736 741
104 15 736 742
105 7 584 585
106 7 147 149
107 1 585 586
108 4 585 589
109 4 585 590
110 4 586 587
111 4 586 588
112 7 673 676
113 8 373 374
114 7 373 375
115 7 373 376
116 7 291 293
117 4 293 295
118 4 293 296
119 4 293 297
120 4 294 298
121 4 294 299
122 4 294 300
123 7 183 185
124 8 181 182
125 7 181 183
126 7 181 184
127 4 101 103
128 4 101 104
129 4 101 105
130 4 576 577
131 4 576 578
132 1 675 676
133 4 675 679
134 4 675 680
135 8 289 290
136 7 289 291
137 7 289 292
138 4 102 106
139 4 102 107
140 4 102 108
141 7 244 246
142 7 292 294
143 7 388 390
144 4 636 637
145 4 636 638
146 7 644 645
147 4 646 647
148 4 646 648
149 4 716 717
150 4 716 718
151 1 715 716
152 4 715 719
153 4 715 720
154 8 711 712
155 7 711 713
156 7 711 714
157 7 713 716
158 4 257 259
159 4 257 260
160 4 257 261
161 1 645 646
162 4 645 649
163 4 645 650
164 7 693 696
165 4 258 262
166 4 258 263
167 4 258 264
168 7 683 686
169 1 685 686
170 4 685 689
171 4 685 690
172 7 684 685
173 7 664 665
174 15 750 751
175 15 750 752
176 15 750 753
177 15 750 754
178 15 750 755
179 15 750 756
180 8 601 602
181 7 601 603
182 7 601 604
183 4 686 687
184 4 686 688
185 4 149 151
186 4 149 152
187 4 149 153
188 4 150 154
189 4 150 155
190 4 150 156
191 7 496 498
192 7 376 378
193 8 145 146
194 7 145 147
195 7 145 148
196 7 148 150
197 1 575 576
198 4 575 579
199 4 575 580
200 7 28 30
201 8 25 26
202 7 25 27
203 7 25 28
204 7 543 546
205 1 545 546
206 4 545 549
207 4 545 550
208 8 541 542
209 7 541 543
210 7 541 544
211 4 546 547
212 4 546 548
213 4 317 319
214 4 317 320
215 4 317 321
216 7 315 317
217 4 318 322
218 4 318 323
219 4 318 324
220 8 581 582
221 7 581 583
222 7 581 584
223 7 583 586
224 4 30 34
225 4 30 35
226 4 30 36
227 7 316 318
228 8 313 314
229 7 313 315
230 7 313 316
231 4 389 391
232 4 389 392
233 4 389 393
234 8 241 242
235 7 241 243
236 7 241 244
237 7 243 245
238 4 245 247
239 4 245 248
240 4 245 249
241 4 402 406
242 4 402 407
243 4 402 408
244 7 39 41
245 4 390 394
246 4 390 395
247 4 390 396
248 7 40 42
249 7 387 389
250 8 385 386
251 7 385 387
252 7 385 388
253 4 450 454
254 4 450 455
255 4 450 456
256 4 246 250
257 4 246 251
258 4 246 252
259 7 232 234
260 4 401 403
261 4 401 404
262 4 401 405
263 8 37 38
264 7 37 39
265 7 37 40
266 4 534 538
267 4 534 539
268 4 534 540
269 7 340 342
270 7 714 715
271 8 229 230
272 7 229 231
273 7 229 232
274 7 604 605
275 4 606 607
276 4 606 608
277 1 605 606
278 4 605 609
279 4 605 610
280 7 603 606
281 7 159 161
282 7 694 695
283 7 111 113
284 8 691 692
285 7 691 693
286 7 691 694
287 7 112 114
288 8 661 662
289 7 661 663
290 7 661 664
291 8 157 158
292 7 157 159
293 7 157 160
294 4 113 115
295 4 113 116
296 4 113 117
297 1 665 666
298 4 665 669
299 4 665 670
300 7 280 282
301 7 544 545
302 4 498 502
303 4 498 503
304 4 498 504
305 8 493 494
306 7 493 495
307 7 493 496
308 7 495 497
309 4 497 499
310 4 497 500
311 4 497 501
312 7 27 29
313 4 162 166
314 4 162 167
315 4 162 168
316 4 161 163
317 4 161 164
318 4 161 165
319 7 448 450
320 7 564 565
321 7 563 566
322 7 573 576
323 4 29 31
324 4 29 32
325 4 29 33
326 8 169 170
327 7 169 171
328 7 169 172
329 7 654 655
330 8 651 652
331 7 651 653
332 7 651 654
333 1 655 656
334 4 655 659
335 4 655 660
336 7 653 656
337 8 445 446
338 7 445 447
339 7 445 448
340 7 447 449
341 4 449 451
342 4 449 452
343 4 449 453
344 7 574 575
345 4 656 657
346 4 656 658
347 1 695 696
348 4 695 699
349 4 695 700
350 8 397 398
351 7 397 399
352 7 397 400
353 7 399 401
354 7 531 533
355 4 533 535
356 4 533 536
357 4 533 537
358 8 529 530
359 7 529 531
360 7 529 532
361 8 337 338
362 7 337 339
363 7 337 340
364 7 160 162
365 1 705 706
366 4 705 709
367 4 705 710
368 7 704 705
369 7 231 233
370 4 233 235
371 4 233 236
372 4 233 237
373 4 234 238
374 4 234 239
375 4 234 240
376 4 114 118
377 4 114 119
378 4 114 120
379 8 349 350
380 7 349 351
381 7 349 352
382 4 354 358
383 4 354 359
384 4 354 360
385 7 351 353
386 4 353 355
387 4 353 356
388 4 353 357
389 8 277 278
390 7 277 279
391 7 277 280
392 7 279 281
393 4 282 286
394 4 282 287
395 4 282 288
396 4 281 283
397 4 281 284
398 4 281 285
399 7 663 666
400 4 666 667
401 4 666 668
402 4 474 478
403 4 474 479
404 4 474 480
405 7 471 473
406 4 473 475
407 4 473 476
408 4 473 477
409 7 412 414
410 4 210 214
411 4 210 215
412 4 210 216
413 4 209 211
414 4 209 212
415 4 209 213
416 8 205 206
417 7 205 207
418 7 205 208
419 7 207 209
420 8 571 572
421 7 571 573
422 7 571 574
423 1 565 566
424 4 565 569
425 4 565 570
426 4 174 178
427 4 174 179
428 4 174 180
429 7 172 174
430 7 171 173
431 4 566 567
432 4 566 568
433 4 173 175
434 4 173 176
435 4 173 177
436 4 462 466
437 4 462 467
438 4 462 468
439 7 220 222
440 8 701 702
441 7 701 703
442 7 701 704
443 7 703 706
444 7 532 534
445 4 696 697
446 4 696 698
447 7 400 402
448 7 339 341
449 4 341 343
450 4 341 344
451 4 341 345
452 4 342 346
453 4 342 347
454 4 342 348
455 4 706 707
456 4 706 708
457 7 195 197
458 8 193 194
459 7 193 195
460 7 193 196
461 7 196 198
462 7 352 354
463 15 764 765
464 15 764 766
465 15 764 767
466 15 764 768
467 15 764 769
468 15 764 770
469 8 97 98
470 7 97 99
471 7 97 100
472 7 208 210
473 8 469 470
474 7 469 471
475 7 469 472
476 4 270 274
477 4 270 275
478 4 270 276
479 4 125 127
480 4 125 128
481 4 125 129
482 4 269 271
483 4 269 272
484 4 269 273
485 7 460 462
486 7 424 426
487 8 409 410
488 7 409 411
489 7 409 412
490 8 265 266
491 7 265 267
492 7 265 268
493 7 267 269
494 8 457 458
495 7 457 459
496 7 457 460
497 7 76 78
498 8 73 74
499 7 73 75
500 7 73 76
501 7 75 77
502 4 77 79
503 4 77 80
504 4 77 81
505 4 221 223
506 4 221 224
507 4 221 225
508 7 219 221
509 8 217 218
510 7 217 219
511 7 217 220
512 4 222 226
513 4 222 227
514 4 222 228
515 7 411 413
516 4 413 415
517 4 413 416
518 4 413 417
519 7 553 556
520 1 555 556
521 4 555 559
522 4 555 560
523 7 459 461
524 4 461 463
525 4 461 464
526 4 461 465
527 7 364 366
528 8 551 552
529 7 551 553
530 7 551 554
531 8 631 632
532 7 631 633
533 7 631 634
534 15 757 758
535 15 757 759
536 15 757 760
537 15 757 761
538 15 757 762
539 15 757 763
540 7 724 725
541 8 561 562
542 7 561 563
543 7 561 564
544 8 621 622
545 7 621 623
546 7 621 624
547 1 725 726
548 4 725 729
549 4 725 730
550 4 197 199
551 4 197 200
552 4 197 201
553 4 198 202
554 4 198 203
555 4 198 204
556 7 64 66
557 7 63 65
558 8 61 62
559 7 61 63
560 7 61 64
561 4 65 67
562 4 65 68
563 4 65 69
564 7 99 101
565 7 100 102
566 4 425 427
567 4 425 428
568 4 425 429
569 7 423 425
570 7 472 474
571 4 126 130
572 4 126 131
573 4 126 132
574 7 123 125
575 7 124 126
576 8 121 122
577 7 121 123
578 7 121 124
579 4 485 487
580 4 485 488
581 4 485 489
582 8 421 422
583 7 421 423
584 7 421 424
585 4 414 418
586 4 414 419
587 4 414 420
588 7 268 270
589 4 510 514
590 4 510 515
591 4 510 516
592 4 509 511
593 4 509 512
594 4 509 513
595 7 507 509
596 4 78 82
597 4 78 83
598 4 78 84
599 8 505 506
600 7 505 507
601 7 505 508
602 4 6 10
603 4 6 11
604 4 6 12
605 7 508 510
606 4 42 46
607 4 42 47
608 4 42 48
609 4 41 43
610 4 41 44
611 4 41 45
612 7 554 555
613 1 625 626
614 4 625 629
615 4 625 630
616 7 624 625
617 7 623 626
618 8 361 362
619 7 361 363
620 7 361 364
621 7 363 365
622 4 365 367
623 4 365 368
624 4 365 369
625 4 556 557
626 4 556 558
627 8 611 612
628 7 611 613
629 7 611 614
630 7 304 306
631 4 726 727
632 4 726 728
633 8 301 302
634 7 301 303
635 7 301 304
636 8 721 722
637 7 721 723
638 7 721 724
639 7 723 726
640 4 366 370
641 4 366 371
642 4 366 372
643 4 66 70
644 4 66 71
645 4 66 72
646 7 614 615
647 4 616 617
648 4 616 618
649 4 18 22
650 4 18 23
651 4 18 24
652 4 426 430
653 4 426 431
654 4 426 432
655 8 13 14
656 7 13 15
657 7 13 16
658 7 15 17
659 4 17 19
660 4 17 20
661 4 17 21
662 7 16 18
663 7 483 485
664 4 486 490
665 4 486 491
666 4 486 492
667 8 481 482
668 7 481 483
669 7 481 484
670 7 484 486
671 4 5 7
672 4 5 8
673 4 5 9
674 7 3 5
675 7 4 6
676 8 1 2
677 7 1 3
678 7 1 4
679 4 54 58
680 4 54 59
681 4 54 60
682 7 51 53
683 7 52 54
684 4 53 55
685 4 53 56
686 4 53 57
687 7 634 635
688 7 633 636
689 4 138 142
690 4 138 143
691 4 138 144
692 4 626 627
693 4 626 628
694 4 306 310
695 4 306 311
696 4 306 312
697 7 303 305
698 4 305 307
699 4 305 308
700 4 305 309
701 8 133 134
702 7 133 135
703 7 133 136
704 8 49 50
705 7 49 51
706 7 49 52
707 7 136 138
708 7 135 137
709 4 137 139
710 4 137 140
711 4 137 141
712 7 613 616
713 1 615 616
714 4 615 619
715 4 615 620

Angles

1 4 435 437 439
2 4 435 437 440
3 4 435 437 441
4 7 439 437 440
5 7 439 437 441
6 7 440 437 441
7 9 433 435 437
8 9 517 519 521
9 4 519 521 523
10 4 519 521 524
11 4 519 521 525
12 7 523 521 524
13 7 523 521 525
14 7 524 521 525
15 11 518 517 519
16 11 518 517 520
17 12 519 517 520
18 4 436 438 442
19 4 436 438 443
20 4 436 438 444
21 7 442 438 443
22 7 442 438 444
23 7 443 438 444
24 11 434 433 435
25 11 434 433 436
26 12 435 433 436
27 11 86 85 87
28 11 86 85 88
29 12 87 85 88
30 9 85 87 89
31 9 85 88 90
32 4 375 377 379
33 4 375 377 380
34 4 375 377 381
35 7 379 377 380
36 7 379 377 381
37 7 380 377 381
38 9 517 520 522
39 4 328 330 334
40 4 328 330 335
41 4 328 330 336
42 7 334 330 335
43 7 334 330 336
44 7 335 330 336
45 13 673 676 675
46 4 675 676 677
47 4 675 676 678
48 6 677 676 678
49 11 682 681 683
50 11 682 681 684
51 12 683 681 684
52 9 671 674 675
53 11 672 671 673
54 11 672 671 674
55 12 673 671 674
56 4 376 378 382
57 4 376 378 383
58 4 376 378 384
59 7 382 378 383
60 7 382 378 384
61 7 383 378 384
62 9 373 375 377
63 4 183 185 187
64 4 183 185 188
65 4 183 185 189
66 7 187 185 188
67 7 187 185 189
68 7 188 185 189
69 9 325 327 329
70 4 327 329 331
71 4 327 329 332
72 4 327 329 333
73 7 331 329 332
74 7 331 329 333
75 7 332 329 333
76 11 326 325 327
77 11 326 325 328
78 12 327 325 328
79 11 110 109 111
80 11 110 109 112
81 12 111 109 112
82 18 744 743 745
83 18 746 743 747
84 18 748 743 749
85 17 744 743 746
86 17 744 743 747
87 17 744 743 748
88 17 744 743 749
89 17 745 743 746
90 17 745 743 747
91 17 745 743 748
92 17 745 743 749
93 17 746 743 748
94 17 746 743 749
95 17 747 743 748
96 17 747 743 749
97 4 184 186 190
98 4 184 186 191
99 4 184 186 192
100 7 190 186 191
101 7 190 186 192
102 7 191 186 192
103 9 181 184 186
104 9 325 328 330
105 9 641 643 646
106 13 594 595 596
107 4 596 595 599
108 4 596 595 600
109 6 599 595 600
110 9 591 593 596
111 11 642 641 643
112 11 642 641 644
113 12 643 641 644
114 13 634 635 636
115 4 636 635 639
116 4 636 635 640
117 6 639 635 640
118 9 591 594 595
119 11 592 591 593
120 11 592 591 594
121 12 593 591 594
122 13 593 596 595
123 4 595 596 597
124 4 595 596 598
125 6 597 596 598
126 4 520 522 526
127 4 520 522 527
128 4 520 522 528
129 7 526 522 527
130 7 526 522 528
131 7 527 522 528
132 9 433 436 438
133 9 253 255 257
134 11 254 253 255
135 11 254 253 256
136 12 255 253 256
137 4 87 89 91
138 4 87 89 92
139 4 87 89 93
140 7 91 89 92
141 7 91 89 93
142 7 92 89 93
143 4 88 90 94
144 4 88 90 95
145 4 88 90 96
146 7 94 90 95
147 7 94 90 96
148 7 95 90 96
149 9 253 256 258
150 18 737 736 738
151 18 739 736 740
152 18 741 736 742
153 17 737 736 739
154 17 737 736 740
155 17 737 736 741
156 17 737 736 742
157 17 738 736 739
158 17 738 736 740
159 17 738 736 741
160 17 738 736 742
161 17 739 736 741
162 17 739 736 742
163 17 740 736 741
164 17 740 736 742
165 9 581 584 585
166 9 145 147 149
167 13 584 585 586
168 4 586 585 589
169 4 586 585 590
170 6 589 585 590
171 13 583 586 585
172 4 585 586 587
173 4 585 586 588
174 6 587 586 588
175 9 671 673 676
176 11 374 373 375
177 11 374 373 376
178 12 375 373 376
179 9 289 291 293
180 4 291 293 295
181 4 291 293 296
182 4 291 293 297
183 7 295 293 296
184 7 295 293 297
185 7 296 293 297
186 4 292 294 298
187 4 292 294 299
188 4 292 294 300
189 7 298 294 299
190 7 298 294 300
191 7 299 294 300
192 9 181 183 185
193 11 182 181 183
194 11 182 181 184
195 12 183 181 184
196 4 99 101 103
197 4 99 101 104
198 4 99 101 105
199 7 103 101 104
200 7 103 101 105
201 7 104 101 105
202 13 573 576 575
203 4 575 576 577
204 4 575 576 578
205 6 577 576 578
206 13 674 675 676
207 4 676 675 679
208 4 676 675 680
209 6 679 675 680
210 11 290 289 291
211 11 290 289 292
212 12 291 289 292
213 4 100 102 106
214 4 100 102 107
215 4 100 102 108
216 7 106 102 107
217 7 106 102 108
218 7 107 102 108
219 9 241 244 246
220 9 289 292 294
221 9 385 388 390
222 13 633 636 635
223 4 635 636 637
224 4 635 636 638
225 6 637 636 638
226 9 641 644 645
227 13 643 646 645
228 4 645 646 647
229 4 645 646 648
230 6 647 646 648
231 13 713 716 715
232 4 715 716 717
233 4 715 716 718
234 6 717 716 718
235 13 714 715 716
236 4 716 715 719
237 4 716 715 720
238 6 719 715 720
239 11 712 711 713
240 11 712 711 714
241 12 713 711 714
242 9 711 713 716
243 4 255 257 259
244 4 255 257 260
245 4 255 257 261
246 7 259 257 260
247 7 259 257 261
248 7 260 257 261
249 13 644 645 646
250 4 646 645 649
251 4 646 645 650
252 6 649 645 650
253 9 691 693 696
254 4 256 258 262
255 4 256 258 263
256 4 256 258 264
257 7 262 258 263
258 7 262 258 264
259 7 263 258 264
260 9 681 683 686
261 13 684 685 686
262 4 686 685 689
263 4 686 685 690
264 6 689 685 690
265 9 681 684 685
266 9 661 664 665
267 18 751 750 752
268 18 753 750 754
269 18 755 750 756
270 17 751 750 753
271 17 751 750 754
272 17 751 750 755
273 17 751 750 756
274 17 752 750 753
275 17 752 750 754
276 17 752 750 755
277 17 752 750 756
278 17 753 750 755
279 17 753 750 756
280 17 754 750 755
281 17 754 750 756
282 11 602 601 603
283 11 602 601 604
284 12 603 601 604
285 13 683 686 685
286 4 685 686 687
287 4 685 686 688
288 6 687 686 688
289 4 147 149 151
290 4 147 149 152
291 4 147 149 153
292 7 151 149 152
293 7 151 149 153
294 7 152 149 153
295 4 148 150 154
296 4 148 150 155
297 4 148 150 156
298 7 154 150 155
299 7 154 150 156
300 7 155 150 156
301 9 493 496 498
302 9 373 376 378
303 11 146 145 147
304 11 146 145 148
305 12 147 145 148
306 9 145 148 150
307 13 574 575 576
308 4 576 575 579
309 4 576 575 580
310 6 579 575 580
311 9 25 28 30
312 11 26 25 27
313 11 26 25 28
314 12 27 25 28
315 9 541 543 546
316 13 544 545 546
317 4 546 545 549
318 4 546 545 550
319 6 549 545 550
320 11 542 541 543
321 11 542 541 544
322 12 543 541 544
323 13 543 546 545
324 4 545 546 547
325 4 545 546 548
326 6 547 546 548
327 4 315 317 319
328 4 315 317 320
329 4 315 317 321
330 7 319 317 320
331 7 319 317 321
332 7 320 317 321
333 9 313 315 317
334 4 316 318 322
335 4 316 318 323
336 4 316 318 324
337 7 322 318 323
338 7 322 318 324
339 7 323 318 324
340 11 582 581 583
341 11 582 581 584
342 12 583 581 584
343 9 581 583 586
344 4 28 30 34
345 4 28 30 35
346 4 28 30 36
347 7 34 30 35
348 7 34 30 36
349 7 35 30 36
350 9 313 316 318
351 11 314 313 315
352 11 314 313 316
353 12 315 313 316
354 4 387 389 391
355 4 387 389 392
356 4 387 389 393
357 7 391 389 392
358 7 391 389 393
359 7 392 389 393
360 11 242 241 243
361 11 242 241 244
362 12 243 241 244
363 9 241 243 245
364 4 243 245 247
365 4 243 245 248
366 4 243 245 249
367 7 247 245 248
368 7 247 245 249
369 7 248 245 249
370 4 400 402 406
371 4 400 402 407
372 4 400 402 408
373 7 406 402 407
374 7 406 402 408
375 7 407 402 408
376 9 37 39 41
377 4 388 390 394
378 4 388 390 395
379 4 388 390 396
380 7 394 390 395
381 7 394 390 396
382 7 395 390 396
383 9 37 40 42
384 9 385 387 389
385 11 386 385 387
386 11 386 385 388
387 12 387 385 388
388 4 448 450 454
389 4 448 450 455
390 4 448 450 456
391 7 454 450 455
392 7 454 450 456
393 7 455 450 456
394 4 244 246 250
395 4 244 246 251
396 4 244 246 252
397 7 250 246 251
398 7 250 246 252
399 7 251 246 252
400 9 229 232 234
401 4 399 401 403
402 4 399 401 404
403 4 399 401 405
404 7 403 401 404
405 7 403 401 405
406 7 404 401 405
407 11 38 37 39
408 11 38 37 40
409 12 39 37 40
410 4 532 534 538
411 4 532 534 539
412 4 532 534 540
413 7 538 534 539
414 7 538 534 540
415 7 539 534 540
416 9 337 340 342
417 9 711 714 715
418 11 230 229 231
419 11 230 229 232
420 12 231 229 232
421 9 601 604 605
422 13 603 606 605
423 4 605 606 607
424 4 605 606 608
425 6 607 606 608
426 13 604 605 606
427 4 606 605 609
428 4 606 605 610
429 6 609 605 610
430 9 601 603 606
431 9 157 159 161
432 9 691 694 695
433 9 109 111 113
434 11 692 691 693
435 11 692 691 694
436 12 693 691 694
437 9 109 112 114
438 11 662 661 663
439 11 662 661 664
440 12 663 661 664
441 11 158 157 159
442 11 158 157 160
443 12 159 157 160
444 4 111 113 115
445 4 111 113 116
446 4 111 113 117
447 7 115 113 116
448 7 115 113 117
449 7 116 113 117
450 13 664 665 666
451 4 666 665 669
452 4 666 665 670
453 6 669 665 670
454 9 277 280 282
455 9 541 544 545
456 4 496 498 502
457 4 496 498 503
458 4 496 498 504
459 7 502 498 503
460 7 502 498 504
461 7 503 498 504
462 11 494 493 495
463 11 494 493 496
464 12 495 493 496
465 9 493 495 497
466 4 495 497 499
467 4 495 497 500
468 4 495 497 501
469 7 499 497 500
470 7 499 497 501
471 7 500 497 501
472 9 25 27 29
473 4 160 162 166
474 4 160 162 167
475 4 160 162 168
476 7 166 162 167
477 7 166 162 168
478 7 167 162 168
479 4 159 161 163
480 4 159 161 164
481 4 159 161 165
482 7 163 161 164
483 7 163 161 165
484 7 164 161 165
485 9 445 448 450
486 9 561 564 565
487 9 561 563 566
488 9 571 573 576
489 4 27 29 31
490 4 27 29 32
491 4 27 29 33
492 7 31 29 32
493 7 31 29 33
494 7 32 29 33
495 11 170 169 171
496 11 170 169 172
497 12 171 169 172
498 9 651 654 655
499 11 652 651 653
500 11 652 651 654
501 12 653 651 654
502 13 654 655 656
503 4 656 655 659
504 4 656 655 660
505 6 659 655 660
506 9 651 653 656
507 11 446 445 447
508 11 446 445 448
509 12 447 445 448
510 9 445 447 449
511 4 447 449 451
512 4 447 449 452
513 4 447 449 453
514 7 451 449 452
515 7 451 449 453
516 7 452 449 453
517 9 571 574 575
518 13 653 656 655
519 4 655 656 657
520 4 655 656 658
521 6 657 656 658
522 13 694 695 696
523 4 696 695 699
524 4 696 695 700
525 6 699 695 700
526 11 398 397 399
527 11 398 397 400
528 12 399 397 400
529 9 397 399 401
530 9 529 531 533
531 4 531 533 535
532 4 531 533 536
533 4 531 533 537
534 7 535 533 536
535 7 535 533 537
536 7 536 533 537
537 11 530 529 531
538 11 530 529 532
539 12 531 529 532
540 11 338 337 339
541 11 338 337 340
542 12 339 337 340
543 9 157 160 162
544 13 704 705 706
545 4 706 705 709
546 4 706 705 710
547 6 709 705 710
548 9 701 704 705
549 9 229 231 233
550 4 231 233 235
551 4 231 233 236
552 4 231 233 237
553 7 235 233 236
554 7 235 233 237
555 7 236 233 237
556 4 232 234 238
557 4 232 234 239
558 4 232 234 240
559 7 238 234 239
560 7 238 234 240
561 7 239 234 240
562 4 112 114 118
563 4 112 114 119
564 4 112 114 120
565 7 118 114 119
566 7 118 114 120
567 7 119 114 120
568 11 350 349 351
569 11 350 349 352
570 12 351 349 352
571 4 352 354 358
572 4 352 354 359
573 4 352 354 360
574 7 358 354 359
575 7 358 354 360
576 7 359 354 360
577 9 349 351 353
578 4 351 353 355
579 4 351 353 356
580 4 351 353 357
581 7 355 353 356
582 7 355 353 357
583 7 356 353 357
584 11 278 277 279
585 11 278 277 280
586 12 279 277 280
587 9 277 279 281
588 4 280 282 286
589 4 280 282 287
590 4 280 282 288
591 7 286 282 287
592 7 286 282 288
593 7 287 282 288
594 4 279 281 283
595 4 279 281 284
596 4 279 281 285
597 7 283 281 284
598 7 283 281 285
599 7 284 281 285
600 9 661 663 666
601 13 663 666 665
602 4 665 666 667
603 4 665 666 668
604 6 667 666 668
605 4 472 474 478
606 4 472 474 479
607 4 472 474 480
608 7 478 474 479
609 7 478 474 480
610 7 479 474 480
611 9 469 471 473
612 4 471 473 475
613 4 471 473 476
614 4 471 473 477
615 7 475 473 476
616 7 475 473 477
617 7 476 473 477
618 9 409 412 414
619 4 208 210 214
620 4 208 210 215
621 4 208 210 216
622 7 214 210 215
623 7 214 210 216
624 7 215 210 216
625 4 207 209 211
626 4 207 209 212
627 4 207 209 213
628 7 211 209 212
629 7 211 209 213
630 7 212 209 213
631 11 206 205 207
632 11 206 205 208
633 12 207 205 208
634 9 205 207 209
635 11 572 571 573
636 11 572 571 574
637 12 573 571 574
638 13 564 565 566
639 4 566 565 569
640 4 566 565 570
641 6 569 565 570
642 4 172 174 178
643 4 172 174 179
644 4 172 174 180
645 7 178 174 179
646 7 178 174 180
647 7 179 174 180
648 9 169 172 174
649 9 169 171 173
650 13 563 566 565
651 4 565 566 567
652 4 565 566 568
653 6 567 566 568
654 4 171 173 175
655 4 171 173 176
656 4 171 173 177
657 7 175 173 176
658 7 175 173 177
659 7 176 173 177
660 4 460 462 466
661 4 460 462 467
662 4 460 462 468
663 7 466 462 467
664 7 466 462 468
665 7 467 462 468
666 9 217 220 222
667 11 702 701 703
668 11 702 701 704
669 12 703 701 704
670 9 701 703 706
671 9 529 532 534
672 13 693 696 695
673 4 695 696 697
674 4 695 696 698
675 6 697 696 698
676 9 397 400 402
677 9 337 339 341
678 4 339 341 343
679 4 339 341 344
680 4 339 341 345
681 7 343 341 344
682 7 343 341 345
683 7 344 341 345
684 4 340 342 346
685 4 340 342 347
686 4 340 342 348
687 7 346 342 347
688 7 346 342 348
689 7 347 342 348
690 13 703 706 705
691 4 705 706 707
692 4 705 706 708
693 6 707 706 708
694 9 193 195 197
695 11 194 193 195
696 11 194 193 196
697 12 195 193 196
698 9 193 196 198
699 9 349 352 354
700 18 765 764 766
701 18 767 764 768
702 18 769 764 770
703 17 765 764 767
704 17 765 764 768
705 17 765 764 769
706 17 765 764 770
707 17 766 764 767
708 17 766 764 768
709 17 766 764 769
710 17 766 764 770
711 17 767 764 769
712 17 767 764 770
713 17 768 764 769
714 17 768 764 770
715 11 98 97 99
716 11 98 97 100
717 12 99 97 100
718 9 205 208 210
719 11 470 469 471
720 11 470 469 472
721 12 471 469 472
722 4 268 270 274
723 4 268 270 275
724 4 268 270 276
725 7 274 270 275
726 7 274 270 276
727 7 275 270 276
728 4 123 125 127
729 4 123 125 128
730 4 123 125 129
731 7 127 125 128
732 7 127 125 129
733 7 128 125 129
734 4 267 269 271
735 4 267 269 272
736 4 267 269 273
737 7 271 269 272
738 7 271 269 273
739 7 272 269 273
740 9 457 460 462
741 9 421 424 426
742 11 410 409 411
743 11 410 409 412
744 12 411 409 412
745 11 266 265 267
746 11 266 265 268
747 12 267 265 268
748 9 265 267 269
749 11 458 457 459
750 11 458 457 460
751 12 459 457 460
752 9 73 76 78
753 11 74 73 75
754 11 74 73 76
755 12 75 73 76
756 9 73 75 77
757 4 75 77 79
758 4 75 77 80
759 4 75 77 81
760 7 79 77 80
761 7 79 77 81
762 7 80 77 81
763 4 219 221 223
764 4 219 221 224
765 4 219 221 225
766 7 223 221 224
767 7 223 221 225
768 7 224 221 225
769 9 217 219 221
770 11 218 217 219
771 11 218 217 220
772 12 219 217 220
773 4 220 222 226
774 4 220 222 227
775 4 220 222 228
776 7 226 222 227
777 7 226 222 228
778 7 227 222 228
779 9 409 411 413
780 4 411 413 415
781 4 411 413 416
782 4 411 413 417
783 7 415 413 416
784 7 415 413 417
785 7 416 413 417
786 9 551 553 556
787 13 554 555 556
788 4 556 555 559
789 4 556 555 560
790 6 559 555 560
791 9 457 459 461
792 4 459 461 463
793 4 459 461 464
794 4 459 461 465
795 7 463 461 464
796 7 463 461 465
797 7 464 461 465
798 9 361 364 366
799 11 552 551 553
800 11 552 551 554
801 12 553 551 554
802 11 632 631 633
803 11 632 631 634
804 12 633 631 634
805 18 758 757 759
806 18 760 757 761
807 18 762 757 763
808 17 758 757 760
809 17 758 757 761
810 17 758 757 762
811 17 758 757 763
812 17 759 757 760
813 17 759 757 761
814 17 759 757 762
815 17 759 757 763
816 17 760 757 762
817 17 760 757 763
818 17 761 757 762
819 17 761 757 763
820 9 721 724 725
821 11 562 561 563
822 11 562 561 564
823 12 563 561 564
824 11 622 621 623
825 11 622 621 624
826 12 623 621 624
827 13 724 725 726
828 4 726 725 729
829 4 726 725 730
830 6 729 725 730
831 4 195 197 199
832 4 195 197 200
833 4 195 197 201
834 7 199 197 200
835 7 199 197 201
836 7 200 197 201
837 4 196 198 202
838 4 196 198 203
839 4 196 198 204
840 7 202 198 203
841 7 202 198 204
842 7 203 198 204
843 9 61 64 66
844 9 61 63 65
845 11 62 61 63
846 11 62 61 64
847 12 63 61 64
848 4 63 65 67
849 4 63 65 68
850 4 63 65 69
851 7 67 65 68
852 7 67 65 69
853 7 68 65 69
854 9 97 99 101
855 9 97 100 102
856 4 423 425 427
857 4 423 425 428
858 4 423 425 429
859 7 427 425 428
860 7 427 425 429
861 7 428 425 429
862 9 421 423 425
863 9 469 472 474
864 4 124 126 130
865 4 124 126 131
866 4 124 126 132
867 7 130 126 131
868 7 130 126 132
869 7 131 126 132
870 9 121 123 125
871 9 121 124 126
872 11 122 121 123
873 11 122 121 124
874 12 123 121 124
875 4 483 485 487
876 4 483 485 488
877 4 483 485 489
878 7 487 485 488
879 7 487 485 489
880 7 488 485 489
881 11 422 421 423
882 11 422 421 424
883 12 423 421 424
884 4 412 414 418
885 4 412 414 419
886 4 412 414 420
887 7 418 414 419
888 7 418 414 420
889 7 419 414 420
890 9 265 268 270
891 4 508 510 514
892 4 508 510 515
893 4 508 510 516
894 7 514 510 515
895 7 514 510 516
896 7 515 510 516
897 4 507 509 511
898 4 507 509 512
899 4 507 509 513
900 7 511 509 512
901 7 511 509 513
902 7 512 509 513
903 9 505 507 509
904 4 76 78 82
905 4 76 78 83
906 4 76 78 84
907 7 82 78 83
908 7 82 78 84
909 7 83 78 84
910 11 506 505 507
911 11 506 505 508
912 12 507 505 508
913 4 4 6 10
914 4 4 6 11
915 4 4 6 12
916 7 10 6 11
917 7 10 6 12
918 7 11 6 12
919 9 505 508 510
920 4 40 42 46
921 4 40 42 47
922 4 40 42 48
923 7 46 42 47
924 7 46 42 48
925 7 47 42 48
926 4 39 41 43
927 4 39 41 44
928 4 39 41 45
929 7 43 41 44
930 7 43 41 45
931 7 44 41 45
932 9 551 554 555
933 13 624 625 626
934 4 626 625 629
935 4 626 625 630
936 6 629 625 630
937 9 621 624 625
938 9 621 623 626
939 11 362 361 363
940 11 362 361 364
941 12 363 361 364
942 9 361 363 365
943 4 363 365 367
944 4 363 365 368
945 4 363 365 369
946 7 367 365 368
947 7 367 365 369
948 7 368 365 369
949 13 553 556 555
950 4 555 556 557
951 4 555 556 558
952 6 557 556 558
953 11 612 611 613
954 11 612 611 614
955 12 613 611 614
956 9 301 304 306
957 13 723 726 725
958 4 725 726 727
959 4 725 726 728
960 6 727 726 728
961 11 302 301 303
962 11 302 301 304
963 12 303 301 304
964 11 722 721 723
965 11 722 721 724
966 12 723 721 724
967 9 721 723 726
968 4 364 366 370
969 4 364 366 371
970 4 364 366 372
971 7 370 366 371
972 7 370 366 372
973 7 371 366 372
974 4 64 66 70
975 4 64 66 71
976 4 64 66 72
977 7 70 66 71
978 7 70 66 72
979 7 71 66 72
980 9 611 614 615
981 13 613 616 615
982 4 615 616 617
983 4 615 616 618
984 6 617 616 618
985 4 16 18 22
986 4 16 18 23
987 4 16 18 24
988 7 22 18 23
989 7 22 18 24
990 7 23 18 24
991 4 424 426 430
992 4 424 426 431
993 4 424 426 432
994 7 430 426 431
995 7 430 426 432
996 7 431 426 432
997 11 14 13 15
998 11 14 13 16
999 12 15 13 16
1000 9 13 15 17
1001 4 15 17 19
1002 4 15 17 20
1003 4 15 17 21
1004 7 19 17 20
1005 7 19 17 21
1006 7 20 17 21
1007 9 13 16 18
1008 9 481 483 485
1009 4 484 486 490
1010 4 484 486 491
1011 4 484 486 492
1012 7 490 486 491
1013 7 490 486 492
1014 7 491 486 492
1015 11 482 481 483
1016 11 482 481 484
1017 12 483 481 484
1018 9 481 484 486
1019 4 3 5 7
1020 4 3 5 8
1021 4 3 5 9
1022 7 7 5 8
1023 7 7 5 9
1024 7 8 5 9
1025 9 1 3 5
1026 9 1 4 6
1027 11 2 1 3
1028 11 2 1 4
1029 12 3 1 4
1030 4 52 54 58
1031 4 52 54 59
1032 4 52 54 60
1033 7 58 54 59
1034 7 58 54 60
1035 7 59 54 60
1036 9 49 51 53
1037 9 49 52 54
1038 4 51 53 55
1039 4 51 53 56
1040 4 51 53 57
1041 7 55 53 56
1042 7 55 53 57
1043 7 56 53 57
1044 9 631 634 635
1045 9 631 633 636
1046 4 136 138 142
1047 4 136 138 143
1048 4 136 138 144
1049 7 142 138 143
1050 7 142 138 144
1051 7 143 138 144
1052 13 623 626 625
1053 4 625 626 627
1054 4 625 626 628
1055 6 627 626 628
1056 4 304 306 310
1057 4 304 306 311
1058 4 304 306 312
1059 7 310 306 311
1060 7 310 306 312
1061 7 311 306 312
1062 9 301 303 305
1063 4 303 305 307
1064 4 303 305 308
1065 4 303 305 309
1066 7 307 305 308
1067 7 307 305 309
1068 7 308 305 309
1069 11 134 133 135
1070 11 134 133 136
1071 12 135 133 136
1072 11 50 49 51
1073 11 50 49 52
1074 12 51 49 52
1075 9 133 136 138
1076 9 133 135 137
1077 4 135 137 139
1078 4 135 137 140
1079 4 135 137 141
1080 7 139 137 140
1081 7 139 137 141
1082 7 140 137 141
1083 9 611 613 616
1084 13 614 615 616
1085 4 616 615 619
1086 4 616 615 620
1087 6 619 615 620

Dihedrals

1 6 433 435 437 439
2 6 433 435 437 440
3 6 433 435 437 441
4 6 517 519 521 523
5 6 517 519 521 524
6 6 517 519 521 525
7 8 518 517 519 521
8 8 518 517 520 522
9 8 434 433 435 437
10 8 434 433 436 438
11 8 86 85 87 89
12 8 86 85 88 90
13 6 85 87 89 91
14 6 85 87 89 92
15 6 85 87 89 93
16 6 85 88 90 94
17 6 85 88 90 95
18 6 85 88 90 96
19 6 517 520 522 526
20 6 517 520 522 527
21 6 517 520 522 528
22 7 673 676 675 674
23 8 682 681 683 686
24 8 682 681 684 685
25 7 671 674 675 676
26 8 672 671 673 676
27 8 672 671 674 675
28 6 373 375 377 379
29 6 373 375 377 380
30 6 373 375 377 381
31 6 325 327 329 331
32 6 325 327 329 332
33 6 325 327 329 333
34 8 326 325 327 329
35 8 326 325 328 330
36 8 110 109 111 113
37 8 110 109 112 114
38 6 181 184 186 190
39 6 181 184 186 191
40 6 181 184 186 192
41 6 325 328 330 334
42 6 325 328 330 335
43 6 325 328 330 336
44 5 641 643 646 645
45 5 591 593 596 595
46 8 642 641 643 646
47 8 642 641 644 645
48 7 591 594 595 596
49 8 592 591 593 596
50 8 592 591 594 595
51 7 593 596 595 594
52 6 433 436 438 442
53 6 433 436 438 443
54 6 433 436 438 444
55 6 253 255 257 259
56 6 253 255 257 260
57 6 253 255 257 261
58 8 254 253 255 257
59 8 254 253 256 258
60 6 253 256 258 262
61 6 253 256 258 263
62 6 253 256 258 264
63 7 581 584 585 586
64 6 145 147 149 151
65 6 145 147 149 152
66 6 145 147 149 153
67 7 583 586 585 584
68 5 671 673 676 675
69 8 374 373 375 377
70 8 374 373 376 378
71 6 289 291 293 295
72 6 289 291 293 296
73 6 289 291 293 297
74 6 181 183 185 187
75 6 181 183 185 188
76 6 181 183 185 189
77 8 182 181 183 185
78 8 182 181 184 186
79 7 573 576 575 574
80 8 290 289 291 293
81 8 290 289 292 294
82 6 241 244 246 250
83 6 241 244 246 251
84 6 241 244 246 252
85 6 289 292 294 298
86 6 289 292 294 299
87 6 289 292 294 300
88 6 385 388 390 394
89 6 385 388 390 395
90 6 385 388 390 396
91 7 633 636 635 634
92 7 641 644 645 646
93 7 643 646 645 644
94 7 713 716 715 714
95 8 712 711 713 716
96 8 712 711 714 715
97 5 711 713 716 715
98 5 691 693 696 695
99 5 681 683 686 685
100 7 681 684 685 686
101 7 661 664 665 666
102 8 602 601 603 606
103 8 602 601 604 605
104 7 683 686 685 684
105 6 493 496 498 502
106 6 493 496 498 503
107 6 493 496 498 504
108 6 373 376 378 382
109 6 373 376 378 383
110 6 373 376 378 384
111 8 146 145 147 149
112 8 146 145 148 150
113 6 145 148 150 154
114 6 145 148 150 155
115 6 145 148 150 156
116 6 25 28 30 34
117 6 25 28 30 35
118 6 25 28 30 36
119 8 26 25 27 29
120 8 26 25 28 30
121 5 541 543 546 545
122 8 542 541 543 546
123 8 542 541 544 545
124 7 543 546 545 544
125 6 313 315 317 319
126 6 313 315 317 320
127 6 313 315 317 321
128 8 582 581 583 586
129 8 582 581 584 585
130 5 581 583 586 585
131 6 313 316 318 322
132 6 313 316 318 323
133 6 313 316 318 324
134 8 314 313 315 317
135 8 314 313 316 318
136 8 242 241 243 245
137 8 242 241 244 246
138 6 241 243 245 247
139 6 241 243 245 248
140 6 241 243 245 249
141 6 37 39 41 43
142 6 37 39 41 44
143 6 37 39 41 45
144 6 37 40 42 46
145 6 37 40 42 47
146 6 37 40 42 48
147 6 385 387 389 391
148 6 385 387 389 392
149 6 385 387 389 393
150 8 386 385 387 389
151 8 386 385 388 390
152 6 229 232 234 238
153 6 229 232 234 239
154 6 229 232 234 240
155 8 38 37 39 41
156 8 38 37 40 42
157 6 337 340 342 346
158 6 337 340 342 347
159 6 337 340 342 348
160 7 711 714 715 716
161 8 230 229 231 233
162 8 230 229 232 234
163 7 601 604 605 606
164 7 603 606 605 604
165 5 601 603 606 605
166 6 157 159 161 163
167 6 157 159 161 164
168 6 157 159 161 165
169 7 691 694 695 696
170 6 109 111 113 115
171 6 109 111 113 116
172 6 109 111 113 117
173 8 692 691 693 696
174 8 692 691 694 695
175 6 109 112 114 118
176 6 109 112 114 119
177 6 109 112 114 120
178 8 662 661 663 666
179 8 662 661 664 665
180 8 158 157 159 161
181 8 158 157 160 162
182 6 277 280 282 286
183 6 277 280 282 287
184 6 277 280 282 288
185 7 541 544 545 546
186 8 494 493 495 497
187 8 494 493 496 498
188 6 493 495 497 499
189 6 493 495 497 500
190 6 493 495 497 501
191 6 25 27 29 31
192 6 25 27 29 32
193 6 25 27 29 33
194 6 445 448 450 454
195 6 445 448 450 455
196 6 445 448 450 456
197 7 561 564 565 566
198 5 561 563 566 565
199 5 571 573 576 575
200 8 170 169 171 173
201 8 170 169 172 174
202 7 651 654 655 656
203 8 652 651 653 656
204 8 652 651 654 655
205 5 651 653 656 655
206 8 446 445 447 449
207 8 446 445 448 450
208 6 445 447 449 451
209 6 445 447 449 452
210 6 445 447 449 453
211 7 571 574 575 576
212 7 653 656 655 654
213 8 398 397 399 401
214 8 398 397 400 402
215 6 397 399 401 403
216 6 397 399 401 404
217 6 397 399 401 405
218 6 529 531 533 535
219 6 529 531 533 536
220 6 529 531 533 537
221 8 530 529 531 533
222 8 530 529 532 534
223 8 338 337 339 341
224 8 338 337 340 342
225 6 157 160 162 166
226 6 157 160 162 167
227 6 157 160 162 168
228 7 701 704 705 706
229 6 229 231 233 235
230 6 229 231 233 236
231 6 229 231 233 237
232 8 350 349 351 353
233 8 350 349 352 354
234 6 349 351 353 355
235 6 349 351 353 356
236 6 349 351 353 357
237 8 278 277 279 281
238 8 278 277 280 282
239 6 277 279 281 283
240 6 277 279 281 284
241 6 277 279 281 285
242 5 661 663 666 665
243 7 663 666 665 664
244 6 469 471 473 475
245 6 469 471 473 476
246 6 469 471 473 477
247 6 409 412 414 418
248 6 409 412 414 419
249 6 409 412 414 420
250 8 206 205 207 209
251 8 206 205 208 210
252 6 205 207 209 211
253 6 205 207 209 212
254 6 205 207 209 213
255 8 572 571 573 576
256 8 572 571 574 575
257 6 169 172 174 178
258 6 169 172 174 179
259 6 169 172 174 180
260 6 169 171 173 175
261 6 169 171 173 176
262 6 169 171 173 177
263 7 563 566 565 564
264 6 217 220 222 226
265 6 217 220 222 227
266 6 217 220 222 228
267 8 702 701 703 706
268 8 702 701 704 705
269 5 701 703 706 705
270 6 529 532 534 538
271 6 529 532 534 539
272 6 529 532 534 540
273 7 693 696 695 694
274 6 397 400 402 406
275 6 397 400 402 407
276 6 397 400 402 408
277 6 337 339 341 343
278 6 337 339 341 344
279 6 337 339 341 345
280 7 703 706 705 704
281 6 193 195 197 199
282 6 193 195 197 200
283 6 193 195 197 201
284 8 194 193 195 197
285 8 194 193 196 198
286 6 193 196 198 202
287 6 193 196 198 203
288 6 193 196 198 204
289 6 349 352 354 358
290 6 349 352 354 359
291 6 349 352 354 360
292 8 98 97 99 101
293 8 98 97 100 102
294 6 205 208 210 214
295 6 205 208 210 215
296 6 205 208 210 216
297 8 470 469 471 473
298 8 470 469 472 474
299 6 457 460 462 466
300 6 457 460 462 467
301 6 457 460 462 468
302 6 421 424 426 430
303 6 421 424 426 431
304 6 421 424 426 432
305 8 410 409 411 413
306 8 410 409 412 414
307 8 266 265 267 269
308 8 266 265 268 270
309 6 265 267 269 271
310 6 265 267 269 272
311 6 265 267 269 273
312 8 458 457 459 461
313 8 458 457 460 462
314 6 73 76 78 82
315 6 73 76 78 83
316 6 73 76 78 84
317 8 74 73 75 77
318 8 74 73 76 78
319 6 73 75 77 79
320 6 73 75 77 80
321 6 73 75 77 81
322 6 217 219 221 223
323 6 217 219 221 224
324 6 217 219 221 225
325 8 218 217 219 221
326 8 218 217 220 222
327 6 409 411 413 415
328 6 409 411 413 416
329 6 409 411 413 417
330 5 551 553 556 555
331 6 457 459 461 463
332 6 457 459 461 464
333 6 457 459 461 465
334 6 361 364 366 370
335 6 361 364 366 371
336 6 361 364 366 372
337 8 552 551 553 556
338 8 552 551 554 555
339 8 632 631 633 636
340 8 632 631 634 635
341 7 721 724 725 726
342 8 562 561 563 566
343 8 562 561 564 565
344 8 622 621 623 626
345 8 622 621 624 625
346 6 61 64 66 70
347 6 61 64 66 71
348 6 61 64 66 72
349 6 61 63 65 67
350 6 61 63 65 68
351 6 61 63 65 69
352 8 62 61 63 65
353 8 62 61 64 66
354 6 97 99 101 103
355 6 97 99 101 104
356 6 97 99 101 105
357 6 97 100 102 106
358 6 97 100 102 107
359 6 97 100 102 108
360 6 421 423 425 427
361 6 421 423 425 428
362 6 421 423 425 429
363 6 469 472 474 478
364 6 469 472 474 479
365 6 469 472 474 480
366 6 121 123 125 127
367 6 121 123 125 128
368 6 121 123 125 129
369 6 121 124 126 130
370 6 121 124 126 131
371 6 121 124 126 132
372 8 122 121 123 125
373 8 122 121 124 126
374 8 422 421 423 425
375 8 422 421 424 426
376 6 265 268 270 274
377 6 265 268 270 275
378 6 265 268 270 276
379 6 505 507 509 511
380 6 505 507 509 512
381 6 505 507 509 513
382 8 506 505 507 509
383 8 506 505 508 510
384 6 505 508 510 514
385 6 505 508 510 515
386 6 505 508 510 516
387 7 551 554 555 556
388 7 621 624 625 626
389 5 621 623 626 625
390 8 362 361 363 365
391 8 362 361 364 366
392 6 361 363 365 367
393 6 361 363 365 368
394 6 361 363 365 369
395 7 553 556 555 554
396 8 612 611 613 616
397 8 612 611 614 615
398 6 301 304 306 310
399 6 301 304 306 311
400 6 301 304 306 312
401 7 723 726 725 724
402 8 302 301 303 305
403 8 302 301 304 306
404 8 722 721 723 726
405 8 722 721 724 725
406 5 721 723 726 725
407 7 611 614 615 616
408 7 613 616 615 614
409 8 14 13 15 17
410 8 14 13 16 18
411 6 13 15 17 19
412 6 13 15 17 20
413 6 13 15 17 21
414 6 13 16 18 22
415 6 13 16 18 23
416 6 13 16 18 24
417 6 481 483 485 487
418 6 481 483 485 488
419 6 481 483 485 489
420 8 482 481 483 485
421 8 482 481 484 486
422 6 481 484 486 490
423 6 481 484 486 491
424 6 481 484 486 492
425 6 1 3 5 7
426 6 1 3 5 8
427 6 1 3 5 9
428 6 1 4 6 10
429 6 1 4 6 11
430 6 1 4 6 12
431 8 2 1 3 5
432 8 2 1 4 6
433 6 49 51 53 55
434 6 49 51 53 56
435 6 49 51 53 57
436 6 49 52 54 58
437 6 49 52 54 59
438 6 49 52 54 60
439 7 631 634 635 636
440 5 631 633 636 635
441 7 623 626 625 624
442 6 301 303 305 307
443 6 301 303 305 308
444 6 301 303 305 309
445 8 134 133 135 137
446 8 134 133 136 138
447 8 50 49 51 53
448 8 50 49 52 54
449 6 133 136 138 142
450 6 133 136 138 143
451 6 133 136 138 144
452 6 133 135 137 139
453 6 133 135 137 140
454 6 133 135 137 141
455 5 611 613 616 615
