LAMMPS data file via write_data, version 23 Jun 2022, timestep = 120

770 atoms
31 atom types
715 bonds
17 bond types
1087 angles
18 angle types
455 dihedrals
9 dihedral types
0 impropers
2 improper types

0 20 xlo xhi
0 20 ylo yhi
0 20 zlo zhi

Masses

1 12.011
2 12.011
3 12.011
4 12.011
5 12.011
6 12.011
7 12.011
8 12.011
9 12.011
10 12.011
11 1.008
12 1.008
13 1.008
14 1.008
15 1.008
16 1.008
17 1.008
18 15.999
19 15.999
20 15.999
21 15.999
22 14.007
23 14.007
24 14.007
25 14.007
26 18.998
27 30.974
28 6.941
29 32.065
30 32.065
31 6.941

Atoms # full

1 1 9 0.52 0.048372472468731206 0.16391767892140877 1.0739991068836346e-11 0 0 0
2 1 20 -0.5 3.0389471766012544 0.0263236687596482 19.999999999999773 0 0 -1
3 1 19 -0.35 1.4807901381870747 17.269245530645573 19.999999999999993 0 -1 -1
5 1 1 0.22 5.330544002231731 18.080556418572016 19.99999999341465 0 -1 -1
7 1 11 0.06 3.9727790652462236 19.711827014913958 2.8379512547427312 0 -1 0
9 1 11 0.06 5.717041897815981 1.8340295358070549 19.999999999998295 0 0 -1
13 2 9 0.52 0.048372472468731206 0.16391767892140877 1.0739957719229493e-11 0 0 0
14 2 20 -0.5 3.0389471766012544 0.0263236687596482 19.999999999999773 0 0 -1
15 2 19 -0.35 1.4807901381870747 17.269245530645573 19.999999999999993 0 -1 -1
17 2 1 0.22 5.330544002231731 18.080556418572016 19.99999999695883 0 -1 -1
19 2 11 0.06 3.9727790652462045 19.711827014913958 2.8379512547427286 0 -1 0
21 2 11 0.06 5.717041897815981 1.8340295358070549 19.999999999998305 0 0 -1
25 3 9 0.52 0.048372472468731206 0.16391767892140877 1.0739952394562068e-11 0 0 0
26 3 20 -0.5 3.0389471766012544 0.0263236687596482 19.999999999999773 0 0 -1
27 3 19 -0.35 1.4807901381870747 17.269245530645573 19.999999999999993 0 -1 -1
29 3 1 0.22 5.330544002231731 18.080556418572016 19.99999999749938 0 -1 -1
31 3 11 0.06 3.9727790652462045 19.711827014913958 2.837951254742729 0 -1 0
33 3 11 0.06 5.717041897815981 1.8340295358070549 19.99999999999831 0 0 -1
37 4 9 0.52 0.048372472468731206 0.16391767892140877 1.0739952394562068e-11 0 0 0
38 4 20 -0.5 3.0389471766012544 0.0263236687596482 19.999999999999773 0 0 -1
39 4 19 -0.35 1.4807901381870747 17.269245530645573 19.999999999999993 0 -1 -1
41 4 1 0.22 5.330544002231731 18.080556418572016 19.99999999749938 0 -1 -1
43 4 11 0.06 3.9727790652462045 19.711827014913958 2.837951254742729 0 -1 0
45 4 11 0.06 5.717041897815981 1.8340295358070549 19.99999999999831 0 0 -1
49 5 9 0.52 0.048372472468731206 0.16391767892140877 1.0739952394562068e-11 0 0 0
50 5 20 -0.5 3.0389471766012544 0.0263236687596482 19.999999999999773 0 0 -1
51 5 19 -0.35 1.4807901381870747 17.269245530645573 19.999999999999993 0 -1 -1
53 5 1 0.22 5.330544002231731 18.080556418572016 19.99999999749938 0 -1 -1
55 5 11 0.06 3.9727790652462045 19.711827014913958 2.837951254742729 0 -1 0
57 5 11 0.06 5.717041897815981 1.8340295358070549 19.99999999999831 0 0 -1
61 6 9 0.52 0.048372472468731206 0.16391767892140877 1.0739951225119143e-11 0 0 0
62 6 20 -0.5 3.0389471766012544 0.0263236687596482 19.999999999999773 0 0 -1
63 6 19 -0.35 1.4807901381870747 17.269245530645573 19.999999999999993 0 -1 -1
65 6 1 0.22 5.330544002231731 18.080556418572016 19.99999999761855 0 -1 -1
67 6 11 0.06 3.972779065246187 19.711827014913958 2.8379512547427392 0 -1 0
69 6 11 0.06 5.717041897815981 1.8340295358070549 19.99999999999831 0 0 -1
73 7 9 0.52 0.048372472468731206 0.16391767892140877 1.0739944804224284e-11 0 0 0
74 7 20 -0.5 3.0389471766012544 0.0263236687596482 19.999999999999773 0 0 -1
75 7 19 -0.35 1.4807901381870747 17.269245530645573 19.999999999999996 0 -1 -1
77 7 1 0.22 5.330544002231731 18.080556418572016 19.99999999827065 0 -1 -1
79 7 11 0.06 3.972779065246187 19.711827014913958 2.8379512547427397 0 -1 0
81 7 11 0.06 5.717041897815981 1.8340295358070549 19.99999999999831 0 0 -1
85 8 9 0.52 0.048372472468731206 0.16391767892140877 1.0739943919172817e-11 0 0 0
86 8 20 -0.5 3.0389471766012544 0.0263236687596482 19.999999999999773 0 0 -1
87 8 19 -0.35 1.4807901381870747 17.269245530645573 19.999999999999996 0 -1 -1
89 8 1 0.22 5.330544002231731 18.080556418572016 19.999999998361275 0 -1 -1
91 8 11 0.06 3.972779065246187 19.711827014913958 2.8379512547427397 0 -1 0
93 8 11 0.06 5.717041897815981 1.8340295358070549 19.99999999999831 0 0 -1
97 9 9 0.52 0.048372472468731206 0.16391767892140877 1.0739943919172817e-11 0 0 0
98 9 20 -0.5 3.0389471766012544 0.0263236687596482 19.999999999999773 0 0 -1
99 9 19 -0.35 1.4807901381870747 17.269245530645573 19.999999999999996 0 -1 -1
101 9 1 0.22 5.330544002231731 18.080556418572016 19.999999998361275 0 -1 -1
103 9 11 0.06 3.972779065246187 19.711827014913958 2.8379512547427397 0 -1 0
105 9 11 0.06 5.717041897815981 1.8340295358070549 19.99999999999831 0 0 -1
109 10 9 0.52 0.048372472468731206 0.16391767892140877 1.0739942930132381e-11 0 0 0
110 10 20 -0.5 3.0389471766012544 0.0263236687596482 19.999999999999773 0 0 -1
111 10 19 -0.35 1.4807901381870747 17.269245530645573 19.999999999999996 0 -1 -1
113 10 1 0.22 5.330544002231731 18.080556418572016 19.999999998461725 0 -1 -1
115 10 11 0.06 3.972779065246187 19.711827014913958 2.8379512547427397 0 -1 0
117 10 11 0.06 5.717041897815981 1.8340295358070549 19.99999999999831 0 0 -1
121 11 9 0.52 0.048372472468731206 0.16391767892140877 1.0739938970652403e-11 0 0 0
122 11 20 -0.5 3.038947176601253 0.0263236687596482 19.999999999999737 0 0 -1
123 11 19 -0.35 1.4807901381870747 17.269245530645573 19.999999999999996 0 -1 -1
125 11 1 0.22 5.330544002231731 18.080556418572016 19.999999999014868 0 -1 -1
127 11 11 0.06 3.972779065246187 19.711827014913958 2.8379512547427415 0 -1 0
129 11 11 0.06 5.717041897815981 1.8340295358070549 19.99999999999831 0 0 -1
133 12 9 0.52 0.048372472468731206 0.16391767892140877 1.0739937815142683e-11 0 0 0
134 12 20 -0.5 3.038947176601253 0.0263236687596482 19.999999999999737 0 0 -1
135 12 19 -0.35 1.4807901381870747 17.269245530645573 19.999999999999996 0 -1 -1
137 12 1 0.22 5.330544002231731 18.080556418572016 19.999999999131905 0 -1 -1
139 12 11 0.06 3.972779065246187 19.711827014913958 2.837951254742742 0 -1 0
141 12 11 0.06 5.717041897815981 1.8340295358070549 19.99999999999831 0 0 -1
145 13 9 0.52 0.048372472468731206 0.16391767892140877 1.0739937815142683e-11 0 0 0
146 13 20 -0.5 3.038947176601253 0.0263236687596482 19.999999999999737 0 0 -1
147 13 19 -0.35 1.4807901381870747 17.269245530645573 19.999999999999996 0 -1 -1
149 13 1 0.22 5.330544002231731 18.080556418572016 19.999999999131905 0 -1 -1
151 13 11 0.06 3.972779065246187 19.711827014913958 2.837951254742742 0 -1 0
153 13 11 0.06 5.717041897815981 1.8340295358070549 19.99999999999831 0 0 -1
157 14 9 0.52 0.048372472468731206 0.16391767892140877 1.0739936043213033e-11 0 0 0
158 14 20 -0.5 3.038947176601253 0.0263236687596482 19.999999999999737 0 0 -1
159 14 19 -0.35 1.4807901381870747 17.269245530645573 19.999999999999996 0 -1 -1
161 14 1 0.22 5.330544002231731 18.080556418572016 19.999999999311584 0 -1 -1
163 14 11 0.06 3.972779065246187 19.711827014913958 2.837951254742742 0 -1 0
165 14 11 0.06 5.717041897815981 1.8340295358070549 19.99999999999831 0 0 -1
169 15 9 0.52 0.048372472468731206 0.16391767892140877 1.0739936043213033e-11 0 0 0
170 15 20 -0.5 3.038947176601253 0.0263236687596482 19.999999999999737 0 0 -1
171 15 19 -0.35 1.4807901381870747 17.269245530645573 19.999999999999996 0 -1 -1
173 15 1 0.22 5.330544002231731 18.080556418572016 19.999999999311584 0 -1 -1
175 15 11 0.06 3.972779065246187 19.711827014913958 2.837951254742742 0 -1 0
177 15 11 0.06 5.717041897815981 1.8340295358070549 19.99999999999831 0 0 -1
181 16 9 0.52 0.048372472468731206 0.16391767892140877 1.0739936043213033e-11 0 0 0
182 16 20 -0.5 3.038947176601253 0.0263236687596482 19.999999999999737 0 0 -1
183 16 19 -0.35 1.4807901381870747 17.269245530645573 19.999999999999996 0 -1 -1
185 16 1 0.22 5.330544002231731 18.080556418572016 19.999999999311584 0 -1 -1
187 16 11 0.06 3.972779065246187 19.711827014913958 2.837951254742742 0 -1 0
189 16 11 0.06 5.717041897815981 1.8340295358070549 19.99999999999831 0 0 -1
193 17 9 0.52 0.048372472468731206 0.16391767892140877 1.0739935352598463e-11 0 0 0
194 17 20 -0.5 3.0389471766012517 0.0263236687596482 19.99999999999976 0 0 -1
195 17 19 -0.35 1.4807901381870745 17.269245530645577 0 0 -1 0
197 17 1 0.22 5.330544002232472 18.080556418572183 2.5410728646580336e-09 0 -1 0
199 17 11 0.06 3.972779374759579 19.711827012362413 2.83795115170151 0 -1 0
201 17 11 0.06 5.71704189781598 1.8340295358070549 19.99999999999831 0 0 -1
205 18 9 0.52 0.048372472468731206 0.16391767892140877 1.0739935352598463e-11 0 0 0
206 18 20 -0.5 3.0389471766012517 0.0263236687596482 19.99999999999976 0 0 -1
207 18 19 -0.35 1.4807901381870745 17.269245530645577 0 0 -1 0
209 18 1 0.22 5.330544002232472 18.080556418572183 2.5410728646580336e-09 0 -1 0
211 18 11 0.06 3.972779374759579 19.711827012362413 2.83795115170151 0 -1 0
213 18 11 0.06 5.71704189781598 1.8340295358070549 19.99999999999831 0 0 -1
217 19 9 0.52 0.048372472468731206 0.16391767892140877 1.0739935352598463e-11 0 0 0
218 19 20 -0.5 3.0389471766012517 0.0263236687596482 19.99999999999976 0 0 -1
219 19 19 -0.35 1.4807901381870745 17.269245530645577 0 0 -1 0
221 19 1 0.22 5.330544002232472 18.080556418572183 2.5410728646580336e-09 0 -1 0
223 19 11 0.06 3.972779374759579 19.711827012362413 2.83795115170151 0 -1 0
225 19 11 0.06 5.71704189781598 1.8340295358070549 19.99999999999831 0 0 -1
229 20 9 0.52 0.048372472468731206 0.16391767892140877 1.0739935352598463e-11 0 0 0
230 20 20 -0.5 3.0389471766012517 0.0263236687596482 19.99999999999976 0 0 -1
231 20 19 -0.35 1.4807901381870745 17.269245530645577 0 0 -1 0
233 20 1 0.22 5.330544002232472 18.080556418572183 2.5410728646580336e-09 0 -1 0
235 20 11 0.06 3.972779374759579 19.711827012362413 2.83795115170151 0 -1 0
237 20 11 0.06 5.71704189781598 1.8340295358070549 19.99999999999831 0 0 -1
241 21 9 0.52 0.048372472468731206 0.16391767892140877 1.0739935352598463e-11 0 0 0
242 21 20 -0.5 3.0389471766012517 0.0263236687596482 19.99999999999976 0 0 -1
243 21 19 -0.35 1.4807901381870745 17.269245530645577 0 0 -1 0
245 21 1 0.22 5.330544002232472 18.080556418572183 2.5410728646580336e-09 0 -1 0
247 21 11 0.06 3.972779374759579 19.711827012362413 2.83795115170151 0 -1 0
249 21 11 0.06 5.71704189781598 1.8340295358070549 19.99999999999831 0 0 -1
253 22 9 0.52 0.048372472468731206 0.16391767892140877 1.0739935352598463e-11 0 0 0
254 22 20 -0.5 3.0389471766012517 0.0263236687596482 19.99999999999976 0 0 -1
255 22 19 -0.35 1.4807901381870745 17.269245530645577 0 0 -1 0
257 22 1 0.22 5.330544002232472 18.080556418572183 2.5410728646580336e-09 0 -1 0
259 22 11 0.06 3.972779374759579 19.711827012362413 2.83795115170151 0 -1 0
261 22 11 0.06 5.71704189781598 1.8340295358070549 19.99999999999831 0 0 -1
265 23 9 0.52 0.048372472468731206 0.16391767892140877 1.0739935352598463e-11 0 0 0
266 23 20 -0.5 3.0389471766012517 0.0263236687596482 19.99999999999976 0 0 -1
267 23 19 -0.35 1.4807901381870745 17.269245530645577 0 0 -1 0
269 23 1 0.22 5.330544002232472 18.080556418572183 2.5410728646580336e-09 0 -1 0
271 23 11 0.06 3.972779374759579 19.711827012362413 2.83795115170151 0 -1 0
273 23 11 0.06 5.71704189781598 1.8340295358070549 19.99999999999831 0 0 -1
277 24 9 0.52 0.048372472468731206 0.16391767892140877 1.0739935352598463e-11 0 0 0
278 24 20 -0.5 3.0389471766012517 0.0263236687596482 19.99999999999976 0 0 -1
279 24 19 -0.35 1.4807901381870745 17.269245530645577 0 0 -1 0
281 24 1 0.22 5.330544002232472 18.080556418572183 2.5410728646580336e-09 0 -1 0
283 24 11 0.06 3.972779374759579 19.711827012362413 2.83795115170151 0 -1 0
285 24 11 0.06 5.71704189781598 1.8340295358070549 19.99999999999831 0 0 -1
289 25 9 0.52 0.048372472468731206 0.16391767892140877 1.0739935352598463e-11 0 0 0
290 25 20 -0.5 3.0389471766012517 0.0263236687596482 19.99999999999976 0 0 -1
291 25 19 -0.35 1.4807901381870745 17.269245530645577 0 0 -1 0
293 25 1 0.22 5.330544002232472 18.080556418572183 2.5410728646580336e-09 0 -1 0
295 25 11 0.06 3.972779374759579 19.711827012362413 2.83795115170151 0 -1 0
297 25 11 0.06 5.71704189781598 1.8340295358070549 19.99999999999831 0 0 -1
301 26 9 0.52 0.048372472468731206 0.16391767892140877 1.0739935352598463e-11 0 0 0
302 26 20 -0.5 3.0389471766012517 0.0263236687596482 19.99999999999976 0 0 -1
303 26 19 -0.35 1.4807901381870745 17.269245530645577 0 0 -1 0
305 26 1 0.22 5.330544002232472 18.080556418572183 2.5410728646580336e-09 0 -1 0
307 26 11 0.06 3.972779374759579 19.711827012362413 2.83795115170151 0 -1 0
309 26 11 0.06 5.71704189781598 1.8340295358070549 19.99999999999831 0 0 -1
313 27 9 0.52 0.048372472468731206 0.16391767892140877 1.0739935352598463e-11 0 0 0
314 27 20 -0.5 3.0389471766012517 0.0263236687596482 19.99999999999976 0 0 -1
315 27 19 -0.35 1.4807901381870745 17.269245530645577 0 0 -1 0
317 27 1 0.22 5.330544002232472 18.080556418572183 2.5410728646580336e-09 0 -1 0
319 27 11 0.06 3.972779374759579 19.711827012362413 2.83795115170151 0 -1 0
321 27 11 0.06 5.71704189781598 1.8340295358070549 19.99999999999831 0 0 -1
325 28 9 0.52 0.048372472468731206 0.16391767892140877 1.0739935352598463e-11 0 0 0
326 28 20 -0.5 3.0389471766012517 0.0263236687596482 19.99999999999976 0 0 -1
327 28 19 -0.35 1.4807901381870745 17.269245530645577 0 0 -1 0
329 28 1 0.22 5.330544002232472 18.080556418572183 2.5410728646580336e-09 0 -1 0
331 28 11 0.06 3.972779374759579 19.711827012362413 2.83795115170151 0 -1 0
333 28 11 0.06 5.71704189781598 1.8340295358070549 19.99999999999831 0 0 -1
337 29 9 0.52 0.048372472468731206 0.16391767892140877 1.0739935352598463e-11 0 0 0
338 29 20 -0.5 3.0389471766012517 0.0263236687596482 19.99999999999976 0 0 -1
339 29 19 -0.35 1.4807901381870745 17.269245530645577 0 0 -1 0
341 29 1 0.22 5.330544002232472 18.080556418572183 2.5410728646580336e-09 0 -1 0
343 29 11 0.06 3.972779374759579 19.711827012362413 2.83795115170151 0 -1 0
345 29 11 0.06 5.71704189781598 1.8340295358070549 19.99999999999831 0 0 -1
349 30 9 0.52 0.048372472468731206 0.16391767892140877 1.0739935352598463e-11 0 0 0
350 30 20 -0.5 3.0389471766012517 0.0263236687596482 19.99999999999976 0 0 -1
351 30 19 -0.35 1.4807901381870745 17.269245530645577 0 0 -1 0
353 30 1 0.22 5.330544002232472 18.080556418572183 2.5410728646580336e-09 0 -1 0
355 30 11 0.06 3.972779374759579 19.711827012362413 2.83795115170151 0 -1 0
357 30 11 0.06 5.71704189781598 1.8340295358070549 19.99999999999831 0 0 -1
361 31 9 0.52 0.048372472468731206 0.16391767892140877 1.0739935352598463e-11 0 0 0
362 31 20 -0.5 3.0389471766012517 0.0263236687596482 19.99999999999976 0 0 -1
363 31 19 -0.35 1.4807901381870745 17.269245530645577 0 0 -1 0
365 31 1 0.22 5.330544002232472 18.080556418572183 2.5410728646580336e-09 0 -1 0
367 31 11 0.06 3.972779374759579 19.711827012362413 2.83795115170151 0 -1 0
369 31 11 0.06 5.71704189781598 1.8340295358070549 19.99999999999831 0 0 -1
373 32 9 0.52 0.048372472468731206 0.16391767892140877 1.0739934386417448e-11 0 0 0
374 32 20 -0.5 3.038947176601253 0.0263236687596482 19.999999999999737 0 0 -1
375 32 19 -0.35 1.4807901381870747 17.269245530645573 19.999999999999996 0 -1 -1
377 32 1 0.22 5.330544002231731 18.080556418572016 19.999999999480455 0 -1 -1
379 32 11 0.06 3.972779065246187 19.711827014913958 2.837951254742742 0 -1 0
381 32 11 0.06 5.717041897815981 1.8340295358070549 19.99999999999831 0 0 -1
385 33 9 0.52 0.048372472468731206 0.16391767892140877 1.0739934386417448e-11 0 0 0
386 33 20 -0.5 3.038947176601253 0.0263236687596482 19.999999999999737 0 0 -1
387 33 19 -0.35 1.4807901381870747 17.269245530645573 19.999999999999996 0 -1 -1
389 33 1 0.22 5.330544002231731 18.080556418572016 19.999999999480455 0 -1 -1
391 33 11 0.06 3.972779065246187 19.711827014913958 2.837951254742742 0 -1 0
393 33 11 0.06 5.717041897815981 1.8340295358070549 19.99999999999831 0 0 -1
397 34 9 0.52 0.048372472468731206 0.16391767892140877 1.0739934386417448e-11 0 0 0
398 34 20 -0.5 3.038947176601253 0.0263236687596482 19.999999999999737 0 0 -1
399 34 19 -0.35 1.4807901381870747 17.269245530645573 19.999999999999996 0 -1 -1
401 34 1 0.22 5.330544002231731 18.080556418572016 19.999999999480455 0 -1 -1
403 34 11 0.06 3.972779065246187 19.711827014913958 2.837951254742742 0 -1 0
405 34 11 0.06 5.717041897815981 1.8340295358070549 19.99999999999831 0 0 -1
409 35 9 0.52 0.048372472468731206 0.16391767892140877 1.0739934386417448e-11 0 0 0
410 35 20 -0.5 3.038947176601253 0.0263236687596482 19.999999999999737 0 0 -1
411 35 19 -0.35 1.4807901381870747 17.269245530645573 19.999999999999996 0 -1 -1
413 35 1 0.22 5.330544002231731 18.080556418572016 19.999999999480455 0 -1 -1
415 35 11 0.06 3.972779065246187 19.711827014913958 2.837951254742742 0 -1 0
417 35 11 0.06 5.717041897815981 1.8340295358070549 19.99999999999831 0 0 -1
421 36 9 0.52 0.048372472468731206 0.16391767892140877 1.0739934386417448e-11 0 0 0
422 36 20 -0.5 3.038947176601253 0.0263236687596482 19.999999999999737 0 0 -1
423 36 19 -0.35 1.4807901381870747 17.269245530645573 19.999999999999996 0 -1 -1
425 36 1 0.22 5.330544002231731 18.080556418572016 19.999999999480455 0 -1 -1
427 36 11 0.06 3.972779065246187 19.711827014913958 2.837951254742742 0 -1 0
429 36 11 0.06 5.717041897815981 1.8340295358070549 19.99999999999831 0 0 -1
433 37 9 0.52 0.048372472468731206 0.16391767892140877 1.0739934386417448e-11 0 0 0
434 37 20 -0.5 3.038947176601253 0.0263236687596482 19.999999999999737 0 0 -1
435 37 19 -0.35 1.4807901381870747 17.269245530645573 19.999999999999996 0 -1 -1
437 37 1 0.22 5.330544002231731 18.080556418572016 19.999999999480455 0 -1 -1
439 37 11 0.06 3.972779065246187 19.711827014913958 2.837951254742742 0 -1 0
441 37 11 0.06 5.717041897815981 1.8340295358070549 19.99999999999831 0 0 -1
445 38 9 0.52 0.048372472468731206 0.16391767892140877 1.0739934386417448e-11 0 0 0
446 38 20 -0.5 3.038947176601253 0.0263236687596482 19.999999999999737 0 0 -1
447 38 19 -0.35 1.4807901381870747 17.269245530645573 19.999999999999996 0 -1 -1
449 38 1 0.22 5.330544002231731 18.080556418572016 19.999999999480455 0 -1 -1
451 38 11 0.06 3.972779065246187 19.711827014913958 2.837951254742742 0 -1 0
453 38 11 0.06 5.717041897815981 1.8340295358070549 19.99999999999831 0 0 -1
457 39 9 0.52 0.048372472468731206 0.16391767892140877 1.0739934386417448e-11 0 0 0
458 39 20 -0.5 3.038947176601253 0.0263236687596482 19.999999999999737 0 0 -1
459 39 19 -0.35 1.4807901381870747 17.269245530645573 19.999999999999996 0 -1 -1
461 39 1 0.22 5.330544002231731 18.080556418572016 19.999999999480455 0 -1 -1
463 39 11 0.06 3.972779065246187 19.711827014913958 2.837951254742742 0 -1 0
465 39 11 0.06 5.717041897815981 1.8340295358070549 19.99999999999831 0 0 -1
469 40 9 0.52 0.048372472468731206 0.16391767892140877 1.0739934386417448e-11 0 0 0
470 40 20 -0.5 3.038947176601253 0.0263236687596482 19.999999999999737 0 0 -1
471 40 19 -0.35 1.4807901381870747 17.269245530645573 19.999999999999996 0 -1 -1
473 40 1 0.22 5.330544002231731 18.080556418572016 19.999999999480455 0 -1 -1
475 40 11 0.06 3.972779065246187 19.711827014913958 2.837951254742742 0 -1 0
477 40 11 0.06 5.717041897815981 1.8340295358070549 19.99999999999831 0 0 -1
481 41 9 0.52 0.048372472468731206 0.16391767892140877 1.0739934386417448e-11 0 0 0
482 41 20 -0.5 3.038947176601253 0.0263236687596482 19.999999999999737 0 0 -1
483 41 19 -0.35 1.4807901381870747 17.269245530645573 19.999999999999996 0 -1 -1
485 41 1 0.22 5.330544002231731 18.080556418572016 19.999999999480455 0 -1 -1
487 41 11 0.06 3.972779065246187 19.711827014913958 2.837951254742742 0 -1 0
489 41 11 0.06 5.717041897815981 1.8340295358070549 19.99999999999831 0 0 -1
493 42 9 0.52 0.048372472468731206 0.16391767892140877 1.0739934386417448e-11 0 0 0
494 42 20 -0.5 3.038947176601253 0.0263236687596482 19.999999999999737 0 0 -1
495 42 19 -0.35 1.4807901381870747 17.269245530645573 19.999999999999996 0 -1 -1
497 42 1 0.22 5.330544002231731 18.080556418572016 19.999999999480455 0 -1 -1
499 42 11 0.06 3.972779065246187 19.711827014913958 2.837951254742742 0 -1 0
501 42 11 0.06 5.717041897815981 1.8340295358070549 19.99999999999831 0 0 -1
505 43 9 0.52 0.048372472468731206 0.16391767892140877 1.0739934386417448e-11 0 0 0
506 43 20 -0.5 3.038947176601253 0.0263236687596482 19.999999999999737 0 0 -1
507 43 19 -0.35 1.4807901381870747 17.269245530645573 19.999999999999996 0 -1 -1
509 43 1 0.22 5.330544002231731 18.080556418572016 19.999999999480455 0 -1 -1
511 43 11 0.06 3.972779065246187 19.711827014913958 2.837951254742742 0 -1 0
513 43 11 0.06 5.717041897815981 1.8340295358070549 19.99999999999831 0 0 -1
517 44 9 0.52 0.048372472468731206 0.16391767892140877 1.0739934386417448e-11 0 0 0
518 44 20 -0.5 3.038947176601253 0.0263236687596482 19.999999999999737 0 0 -1
519 44 19 -0.35 1.4807901381870747 17.269245530645573 19.999999999999996 0 -1 -1
521 44 1 0.22 5.330544002231731 18.080556418572016 19.999999999480455 0 -1 -1
523 44 11 0.06 3.972779065246187 19.711827014913958 2.837951254742742 0 -1 0
525 44 11 0.06 5.717041897815981 1.8340295358070549 19.99999999999831 0 0 -1
529 45 9 0.52 0.048372472468731206 0.16391767892140877 1.0739934386417448e-11 0 0 0
530 45 20 -0.5 3.038947176601253 0.0263236687596482 19.999999999999737 0 0 -1
531 45 19 -0.35 1.4807901381870747 17.269245530645573 19.999999999999996 0 -1 -1
533 45 1 0.22 5.330544002231731 18.080556418572016 19.999999999480455 0 -1 -1
535 45 11 0.06 3.972779065246187 19.711827014913958 2.837951254742742 0 -1 0
537 45 11 0.06 5.717041897815981 1.8340295358070549 19.99999999999831 0 0 -1
541 46 9 0.52 17.27053590228104 2.3090452450370513 1.4718083023169517e-11 -1 0 0
542 46 20 -0.5 2.9840800345640264 3.047764527330161 9.529381980729668e-12 0 0 0
544 46 19 -0.35 0.05123267900327271 3.2652965254866935 19.999999999930008 0 0 -1
545 46 2 0.22 4.098800595842785 5.817753947439643 19.999999999998405 0 0 -1
549 46 11 0.06 2.051854883917964 2.146380504809325 2.9263629027586253 0 0 0
551 47 9 0.52 17.27053590228104 2.3090452450370513 1.4588950562527668e-11 -1 0 0
552 47 20 -0.5 2.9840800345640264 3.047764527330161 8.07036798406154e-12 0 0 0
554 47 19 -0.35 0.05123267900327271 3.2652965254866935 19.99999999992998 0 0 -1
555 47 2 0.22 4.098800595842785 5.817753947439643 19.999999999998405 0 0 -1
559 47 11 0.06 2.051854883917964 2.146380504809325 2.9263629027586253 0 0 0
561 48 9 0.52 17.27053590228104 2.3090452450370513 1.4585637681265717e-11 -1 0 0
562 48 20 -0.5 2.9840800345640264 3.047764527330161 8.068578317380822e-12 0 0 0
564 48 19 -0.35 0.05123267900327271 3.2652965254866935 19.99999999992998 0 0 -1
565 48 2 0.22 4.098800595842785 5.817753947439643 19.999999999998405 0 0 -1
569 48 11 0.06 2.051854883917964 2.146380504809325 2.9263629027586253 0 0 0
571 49 9 0.52 17.27053590228104 2.309045245037052 1.4582472772480498e-11 -1 0 0
572 49 20 -0.5 2.9840800345640264 3.047764527330161 8.158074866709219e-12 0 0 0
574 49 19 -0.35 0.05123267900327253 3.2652965254866904 19.99999999992998 0 0 -1
575 49 2 0.22 4.098800595842785 5.817753947439643 19.999999999998405 0 0 -1
579 49 11 0.06 2.051854883917964 2.1463805048087776 2.926362902758133 0 0 0
581 50 9 0.52 17.27053590228104 2.309045245037052 1.460535883702932e-11 -1 0 0
582 50 20 -0.5 2.9840800345640264 3.047764527330161 8.138505999944584e-12 0 0 0
584 50 19 -0.35 0.05123267900327253 3.2652965254866904 19.99999999992998 0 0 -1
585 50 2 0.22 4.098800595842785 5.817753947439643 19.999999999998405 0 0 -1
589 50 11 0.06 2.051854883917964 2.1463805048087776 2.926362902758133 0 0 0
591 51 9 0.52 17.27053590228104 2.309045245037052 1.4591822821114952e-11 -1 0 0
592 51 20 -0.5 2.9840800345640264 3.047764527330161 8.166317164560081e-12 0 0 0
594 51 19 -0.35 0.05123267900327253 3.2652965254866904 19.99999999992998 0 0 -1
595 51 2 0.22 4.098800595842785 5.817753947439643 19.999999999998405 0 0 -1
599 51 11 0.06 2.051854883917964 2.1463805048087776 2.926362902758133 0 0 0
601 52 9 0.52 17.27053590228104 2.309045245037052 1.459645459430872e-11 -1 0 0
602 52 20 -0.5 2.9840800345640264 3.047764527330161 8.166561358619424e-12 0 0 0
604 52 19 -0.35 0.05123267900327253 3.2652965254866904 19.99999999992998 0 0 -1
605 52 2 0.22 4.098800595842785 5.817753947439643 19.999999999998405 0 0 -1
609 52 11 0.06 2.051854883917964 2.1463805048087776 2.926362902758133 0 0 0
611 53 9 0.52 17.27053590228104 2.309045245037052 1.461801378078997e-11 -1 0 0
612 53 20 -0.5 2.9840800345640264 3.047764527330161 8.166573883733182e-12 0 0 0
614 53 19 -0.35 0.05123267900327253 3.2652965254866904 19.99999999992998 0 0 -1
615 53 2 0.22 4.098800595842785 5.817753947439643 19.999999999998405 0 0 -1
619 53 11 0.06 2.051854883917964 2.1463805048087776 2.926362902758133 0 0 0
621 54 9 0.52 17.27053590228104 2.309045245037052 1.466616118547317e-11 -1 0 0
622 54 20 -0.5 2.984080034564027 3.047764527330161 8.071799481139448e-12 0 0 0
624 54 19 -0.35 0.051232679003272504 3.2652965254866904 19.99999999992998 0 0 -1
625 54 2 0.22 4.098800595842909 5.817753947439582 19.999999999998405 0 0 -1
629 54 11 0.06 2.051854883917964 2.1463805048087776 2.926362902758133 0 0 0
631 55 9 0.52 17.27053590228104 2.309045245037052 1.465416452407225e-11 -1 0 0
632 55 20 -0.5 2.984080034564027 3.047764527330161 8.071809023766115e-12 0 0 0
634 55 19 -0.35 0.051232679003272504 3.2652965254866904 19.99999999992998 0 0 -1
635 55 2 0.22 4.098800595842909 5.817753947439582 19.999999999998405 0 0 -1
639 55 11 0.06 2.051854883917964 2.1463805048087776 2.926362902758133 0 0 0
641 56 9 0.52 17.27053590228104 2.309045245037052 1.462031338415441e-11 -1 0 0
642 56 20 -0.5 2.984080034564027 3.047764527330161 8.07180898308419e-12 0 0 0
644 56 19 -0.35 0.051232679003272504 3.2652965254866904 19.99999999992998 0 0 -1
645 56 2 0.22 4.098800595842909 5.817753947439582 19.999999999998405 0 0 -1
649 56 11 0.06 2.051854883917964 2.1463805048087776 2.926362902758133 0 0 0
651 57 9 0.52 17.27053590228104 2.309045245037052 1.4585289866902545e-11 -1 0 0
652 57 20 -0.5 2.984080034564027 3.047764527330161 8.07456295631441e-12 0 0 0
654 57 19 -0.35 0.051232679003272504 3.2652965254866904 19.99999999992998 0 0 -1
655 57 2 0.22 4.098800595842909 5.817753947439582 19.999999999998405 0 0 -1
659 57 11 0.06 2.051854883917964 2.1463805048087776 2.926362902758133 0 0 0
661 58 9 0.52 17.27053590228104 2.309045245037052 1.4665572563221317e-11 -1 0 0
662 58 20 -0.5 2.984080034564027 3.047764527330161 8.151699182646259e-12 0 0 0
664 58 19 -0.35 0.051232679003272504 3.2652965254866904 19.99999999992998 0 0 -1
665 58 2 0.22 4.098800595842909 5.817753947439582 19.999999999998405 0 0 -1
669 58 11 0.06 2.051854883917964 2.1463805048087776 2.926362902758133 0 0 0
671 59 9 0.52 17.27053590228104 2.309045245037052 1.4670767695215684e-11 -1 0 0
672 59 20 -0.5 2.984080034564027 3.047764527330161 7.967562751626162e-12 0 0 0
674 59 19 -0.35 0.051232679003272504 3.2652965254866904 19.99999999992998 0 0 -1
675 59 2 0.22 4.098800595842909 5.817753947439582 19.999999999998405 0 0 -1
679 59 11 0.06 2.051854883917964 2.1463805048087776 2.926362902758133 0 0 0
681 60 9 0.52 17.27053590228104 2.309045245037052 1.4670448718548032e-11 -1 0 0
682 60 20 -0.5 2.984080034564027 3.047764527330161 7.967554932141967e-12 0 0 0
684 60 19 -0.35 0.051232679003272504 3.2652965254866904 19.99999999992998 0 0 -1
685 60 2 0.22 4.098800595842909 5.817753947439582 19.999999999998405 0 0 -1
689 60 11 0.06 2.051854883917964 2.1463805048087776 2.926362902758133 0 0 0
691 61 9 0.52 17.27053590228104 2.309045245037052 1.466172796422976e-11 -1 0 0
692 61 20 -0.5 2.9840800345640264 3.047764527330161 7.967563606323953e-12 0 0 0
694 61 19 -0.35 0.051232679003272524 3.2652965254866904 19.99999999992998 0 0 -1
695 61 2 0.22 4.098800595842785 5.817753947439643 19.999999999998405 0 0 -1
699 61 11 0.06 2.051854883917964 2.1463805048087776 2.926362902758133 0 0 0
701 62 9 0.52 17.27053590228104 2.309045245037052 1.462987989288144e-11 -1 0 0
702 62 20 -0.5 2.9840800345640264 3.047764527330161 7.961146582945455e-12 0 0 0
704 62 19 -0.35 0.051232679003272524 3.2652965254866904 19.99999999992998 0 0 -1
705 62 2 0.22 4.098800595842785 5.817753947439643 19.999999999998405 0 0 -1
709 62 11 0.06 2.051854883917964 2.1463805048087776 2.926362902758133 0 0 0
711 63 9 0.52 17.27053590228104 2.309045245037052 2.2628190872914155e-11 -1 0 0
712 63 20 -0.5 2.9840800345640264 3.047764527330161 1.0603578610829703e-10 0 0 0
714 63 19 -0.35 0.05123267900327384 3.2652965254866917 3.7730064565881556e-10 0 0 0
715 63 2 0.22 4.098800595842909 5.817753947439582 19.999999999998543 0 0 -1
719 63 11 0.06 2.051854883917964 2.1463805048087776 2.926362902758133 0 0 0
721 64 9 0.52 17.27053590228104 2.309045245037052 2.2605262659081077e-11 -1 0 0
722 64 20 -0.5 2.9840800345640264 3.047764527330161 1.1637128963718143e-10 0 0 0
724 64 19 -0.35 0.05123267900327384 3.2652965254866917 3.773828703125667e-10 0 0 0
725 64 2 0.22 4.098800595842909 5.817753947439582 19.999999999998543 0 0 -1
729 64 11 0.06 2.051854883917964 2.1463805048087776 2.926362902758133 0 0 0
731 65 31 1 16.802837110653908 19.37857608113257 5.764075059122122e-11 -1 -1 0
732 66 31 1 16.802837110653908 19.37857608113257 5.764075059122122e-11 -1 -1 0
733 67 31 1 16.802837110653908 19.37857608113257 5.764075059122122e-11 -1 -1 0
734 68 31 1 16.802837110653908 19.37857608113257 5.764075059122122e-11 -1 -1 0
735 69 31 1 16.802837110653908 19.37857608113257 5.764075059122122e-11 -1 -1 0
736 70 27 1.34 17.162897253994693 19.4273710519515 19.999999999325787 -1 -1 -1
737 70 26 -0.39 2.9766526779582785 14.604139047985809 19.999999999999996 0 -1 -1
739 70 26 -0.39 1.1052044187114203 6.056333631602246 1.2956905809460788e-12 0 0 0
741 70 26 -0.39 19.96774289109962 19.973352371408616 2.9995116903441317 -1 -1 0
743 71 27 1.34 17.162897253994693 19.4273710519515 19.999999999325787 -1 -1 -1
744 71 26 -0.39 2.9766526779582785 14.604139047985809 19.999999999999996 0 -1 -1
746 71 26 -0.39 1.1052044187114203 6.056333631602246 1.2956905809460788e-12 0 0 0
748 71 26 -0.39 19.96774289109962 19.973352371408616 2.9995116903441317 -1 -1 0
750 72 27 1.34 17.162897253994693 19.4273710519515 19.999999999325787 -1 -1 -1
751 72 26 -0.39 2.9766526779582785 14.604139047985809 19.999999999999996 0 -1 -1
753 72 26 -0.39 1.1052044187114203 6.056333631602246 1.2956905809460788e-12 0 0 0
755 72 26 -0.39 19.96774289109962 19.973352371408616 2.9995116903441317 -1 -1 0
757 73 27 1.34 17.162897253994693 19.4273710519515 19.999999999325787 -1 -1 -1
758 73 26 -0.39 2.9766526779582785 14.604139047985809 19.999999999999996 0 -1 -1
760 73 26 -0.39 1.1052044187114203 6.056333631602246 1.2956905809460788e-12 0 0 0
762 73 26 -0.39 19.96774289109962 19.973352371408616 2.9995116903441317 -1 -1 0
764 74 27 1.34 17.162897253994693 19.4273710519515 19.999999999325787 -1 -1 -1
765 74 26 -0.39 2.9766526779582785 14.604139047985809 19.999999999999996 0 -1 -1
767 74 26 -0.39 1.1052044187114203 6.056333631602246 1.2956905809460788e-12 0 0 0
769 74 26 -0.39 19.96774289109962 19.973352371408616 2.9995116903441317 -1 -1 0
4 1 19 -0.35 18.429160846821176 16.666821762394004 8.309912042907076e-12 -1 -1 0
6 1 1 0.22 14.469593513681712 1.2582931106677695 19.999999999999737 -1 0 -1
10 1 11 0.06 15.947392399777236 19.800629674257447 2.819620604112649 -1 -1 0
16 2 19 -0.35 18.429160846821176 16.666821762394004 8.30991204250483e-12 -1 -1 0
18 2 1 0.22 14.469593513681712 1.2582931106677695 19.999999999999737 -1 0 -1
22 2 11 0.06 15.947392399777236 19.800629674257447 2.819620604112649 -1 -1 0
28 3 19 -0.35 18.429160846821176 16.666821762394004 8.309912042493762e-12 -1 -1 0
30 3 1 0.22 14.469593513681712 1.2582931106677695 19.999999999999737 -1 0 -1
34 3 11 0.06 15.947392399777236 19.800629674257447 2.819620604112649 -1 -1 0
40 4 19 -0.35 18.429160846821176 16.666821762394004 8.309912042493762e-12 -1 -1 0
42 4 1 0.22 14.469593513681712 1.2582931106677695 19.999999999999737 -1 0 -1
46 4 11 0.06 15.947392399777236 19.800629674257447 2.819620604112649 -1 -1 0
52 5 19 -0.35 18.429160846821176 16.666821762394004 8.309912042493762e-12 -1 -1 0
54 5 1 0.22 14.469593513681712 1.2582931106677695 19.999999999999737 -1 0 -1
58 5 11 0.06 15.947392399777236 19.800629674257447 2.819620604112649 -1 -1 0
64 6 19 -0.35 18.429160846821176 16.666821762394004 8.309912042491275e-12 -1 -1 0
66 6 1 0.22 14.469593513681712 1.2582931106677695 19.999999999999737 -1 0 -1
70 6 11 0.06 15.947392399777236 19.800629674257447 2.819620604112649 -1 -1 0
76 7 19 -0.35 18.429160846821176 16.666821762394004 8.309912042477819e-12 -1 -1 0
78 7 1 0.22 14.469593513681712 1.2582931106677695 19.999999999999737 -1 0 -1
82 7 11 0.06 15.947392399777236 19.800629674257447 2.819620604112649 -1 -1 0
88 8 19 -0.35 18.429160846821176 16.666821762394004 8.309912042475927e-12 -1 -1 0
90 8 1 0.22 14.469593513681712 1.2582931106677695 19.999999999999737 -1 0 -1
94 8 11 0.06 15.947392399777236 19.800629674257447 2.819620604112649 -1 -1 0
100 9 19 -0.35 18.429160846821176 16.666821762394004 8.309912042475927e-12 -1 -1 0
102 9 1 0.22 14.469593513681712 1.2582931106677695 19.999999999999737 -1 0 -1
106 9 11 0.06 15.947392399777236 19.800629674257447 2.819620604112649 -1 -1 0
112 10 19 -0.35 18.429160846821176 16.666821762394004 8.309912042473808e-12 -1 -1 0
114 10 1 0.22 14.469593513681712 1.2582931106677695 19.999999999999737 -1 0 -1
118 10 11 0.06 15.947392399777236 19.800629674257447 2.819620604112649 -1 -1 0
124 11 19 -0.35 18.429160846821176 16.666821762394004 8.309912042263649e-12 -1 -1 0
126 11 1 0.22 14.469593513681712 1.2582931106677695 19.999999999999737 -1 0 -1
130 11 11 0.06 15.947392399777236 19.800629674257447 2.819620604112649 -1 -1 0
136 12 19 -0.35 18.429160846821176 16.666821762394004 8.309912042261351e-12 -1 -1 0
138 12 1 0.22 14.469593513681712 1.2582931106677695 19.999999999999737 -1 0 -1
142 12 11 0.06 15.947392399777236 19.800629674257447 2.819620604112649 -1 -1 0
148 13 19 -0.35 18.429160846821176 16.666821762394004 8.309912042261351e-12 -1 -1 0
150 13 1 0.22 14.469593513681712 1.2582931106677695 19.999999999999737 -1 0 -1
154 13 11 0.06 15.947392399777236 19.800629674257447 2.819620604112649 -1 -1 0
160 14 19 -0.35 18.429160846821176 16.666821762394004 8.30991204225753e-12 -1 -1 0
162 14 1 0.22 14.469593513681712 1.2582931106677695 19.999999999999737 -1 0 -1
166 14 11 0.06 15.947392399777236 19.800629674257447 2.819620604112649 -1 -1 0
172 15 19 -0.35 18.429160846821176 16.666821762394004 8.30991204225753e-12 -1 -1 0
174 15 1 0.22 14.469593513681712 1.2582931106677695 19.999999999999737 -1 0 -1
178 15 11 0.06 15.947392399777236 19.800629674257447 2.819620604112649 -1 -1 0
184 16 19 -0.35 18.429160846821176 16.666821762394004 8.30991204225753e-12 -1 -1 0
186 16 1 0.22 14.469593513681712 1.2582931106677695 19.999999999999737 -1 0 -1
190 16 11 0.06 15.947392399777236 19.800629674257447 2.819620604112649 -1 -1 0
196 17 19 -0.35 18.429160846821176 16.666821762394004 8.309912041133597e-12 -1 -1 0
198 17 1 0.22 14.469593513681712 1.2582931106677695 19.999999999999737 -1 0 -1
202 17 11 0.06 15.947392399777236 19.800629674257447 2.819620604112649 -1 -1 0
208 18 19 -0.35 18.429160846821176 16.666821762394004 8.309912041133597e-12 -1 -1 0
210 18 1 0.22 14.469593513681712 1.2582931106677695 19.999999999999737 -1 0 -1
214 18 11 0.06 15.947392399777236 19.800629674257447 2.819620604112649 -1 -1 0
220 19 19 -0.35 18.429160846821176 16.666821762394004 8.309912041133597e-12 -1 -1 0
222 19 1 0.22 14.469593513681712 1.2582931106677695 19.999999999999737 -1 0 -1
226 19 11 0.06 15.947392399777236 19.800629674257447 2.819620604112649 -1 -1 0
232 20 19 -0.35 18.429160846821176 16.666821762394004 8.309912041133597e-12 -1 -1 0
234 20 1 0.22 14.469593513681712 1.2582931106677695 19.999999999999737 -1 0 -1
238 20 11 0.06 15.947392399777236 19.800629674257447 2.819620604112649 -1 -1 0
244 21 19 -0.35 18.429160846821176 16.666821762394004 8.309912041133597e-12 -1 -1 0
246 21 1 0.22 14.469593513681712 1.2582931106677695 19.999999999999737 -1 0 -1
250 21 11 0.06 15.947392399777236 19.800629674257447 2.819620604112649 -1 -1 0
256 22 19 -0.35 18.429160846821176 16.666821762394004 8.309912041133597e-12 -1 -1 0
258 22 1 0.22 14.469593513681712 1.2582931106677695 19.999999999999737 -1 0 -1
262 22 11 0.06 15.947392399777236 19.800629674257447 2.819620604112649 -1 -1 0
268 23 19 -0.35 18.429160846821176 16.666821762394004 8.309912041133597e-12 -1 -1 0
270 23 1 0.22 14.469593513681712 1.2582931106677695 19.999999999999737 -1 0 -1
274 23 11 0.06 15.947392399777236 19.800629674257447 2.819620604112649 -1 -1 0
280 24 19 -0.35 18.429160846821176 16.666821762394004 8.309912041133597e-12 -1 -1 0
282 24 1 0.22 14.469593513681712 1.2582931106677695 19.999999999999737 -1 0 -1
286 24 11 0.06 15.947392399777236 19.800629674257447 2.819620604112649 -1 -1 0
292 25 19 -0.35 18.429160846821176 16.666821762394004 8.309912041133597e-12 -1 -1 0
294 25 1 0.22 14.469593513681712 1.2582931106677695 19.999999999999737 -1 0 -1
298 25 11 0.06 15.947392399777236 19.800629674257447 2.819620604112649 -1 -1 0
304 26 19 -0.35 18.429160846821176 16.666821762394004 8.309912041133597e-12 -1 -1 0
306 26 1 0.22 14.469593513681712 1.2582931106677695 19.999999999999737 -1 0 -1
310 26 11 0.06 15.947392399777236 19.800629674257447 2.819620604112649 -1 -1 0
316 27 19 -0.35 18.429160846821176 16.666821762394004 8.309912041133597e-12 -1 -1 0
318 27 1 0.22 14.469593513681712 1.2582931106677695 19.999999999999737 -1 0 -1
322 27 11 0.06 15.947392399777236 19.800629674257447 2.819620604112649 -1 -1 0
328 28 19 -0.35 18.429160846821176 16.666821762394004 8.309912041133597e-12 -1 -1 0
330 28 1 0.22 14.469593513681712 1.2582931106677695 19.999999999999737 -1 0 -1
334 28 11 0.06 15.947392399777236 19.800629674257447 2.819620604112649 -1 -1 0
340 29 19 -0.35 18.429160846821176 16.666821762394004 8.309912041133597e-12 -1 -1 0
342 29 1 0.22 14.469593513681712 1.2582931106677695 19.999999999999737 -1 0 -1
346 29 11 0.06 15.947392399777236 19.800629674257447 2.819620604112649 -1 -1 0
352 30 19 -0.35 18.429160846821176 16.666821762394004 8.309912041133597e-12 -1 -1 0
354 30 1 0.22 14.469593513681712 1.2582931106677695 19.999999999999737 -1 0 -1
358 30 11 0.06 15.947392399777236 19.800629674257447 2.819620604112649 -1 -1 0
364 31 19 -0.35 18.429160846821176 16.666821762394004 8.309912041133597e-12 -1 -1 0
366 31 1 0.22 14.469593513681712 1.2582931106677695 19.999999999999737 -1 0 -1
370 31 11 0.06 15.947392399777236 19.800629674257447 2.819620604112649 -1 -1 0
376 32 19 -0.35 18.429160846821176 16.666821762394004 8.309912042253992e-12 -1 -1 0
378 32 1 0.22 14.469593513681712 1.2582931106677695 19.999999999999737 -1 0 -1
382 32 11 0.06 15.947392399777236 19.800629674257447 2.819620604112649 -1 -1 0
388 33 19 -0.35 18.429160846821176 16.666821762394004 8.309912042253992e-12 -1 -1 0
390 33 1 0.22 14.469593513681712 1.2582931106677695 19.999999999999737 -1 0 -1
394 33 11 0.06 15.947392399777236 19.800629674257447 2.819620604112649 -1 -1 0
400 34 19 -0.35 18.429160846821176 16.666821762394004 8.309912042253992e-12 -1 -1 0
402 34 1 0.22 14.469593513681712 1.2582931106677695 19.999999999999737 -1 0 -1
406 34 11 0.06 15.947392399777236 19.800629674257447 2.819620604112649 -1 -1 0
412 35 19 -0.35 18.429160846821176 16.666821762394004 8.309912042253992e-12 -1 -1 0
414 35 1 0.22 14.469593513681712 1.2582931106677695 19.999999999999737 -1 0 -1
418 35 11 0.06 15.947392399777236 19.800629674257447 2.819620604112649 -1 -1 0
424 36 19 -0.35 18.429160846821176 16.666821762394004 8.309912042253992e-12 -1 -1 0
426 36 1 0.22 14.469593513681712 1.2582931106677695 19.999999999999737 -1 0 -1
430 36 11 0.06 15.947392399777236 19.800629674257447 2.819620604112649 -1 -1 0
436 37 19 -0.35 18.429160846821176 16.666821762394004 8.309912042253992e-12 -1 -1 0
438 37 1 0.22 14.469593513681712 1.2582931106677695 19.999999999999737 -1 0 -1
442 37 11 0.06 15.947392399777236 19.800629674257447 2.819620604112649 -1 -1 0
448 38 19 -0.35 18.429160846821176 16.666821762394004 8.309912042253992e-12 -1 -1 0
450 38 1 0.22 14.469593513681712 1.2582931106677695 19.999999999999737 -1 0 -1
454 38 11 0.06 15.947392399777236 19.800629674257447 2.819620604112649 -1 -1 0
460 39 19 -0.35 18.429160846821176 16.666821762394004 8.309912042253992e-12 -1 -1 0
462 39 1 0.22 14.469593513681712 1.2582931106677695 19.999999999999737 -1 0 -1
466 39 11 0.06 15.947392399777236 19.800629674257447 2.819620604112649 -1 -1 0
472 40 19 -0.35 18.429160846821176 16.666821762394004 8.309912042253992e-12 -1 -1 0
474 40 1 0.22 14.469593513681712 1.2582931106677695 19.999999999999737 -1 0 -1
478 40 11 0.06 15.947392399777236 19.800629674257447 2.819620604112649 -1 -1 0
484 41 19 -0.35 18.429160846821176 16.666821762394004 8.309912042253992e-12 -1 -1 0
486 41 1 0.22 14.469593513681712 1.2582931106677695 19.999999999999737 -1 0 -1
490 41 11 0.06 15.947392399777236 19.800629674257447 2.819620604112649 -1 -1 0
496 42 19 -0.35 18.429160846821176 16.666821762394004 8.309912042253992e-12 -1 -1 0
498 42 1 0.22 14.469593513681712 1.2582931106677695 19.999999999999737 -1 0 -1
502 42 11 0.06 15.947392399777236 19.800629674257447 2.819620604112649 -1 -1 0
508 43 19 -0.35 18.429160846821176 16.666821762394004 8.309912042253992e-12 -1 -1 0
510 43 1 0.22 14.469593513681712 1.2582931106677695 19.999999999999737 -1 0 -1
514 43 11 0.06 15.947392399777236 19.800629674257447 2.819620604112649 -1 -1 0
520 44 19 -0.35 18.429160846821176 16.666821762394004 8.309912042253992e-12 -1 -1 0
522 44 1 0.22 14.469593513681712 1.2582931106677695 19.999999999999737 -1 0 -1
526 44 11 0.06 15.947392399777236 19.800629674257447 2.819620604112649 -1 -1 0
532 45 19 -0.35 18.429160846821176 16.666821762394004 8.309912042253992e-12 -1 -1 0
534 45 1 0.22 14.469593513681712 1.2582931106677695 19.999999999999737 -1 0 -1
538 45 11 0.06 15.947392399777236 19.800629674257447 2.819620604112649 -1 -1 0
543 46 19 -0.35 18.120446168784124 5.550026406389504 9.697483080871104e-13 -1 0 0
546 46 2 0.22 15.284010722995612 4.541000872688592 19.999999999999485 -1 0 -1
547 46 11 0.06 17.8004950202856 2.157135155107434 2.9881257870008997 -1 0 0
553 47 19 -0.35 18.120446168784124 5.550026406389504 8.854932813052335e-13 -1 0 0
556 47 2 0.22 15.284010722995612 4.541000872688592 19.999999999999485 -1 0 -1
557 47 11 0.06 17.8004950202856 2.157135155107434 2.9881257870008997 -1 0 0
563 48 19 -0.35 18.120446168784124 5.550026406389504 8.85283120845143e-13 -1 0 0
566 48 2 0.22 15.284010722995612 4.541000872688592 19.999999999999485 -1 0 -1
567 48 11 0.06 17.8004950202856 2.157135155107434 2.9881257870008997 -1 0 0
573 49 19 -0.35 18.120446168784127 5.550026406389525 8.961287528189546e-13 -1 0 0
576 49 2 0.22 15.284010722995609 4.54100087268859 19.999999999999485 -1 0 -1
577 49 11 0.06 17.8004950202856 2.157135155107434 2.9881257870008997 -1 0 0
583 50 19 -0.35 18.120446168784127 5.550026406389525 8.961102442015058e-13 -1 0 0
586 50 2 0.22 15.284010722995609 4.54100087268859 19.999999999999485 -1 0 -1
587 50 11 0.06 17.8004950202856 2.157135155107434 2.9881257870008997 -1 0 0
593 51 19 -0.35 18.120446168784127 5.550026406389525 9.013996026293249e-13 -1 0 0
596 51 2 0.22 15.284010722995609 4.54100087268859 19.999999999999485 -1 0 -1
597 51 11 0.06 17.8004950202856 2.157135155107434 2.9881257870008997 -1 0 0
603 52 19 -0.35 18.120446168784127 5.550026406389525 9.01932240265939e-13 -1 0 0
606 52 2 0.22 15.284010722995609 4.54100087268859 19.999999999999485 -1 0 -1
607 52 11 0.06 17.8004950202856 2.157135155107434 2.9881257870008997 -1 0 0
613 53 19 -0.35 18.120446168784127 5.550026406389525 8.978352498927057e-13 -1 0 0
616 53 2 0.22 15.284010722995609 4.54100087268859 19.999999999999485 -1 0 -1
617 53 11 0.06 17.8004950202856 2.157135155107434 2.9881257870008997 -1 0 0
623 54 19 -0.35 18.120446168784127 5.550026406389525 9.008748374951335e-13 -1 0 0
626 54 2 0.22 15.284010722995609 4.54100087268859 19.999999999999485 -1 0 -1
627 54 11 0.06 17.8004950202856 2.157135155107434 2.9881257870008997 -1 0 0
633 55 19 -0.35 18.120446168784127 5.550026406389525 8.994330443410407e-13 -1 0 0
636 55 2 0.22 15.284010722995609 4.54100087268859 19.999999999999485 -1 0 -1
637 55 11 0.06 17.8004950202856 2.157135155107434 2.9881257870008997 -1 0 0
643 56 19 -0.35 18.120446168784127 5.550026406389525 9.006971017033642e-13 -1 0 0
646 56 2 0.22 15.284010722995609 4.54100087268859 19.999999999999485 -1 0 -1
647 56 11 0.06 17.8004950202856 2.157135155107434 2.9881257870008997 -1 0 0
653 57 19 -0.35 18.120446168784127 5.550026406389525 8.986582321399174e-13 -1 0 0
656 57 2 0.22 15.284010722995609 4.54100087268859 19.999999999999485 -1 0 -1
657 57 11 0.06 17.8004950202856 2.157135155107434 2.9881257870008997 -1 0 0
663 58 19 -0.35 18.120446168784127 5.550026406389525 8.983927026596843e-13 -1 0 0
666 58 2 0.22 15.284010722995609 4.54100087268859 19.999999999999485 -1 0 -1
667 58 11 0.06 17.8004950202856 2.157135155107434 2.9881257870008997 -1 0 0
673 59 19 -0.35 18.120446168784127 5.550026406389525 8.980332278579923e-13 -1 0 0
676 59 2 0.22 15.284010722995609 4.54100087268859 19.999999999999485 -1 0 -1
677 59 11 0.06 17.8004950202856 2.157135155107434 2.9881257870008997 -1 0 0
683 60 19 -0.35 18.120446168784127 5.550026406389525 9.026791536877753e-13 -1 0 0
686 60 2 0.22 15.284010722995609 4.54100087268859 19.999999999999485 -1 0 -1
687 60 11 0.06 17.8004950202856 2.157135155107434 2.9881257870008997 -1 0 0
693 61 19 -0.35 18.120446168784127 5.550026406389525 9.029369578394228e-13 -1 0 0
696 61 2 0.22 15.284010722995609 4.54100087268859 19.999999999999485 -1 0 -1
697 61 11 0.06 17.8004950202856 2.157135155107434 2.9881257870008997 -1 0 0
703 62 19 -0.35 18.120446168784127 5.550026406389525 9.012676005729356e-13 -1 0 0
706 62 2 0.22 15.284010722995609 4.54100087268859 19.999999999999485 -1 0 -1
707 62 11 0.06 17.8004950202856 2.157135155107434 2.9881257870008997 -1 0 0
713 63 19 -0.35 18.120446168784127 5.550026406389525 2.671731170821224e-12 -1 0 0
716 63 2 0.22 15.284010722995609 4.54100087268859 19.99999999999949 -1 0 -1
717 63 11 0.06 17.8004950202856 2.157135155107434 2.9881257870008997 -1 0 0
723 64 19 -0.35 18.120446168784127 5.550026406389525 2.770245615216789e-12 -1 0 0
726 64 2 0.22 15.284010722995609 4.54100087268859 19.99999999999949 -1 0 -1
727 64 11 0.06 17.8004950202856 2.157135155107434 2.9881257870008997 -1 0 0
738 70 26 -0.39 16.8694174999961 19.35107447122911 1.1654007427201178e-10 -1 -1 0
745 71 26 -0.39 16.8694174999961 19.35107447122911 1.1654007427201178e-10 -1 -1 0
752 72 26 -0.39 16.8694174999961 19.35107447122911 1.1654007427201178e-10 -1 -1 0
759 73 26 -0.39 16.8694174999961 19.35107447122911 1.1654007427201178e-10 -1 -1 0
766 74 26 -0.39 16.8694174999961 19.35107447122911 1.1654007427201178e-10 -1 -1 0
740 70 26 -0.39 0.029631211013845287 14.149005893844656 19.999999999999815 0 -1 -1
747 71 26 -0.39 0.029631211013845287 14.149005893844656 19.999999999999815 0 -1 -1
754 72 26 -0.39 0.029631211013845287 14.149005893844656 19.999999999999815 0 -1 -1
761 73 26 -0.39 0.029631211013845287 14.149005893844656 19.999999999999815 0 -1 -1
768 74 26 -0.39 0.029631211013845287 14.149005893844656 19.999999999999815 0 -1 -1
12 1 11 0.06 15.011496991384325 17.031754858869174 19.999999999999634 -1 -1 -1
24 2 11 0.06 15.011496991384325 17.031754858869174 19.999999999999634 -1 -1 -1
36 3 11 0.06 15.011496991384325 17.031754858869174 19.999999999999634 -1 -1 -1
48 4 11 0.06 15.011496991384325 17.031754858869174 19.999999999999634 -1 -1 -1
60 5 11 0.06 15.011496991384325 17.031754858869174 19.999999999999634 -1 -1 -1
72 6 11 0.06 15.011496991384325 17.031754858869174 19.999999999999634 -1 -1 -1
84 7 11 0.06 15.011496991384325 17.031754858869174 19.999999999999634 -1 -1 -1
96 8 11 0.06 15.011496991384325 17.031754858869174 19.999999999999634 -1 -1 -1
108 9 11 0.06 15.011496991384325 17.031754858869174 19.999999999999634 -1 -1 -1
120 10 11 0.06 15.011496991384325 17.031754858869174 19.999999999999634 -1 -1 -1
132 11 11 0.06 15.011496991384325 17.031754858869174 19.999999999999634 -1 -1 -1
144 12 11 0.06 15.011496991384325 17.031754858869174 19.999999999999634 -1 -1 -1
156 13 11 0.06 15.011496991384325 17.031754858869174 19.999999999999634 -1 -1 -1
168 14 11 0.06 15.011496991384325 17.031754858869174 19.999999999999634 -1 -1 -1
180 15 11 0.06 15.011496991384325 17.031754858869174 19.999999999999634 -1 -1 -1
192 16 11 0.06 15.011496991384325 17.031754858869174 19.999999999999634 -1 -1 -1
204 17 11 0.06 15.011496991384325 17.031754858869174 19.999999999999634 -1 -1 -1
216 18 11 0.06 15.011496991384325 17.031754858869174 19.999999999999634 -1 -1 -1
228 19 11 0.06 15.011496991384325 17.031754858869174 19.999999999999634 -1 -1 -1
240 20 11 0.06 15.011496991384325 17.031754858869174 19.999999999999634 -1 -1 -1
252 21 11 0.06 15.011496991384325 17.031754858869174 19.999999999999634 -1 -1 -1
264 22 11 0.06 15.011496991384325 17.031754858869174 19.999999999999634 -1 -1 -1
276 23 11 0.06 15.011496991384325 17.031754858869174 19.999999999999634 -1 -1 -1
288 24 11 0.06 15.011496991384325 17.031754858869174 19.999999999999634 -1 -1 -1
300 25 11 0.06 15.011496991384325 17.031754858869174 19.999999999999634 -1 -1 -1
312 26 11 0.06 15.011496991384325 17.031754858869174 19.999999999999634 -1 -1 -1
324 27 11 0.06 15.011496991384325 17.031754858869174 19.999999999999634 -1 -1 -1
336 28 11 0.06 15.011496991384325 17.031754858869174 19.999999999999634 -1 -1 -1
348 29 11 0.06 15.011496991384325 17.031754858869174 19.999999999999634 -1 -1 -1
360 30 11 0.06 15.011496991384325 17.031754858869174 19.999999999999634 -1 -1 -1
372 31 11 0.06 15.011496991384325 17.031754858869174 19.999999999999634 -1 -1 -1
384 32 11 0.06 15.011496991384325 17.031754858869174 19.999999999999634 -1 -1 -1
396 33 11 0.06 15.011496991384325 17.031754858869174 19.999999999999634 -1 -1 -1
408 34 11 0.06 15.011496991384325 17.031754858869174 19.999999999999634 -1 -1 -1
420 35 11 0.06 15.011496991384325 17.031754858869174 19.999999999999634 -1 -1 -1
432 36 11 0.06 15.011496991384325 17.031754858869174 19.999999999999634 -1 -1 -1
444 37 11 0.06 15.011496991384325 17.031754858869174 19.999999999999634 -1 -1 -1
456 38 11 0.06 15.011496991384325 17.031754858869174 19.999999999999634 -1 -1 -1
468 39 11 0.06 15.011496991384325 17.031754858869174 19.999999999999634 -1 -1 -1
480 40 11 0.06 15.011496991384325 17.031754858869174 19.999999999999634 -1 -1 -1
492 41 11 0.06 15.011496991384325 17.031754858869174 19.999999999999634 -1 -1 -1
504 42 11 0.06 15.011496991384325 17.031754858869174 19.999999999999634 -1 -1 -1
516 43 11 0.06 15.011496991384325 17.031754858869174 19.999999999999634 -1 -1 -1
528 44 11 0.06 15.011496991384325 17.031754858869174 19.999999999999634 -1 -1 -1
540 45 11 0.06 15.011496991384325 17.031754858869174 19.999999999999634 -1 -1 -1
8 1 11 0.06 3.972779168417509 19.711827014063374 17.16204877960385 0 -1 -1
20 2 11 0.06 3.9727791684175107 19.711827014063374 17.162048779603865 0 -1 -1
32 3 11 0.06 3.9727791684175195 19.711827014063374 17.162048779603865 0 -1 -1
44 4 11 0.06 3.9727791684175195 19.711827014063374 17.162048779603865 0 -1 -1
56 5 11 0.06 3.9727791684175195 19.711827014063374 17.162048779603865 0 -1 -1
68 6 11 0.06 3.9727791684175195 19.711827014063374 17.162048779603865 0 -1 -1
80 7 11 0.06 3.9727791684175195 19.711827014063374 17.162048779603865 0 -1 -1
92 8 11 0.06 3.9727791684175195 19.711827014063374 17.162048779603865 0 -1 -1
104 9 11 0.06 3.9727791684175195 19.711827014063374 17.162048779603865 0 -1 -1
116 10 11 0.06 3.9727791684175195 19.711827014063374 17.162048779603865 0 -1 -1
128 11 11 0.06 3.9727791684175195 19.711827014063374 17.162048779603865 0 -1 -1
140 12 11 0.06 3.9727791684175195 19.711827014063374 17.162048779603865 0 -1 -1
152 13 11 0.06 3.9727791684175195 19.711827014063374 17.162048779603865 0 -1 -1
164 14 11 0.06 3.9727791684175195 19.711827014063374 17.162048779603865 0 -1 -1
176 15 11 0.06 3.9727791684175195 19.711827014063374 17.162048779603865 0 -1 -1
188 16 11 0.06 3.9727791684175195 19.711827014063374 17.162048779603865 0 -1 -1
200 17 11 0.06 3.9727791684175195 19.711827014063374 17.162048779603868 0 -1 -1
212 18 11 0.06 3.9727791684175195 19.711827014063374 17.162048779603868 0 -1 -1
224 19 11 0.06 3.9727791684175195 19.711827014063374 17.162048779603868 0 -1 -1
236 20 11 0.06 3.9727791684175195 19.711827014063374 17.162048779603868 0 -1 -1
248 21 11 0.06 3.9727791684175195 19.711827014063374 17.162048779603868 0 -1 -1
260 22 11 0.06 3.9727791684175195 19.711827014063374 17.162048779603868 0 -1 -1
272 23 11 0.06 3.9727791684175195 19.711827014063374 17.162048779603868 0 -1 -1
284 24 11 0.06 3.9727791684175195 19.711827014063374 17.162048779603868 0 -1 -1
296 25 11 0.06 3.9727791684175195 19.711827014063374 17.162048779603868 0 -1 -1
308 26 11 0.06 3.9727791684175195 19.711827014063374 17.162048779603868 0 -1 -1
320 27 11 0.06 3.9727791684175195 19.711827014063374 17.162048779603868 0 -1 -1
332 28 11 0.06 3.9727791684175195 19.711827014063374 17.162048779603868 0 -1 -1
344 29 11 0.06 3.9727791684175195 19.711827014063374 17.162048779603868 0 -1 -1
356 30 11 0.06 3.9727791684175195 19.711827014063374 17.162048779603868 0 -1 -1
368 31 11 0.06 3.9727791684175195 19.711827014063374 17.162048779603868 0 -1 -1
380 32 11 0.06 3.9727791684175195 19.711827014063374 17.162048779603865 0 -1 -1
392 33 11 0.06 3.9727791684175195 19.711827014063374 17.162048779603865 0 -1 -1
404 34 11 0.06 3.9727791684175195 19.711827014063374 17.162048779603865 0 -1 -1
416 35 11 0.06 3.9727791684175195 19.711827014063374 17.162048779603865 0 -1 -1
428 36 11 0.06 3.9727791684175195 19.711827014063374 17.162048779603865 0 -1 -1
440 37 11 0.06 3.9727791684175195 19.711827014063374 17.162048779603865 0 -1 -1
452 38 11 0.06 3.9727791684175195 19.711827014063374 17.162048779603865 0 -1 -1
464 39 11 0.06 3.9727791684175195 19.711827014063374 17.162048779603865 0 -1 -1
476 40 11 0.06 3.9727791684175195 19.711827014063374 17.162048779603865 0 -1 -1
488 41 11 0.06 3.9727791684175195 19.711827014063374 17.162048779603865 0 -1 -1
500 42 11 0.06 3.9727791684175195 19.711827014063374 17.162048779603865 0 -1 -1
512 43 11 0.06 3.9727791684175195 19.711827014063374 17.162048779603865 0 -1 -1
524 44 11 0.06 3.9727791684175195 19.711827014063374 17.162048779603865 0 -1 -1
536 45 11 0.06 3.9727791684175195 19.711827014063374 17.162048779603865 0 -1 -1
550 46 11 0.06 2.0518548839179473 2.146380504808945 17.073637097242504 0 0 -1
560 47 11 0.06 2.0518548839179473 2.146380504808945 17.073637097242504 0 0 -1
570 48 11 0.06 2.0518548839179473 2.146380504808945 17.073637097242504 0 0 -1
580 49 11 0.06 2.0518548839179473 2.146380504808945 17.073637097242504 0 0 -1
590 50 11 0.06 2.0518548839179473 2.146380504808945 17.073637097242504 0 0 -1
600 51 11 0.06 2.0518548839179473 2.146380504808945 17.073637097242504 0 0 -1
610 52 11 0.06 2.0518548839179473 2.146380504808945 17.073637097242504 0 0 -1
620 53 11 0.06 2.0518548839179473 2.146380504808945 17.073637097242504 0 0 -1
630 54 11 0.06 2.0518548839179473 2.146380504808945 17.073637097242504 0 0 -1
640 55 11 0.06 2.0518548839179473 2.146380504808945 17.073637097242504 0 0 -1
650 56 11 0.06 2.0518548839179473 2.146380504808945 17.073637097242504 0 0 -1
660 57 11 0.06 2.0518548839179473 2.146380504808945 17.073637097242504 0 0 -1
670 58 11 0.06 2.0518548839179473 2.146380504808945 17.073637097242504 0 0 -1
680 59 11 0.06 2.0518548839179473 2.146380504808945 17.073637097242504 0 0 -1
690 60 11 0.06 2.0518548839179473 2.146380504808945 17.073637097242504 0 0 -1
700 61 11 0.06 2.0518548839179473 2.146380504808945 17.073637097242504 0 0 -1
710 62 11 0.06 2.0518548839179473 2.146380504808945 17.073637097242504 0 0 -1
720 63 11 0.06 2.0518548839179473 2.146380504808945 17.073637097242504 0 0 -1
730 64 11 0.06 2.0518548839179473 2.146380504808945 17.073637097242504 0 0 -1
742 70 26 -0.39 19.967742891099594 19.973352371408584 17.000488309657037 -1 -1 -1
749 71 26 -0.39 19.967742891099594 19.973352371408584 17.000488309657037 -1 -1 -1
756 72 26 -0.39 19.967742891099594 19.973352371408584 17.000488309657037 -1 -1 -1
763 73 26 -0.39 19.967742891099594 19.973352371408584 17.000488309657037 -1 -1 -1
770 74 26 -0.39 19.967742891099594 19.973352371408584 17.000488309657037 -1 -1 -1
11 1 11 0.06 15.947392399788592 19.800629674252413 17.180379395921346 -1 -1 -1
23 2 11 0.06 15.947392399788592 19.800629674252413 17.180379395921346 -1 -1 -1
35 3 11 0.06 15.947392399788592 19.800629674252413 17.180379395921346 -1 -1 -1
47 4 11 0.06 15.947392399788592 19.800629674252413 17.180379395921346 -1 -1 -1
59 5 11 0.06 15.947392399788592 19.800629674252413 17.180379395921346 -1 -1 -1
71 6 11 0.06 15.947392399788592 19.800629674252413 17.180379395921346 -1 -1 -1
83 7 11 0.06 15.947392399788592 19.800629674252413 17.180379395921346 -1 -1 -1
95 8 11 0.06 15.947392399788592 19.800629674252413 17.180379395921346 -1 -1 -1
107 9 11 0.06 15.947392399788592 19.800629674252413 17.180379395921346 -1 -1 -1
119 10 11 0.06 15.947392399788592 19.800629674252413 17.180379395921346 -1 -1 -1
131 11 11 0.06 15.947392399788592 19.800629674252413 17.180379395921346 -1 -1 -1
143 12 11 0.06 15.947392399788592 19.800629674252413 17.180379395921346 -1 -1 -1
155 13 11 0.06 15.947392399788592 19.800629674252413 17.180379395921346 -1 -1 -1
167 14 11 0.06 15.947392399788592 19.800629674252413 17.180379395921346 -1 -1 -1
179 15 11 0.06 15.947392399788592 19.800629674252413 17.180379395921346 -1 -1 -1
191 16 11 0.06 15.947392399788592 19.800629674252413 17.180379395921346 -1 -1 -1
203 17 11 0.06 15.947392399788592 19.800629674252413 17.180379395921346 -1 -1 -1
215 18 11 0.06 15.947392399788592 19.800629674252413 17.180379395921346 -1 -1 -1
227 19 11 0.06 15.947392399788592 19.800629674252413 17.180379395921346 -1 -1 -1
239 20 11 0.06 15.947392399788592 19.800629674252413 17.180379395921346 -1 -1 -1
251 21 11 0.06 15.947392399788592 19.800629674252413 17.180379395921346 -1 -1 -1
263 22 11 0.06 15.947392399788592 19.800629674252413 17.180379395921346 -1 -1 -1
275 23 11 0.06 15.947392399788592 19.800629674252413 17.180379395921346 -1 -1 -1
287 24 11 0.06 15.947392399788592 19.800629674252413 17.180379395921346 -1 -1 -1
299 25 11 0.06 15.947392399788592 19.800629674252413 17.180379395921346 -1 -1 -1
311 26 11 0.06 15.947392399788592 19.800629674252413 17.180379395921346 -1 -1 -1
323 27 11 0.06 15.947392399788592 19.800629674252413 17.180379395921346 -1 -1 -1
335 28 11 0.06 15.947392399788592 19.800629674252413 17.180379395921346 -1 -1 -1
347 29 11 0.06 15.947392399788592 19.800629674252413 17.180379395921346 -1 -1 -1
359 30 11 0.06 15.947392399788592 19.800629674252413 17.180379395921346 -1 -1 -1
371 31 11 0.06 15.947392399788592 19.800629674252413 17.180379395921346 -1 -1 -1
383 32 11 0.06 15.947392399788592 19.800629674252413 17.180379395921346 -1 -1 -1
395 33 11 0.06 15.947392399788592 19.800629674252413 17.180379395921346 -1 -1 -1
407 34 11 0.06 15.947392399788592 19.800629674252413 17.180379395921346 -1 -1 -1
419 35 11 0.06 15.947392399788592 19.800629674252413 17.180379395921346 -1 -1 -1
431 36 11 0.06 15.947392399788592 19.800629674252413 17.180379395921346 -1 -1 -1
443 37 11 0.06 15.947392399788592 19.800629674252413 17.180379395921346 -1 -1 -1
455 38 11 0.06 15.947392399788592 19.800629674252413 17.180379395921346 -1 -1 -1
467 39 11 0.06 15.947392399788592 19.800629674252413 17.180379395921346 -1 -1 -1
479 40 11 0.06 15.947392399788592 19.800629674252413 17.180379395921346 -1 -1 -1
491 41 11 0.06 15.947392399788592 19.800629674252413 17.180379395921346 -1 -1 -1
503 42 11 0.06 15.947392399788592 19.800629674252413 17.180379395921346 -1 -1 -1
515 43 11 0.06 15.947392399788592 19.800629674252413 17.180379395921346 -1 -1 -1
527 44 11 0.06 15.947392399788592 19.800629674252413 17.180379395921346 -1 -1 -1
539 45 11 0.06 15.947392399788592 19.800629674252413 17.180379395921346 -1 -1 -1
548 46 11 0.06 17.80049502028557 2.157135155107478 17.011874213000297 -1 0 -1
558 47 11 0.06 17.80049502028557 2.157135155107478 17.011874213000297 -1 0 -1
568 48 11 0.06 17.80049502028557 2.157135155107478 17.011874213000297 -1 0 -1
578 49 11 0.06 17.80049502028557 2.157135155107478 17.011874213000297 -1 0 -1
588 50 11 0.06 17.80049502028557 2.157135155107478 17.011874213000297 -1 0 -1
598 51 11 0.06 17.80049502028557 2.157135155107478 17.011874213000297 -1 0 -1
608 52 11 0.06 17.80049502028557 2.157135155107478 17.011874213000297 -1 0 -1
618 53 11 0.06 17.80049502028557 2.157135155107478 17.011874213000297 -1 0 -1
628 54 11 0.06 17.80049502028557 2.157135155107478 17.011874213000297 -1 0 -1
638 55 11 0.06 17.80049502028557 2.157135155107478 17.011874213000297 -1 0 -1
648 56 11 0.06 17.80049502028557 2.157135155107478 17.011874213000297 -1 0 -1
658 57 11 0.06 17.80049502028557 2.157135155107478 17.011874213000297 -1 0 -1
668 58 11 0.06 17.80049502028557 2.157135155107478 17.011874213000297 -1 0 -1
678 59 11 0.06 17.80049502028557 2.157135155107478 17.011874213000297 -1 0 -1
688 60 11 0.06 17.80049502028557 2.157135155107478 17.011874213000297 -1 0 -1
698 61 11 0.06 17.80049502028557 2.157135155107478 17.011874213000297 -1 0 -1
708 62 11 0.06 17.80049502028557 2.157135155107478 17.011874213000297 -1 0 -1
718 63 11 0.06 17.80049502028557 2.157135155107478 17.011874213000297 -1 0 -1
728 64 11 0.06 17.80049502028557 2.157135155107478 17.011874213000297 -1 0 -1

Velocities

1 0 0 0
2 0 0 0
3 0 0 0
5 0 0 0
7 0 0 0
9 0 0 0
13 0 0 0
14 0 0 0
15 0 0 0
17 0 0 0
19 0 0 0
21 0 0 0
25 0 0 0
26 0 0 0
27 0 0 0
29 0 0 0
31 0 0 0
33 0 0 0
37 0 0 0
38 0 0 0
39 0 0 0
41 0 0 0
43 0 0 0
45 0 0 0
49 0 0 0
50 0 0 0
51 0 0 0
53 0 0 0
55 0 0 0
57 0 0 0
61 0 0 0
62 0 0 0
63 0 0 0
65 0 0 0
67 0 0 0
69 0 0 0
73 0 0 0
74 0 0 0
75 0 0 0
77 0 0 0
79 0 0 0
81 0 0 0
85 0 0 0
86 0 0 0
87 0 0 0
89 0 0 0
91 0 0 0
93 0 0 0
97 0 0 0
98 0 0 0
99 0 0 0
101 0 0 0
103 0 0 0
105 0 0 0
109 0 0 0
110 0 0 0
111 0 0 0
113 0 0 0
115 0 0 0
117 0 0 0
121 0 0 0
122 0 0 0
123 0 0 0
125 0 0 0
127 0 0 0
129 0 0 0
133 0 0 0
134 0 0 0
135 0 0 0
137 0 0 0
139 0 0 0
141 0 0 0
145 0 0 0
146 0 0 0
147 0 0 0
149 0 0 0
151 0 0 0
153 0 0 0
157 0 0 0
158 0 0 0
159 0 0 0
161 0 0 0
163 0 0 0
165 0 0 0
169 0 0 0
170 0 0 0
171 0 0 0
173 0 0 0
175 0 0 0
177 0 0 0
181 0 0 0
182 0 0 0
183 0 0 0
185 0 0 0
187 0 0 0
189 0 0 0
193 0 0 0
194 0 0 0
195 0 0 0
197 0 0 0
199 0 0 0
201 0 0 0
205 0 0 0
206 0 0 0
207 0 0 0
209 0 0 0
211 0 0 0
213 0 0 0
217 0 0 0
218 0 0 0
219 0 0 0
221 0 0 0
223 0 0 0
225 0 0 0
229 0 0 0
230 0 0 0
231 0 0 0
233 0 0 0
235 0 0 0
237 0 0 0
241 0 0 0
242 0 0 0
243 0 0 0
245 0 0 0
247 0 0 0
249 0 0 0
253 0 0 0
254 0 0 0
255 0 0 0
257 0 0 0
259 0 0 0
261 0 0 0
265 0 0 0
266 0 0 0
267 0 0 0
269 0 0 0
271 0 0 0
273 0 0 0
277 0 0 0
278 0 0 0
279 0 0 0
281 0 0 0
283 0 0 0
285 0 0 0
289 0 0 0
290 0 0 0
291 0 0 0
293 0 0 0
295 0 0 0
297 0 0 0
301 0 0 0
302 0 0 0
303 0 0 0
305 0 0 0
307 0 0 0
309 0 0 0
313 0 0 0
314 0 0 0
315 0 0 0
317 0 0 0
319 0 0 0
321 0 0 0
325 0 0 0
326 0 0 0
327 0 0 0
329 0 0 0
331 0 0 0
333 0 0 0
337 0 0 0
338 0 0 0
339 0 0 0
341 0 0 0
343 0 0 0
345 0 0 0
349 0 0 0
350 0 0 0
351 0 0 0
353 0 0 0
355 0 0 0
357 0 0 0
361 0 0 0
362 0 0 0
363 0 0 0
365 0 0 0
367 0 0 0
369 0 0 0
373 0 0 0
374 0 0 0
375 0 0 0
377 0 0 0
379 0 0 0
381 0 0 0
385 0 0 0
386 0 0 0
387 0 0 0
389 0 0 0
391 0 0 0
393 0 0 0
397 0 0 0
398 0 0 0
399 0 0 0
401 0 0 0
403 0 0 0
405 0 0 0
409 0 0 0
410 0 0 0
411 0 0 0
413 0 0 0
415 0 0 0
417 0 0 0
421 0 0 0
422 0 0 0
423 0 0 0
425 0 0 0
427 0 0 0
429 0 0 0
433 0 0 0
434 0 0 0
435 0 0 0
437 0 0 0
439 0 0 0
441 0 0 0
445 0 0 0
446 0 0 0
447 0 0 0
449 0 0 0
451 0 0 0
453 0 0 0
457 0 0 0
458 0 0 0
459 0 0 0
461 0 0 0
463 0 0 0
465 0 0 0
469 0 0 0
470 0 0 0
471 0 0 0
473 0 0 0
475 0 0 0
477 0 0 0
481 0 0 0
482 0 0 0
483 0 0 0
485 0 0 0
487 0 0 0
489 0 0 0
493 0 0 0
494 0 0 0
495 0 0 0
497 0 0 0
499 0 0 0
501 0 0 0
505 0 0 0
506 0 0 0
507 0 0 0
509 0 0 0
511 0 0 0
513 0 0 0
517 0 0 0
518 0 0 0
519 0 0 0
521 0 0 0
523 0 0 0
525 0 0 0
529 0 0 0
530 0 0 0
531 0 0 0
533 0 0 0
535 0 0 0
537 0 0 0
541 0 0 0
542 0 0 0
544 0 0 0
545 0 0 0
549 0 0 0
551 0 0 0
552 0 0 0
554 0 0 0
555 0 0 0
559 0 0 0
561 0 0 0
562 0 0 0
564 0 0 0
565 0 0 0
569 0 0 0
571 0 0 0
572 0 0 0
574 0 0 0
575 0 0 0
579 0 0 0
581 0 0 0
582 0 0 0
584 0 0 0
585 0 0 0
589 0 0 0
591 0 0 0
592 0 0 0
594 0 0 0
595 0 0 0
599 0 0 0
601 0 0 0
602 0 0 0
604 0 0 0
605 0 0 0
609 0 0 0
611 0 0 0
612 0 0 0
614 0 0 0
615 0 0 0
619 0 0 0
621 0 0 0
622 0 0 0
624 0 0 0
625 0 0 0
629 0 0 0
631 0 0 0
632 0 0 0
634 0 0 0
635 0 0 0
639 0 0 0
641 0 0 0
642 0 0 0
644 0 0 0
645 0 0 0
649 0 0 0
651 0 0 0
652 0 0 0
654 0 0 0
655 0 0 0
659 0 0 0
661 0 0 0
662 0 0 0
664 0 0 0
665 0 0 0
669 0 0 0
671 0 0 0
672 0 0 0
674 0 0 0
675 0 0 0
679 0 0 0
681 0 0 0
682 0 0 0
684 0 0 0
685 0 0 0
689 0 0 0
691 0 0 0
692 0 0 0
694 0 0 0
695 0 0 0
699 0 0 0
701 0 0 0
702 0 0 0
704 0 0 0
705 0 0 0
709 0 0 0
711 0 0 0
712 0 0 0
714 0 0 0
715 0 0 0
719 0 0 0
721 0 0 0
722 0 0 0
724 0 0 0
725 0 0 0
729 0 0 0
731 0 0 0
732 0 0 0
733 0 0 0
734 0 0 0
735 0 0 0
736 0 0 0
737 0 0 0
739 0 0 0
741 0 0 0
743 0 0 0
744 0 0 0
746 0 0 0
748 0 0 0
750 0 0 0
751 0 0 0
753 0 0 0
755 0 0 0
757 0 0 0
758 0 0 0
760 0 0 0
762 0 0 0
764 0 0 0
765 0 0 0
767 0 0 0
769 0 0 0
4 0 0 0
6 0 0 0
10 0 0 0
16 0 0 0
18 0 0 0
22 0 0 0
28 0 0 0
30 0 0 0
34 0 0 0
40 0 0 0
42 0 0 0
46 0 0 0
52 0 0 0
54 0 0 0
58 0 0 0
64 0 0 0
66 0 0 0
70 0 0 0
76 0 0 0
78 0 0 0
82 0 0 0
88 0 0 0
90 0 0 0
94 0 0 0
100 0 0 0
102 0 0 0
106 0 0 0
112 0 0 0
114 0 0 0
118 0 0 0
124 0 0 0
126 0 0 0
130 0 0 0
136 0 0 0
138 0 0 0
142 0 0 0
148 0 0 0
150 0 0 0
154 0 0 0
160 0 0 0
162 0 0 0
166 0 0 0
172 0 0 0
174 0 0 0
178 0 0 0
184 0 0 0
186 0 0 0
190 0 0 0
196 0 0 0
198 0 0 0
202 0 0 0
208 0 0 0
210 0 0 0
214 0 0 0
220 0 0 0
222 0 0 0
226 0 0 0
232 0 0 0
234 0 0 0
238 0 0 0
244 0 0 0
246 0 0 0
250 0 0 0
256 0 0 0
258 0 0 0
262 0 0 0
268 0 0 0
270 0 0 0
274 0 0 0
280 0 0 0
282 0 0 0
286 0 0 0
292 0 0 0
294 0 0 0
298 0 0 0
304 0 0 0
306 0 0 0
310 0 0 0
316 0 0 0
318 0 0 0
322 0 0 0
328 0 0 0
330 0 0 0
334 0 0 0
340 0 0 0
342 0 0 0
346 0 0 0
352 0 0 0
354 0 0 0
358 0 0 0
364 0 0 0
366 0 0 0
370 0 0 0
376 0 0 0
378 0 0 0
382 0 0 0
388 0 0 0
390 0 0 0
394 0 0 0
400 0 0 0
402 0 0 0
406 0 0 0
412 0 0 0
414 0 0 0
418 0 0 0
424 0 0 0
426 0 0 0
430 0 0 0
436 0 0 0
438 0 0 0
442 0 0 0
448 0 0 0
450 0 0 0
454 0 0 0
460 0 0 0
462 0 0 0
466 0 0 0
472 0 0 0
474 0 0 0
478 0 0 0
484 0 0 0
486 0 0 0
490 0 0 0
496 0 0 0
498 0 0 0
502 0 0 0
508 0 0 0
510 0 0 0
514 0 0 0
520 0 0 0
522 0 0 0
526 0 0 0
532 0 0 0
534 0 0 0
538 0 0 0
543 0 0 0
546 0 0 0
547 0 0 0
553 0 0 0
556 0 0 0
557 0 0 0
563 0 0 0
566 0 0 0
567 0 0 0
573 0 0 0
576 0 0 0
577 0 0 0
583 0 0 0
586 0 0 0
587 0 0 0
593 0 0 0
596 0 0 0
597 0 0 0
603 0 0 0
606 0 0 0
607 0 0 0
613 0 0 0
616 0 0 0
617 0 0 0
623 0 0 0
626 0 0 0
627 0 0 0
633 0 0 0
636 0 0 0
637 0 0 0
643 0 0 0
646 0 0 0
647 0 0 0
653 0 0 0
656 0 0 0
657 0 0 0
663 0 0 0
666 0 0 0
667 0 0 0
673 0 0 0
676 0 0 0
677 0 0 0
683 0 0 0
686 0 0 0
687 0 0 0
693 0 0 0
696 0 0 0
697 0 0 0
703 0 0 0
706 0 0 0
707 0 0 0
713 0 0 0
716 0 0 0
717 0 0 0
723 0 0 0
726 0 0 0
727 0 0 0
738 0 0 0
745 0 0 0
752 0 0 0
759 0 0 0
766 0 0 0
740 0 0 0
747 0 0 0
754 0 0 0
761 0 0 0
768 0 0 0
12 0 0 0
24 0 0 0
36 0 0 0
48 0 0 0
60 0 0 0
72 0 0 0
84 0 0 0
96 0 0 0
108 0 0 0
120 0 0 0
132 0 0 0
144 0 0 0
156 0 0 0
168 0 0 0
180 0 0 0
192 0 0 0
204 0 0 0
216 0 0 0
228 0 0 0
240 0 0 0
252 0 0 0
264 0 0 0
276 0 0 0
288 0 0 0
300 0 0 0
312 0 0 0
324 0 0 0
336 0 0 0
348 0 0 0
360 0 0 0
372 0 0 0
384 0 0 0
396 0 0 0
408 0 0 0
420 0 0 0
432 0 0 0
444 0 0 0
456 0 0 0
468 0 0 0
480 0 0 0
492 0 0 0
504 0 0 0
516 0 0 0
528 0 0 0
540 0 0 0
8 0 0 0
20 0 0 0
32 0 0 0
44 0 0 0
56 0 0 0
68 0 0 0
80 0 0 0
92 0 0 0
104 0 0 0
116 0 0 0
128 0 0 0
140 0 0 0
152 0 0 0
164 0 0 0
176 0 0 0
188 0 0 0
200 0 0 0
212 0 0 0
224 0 0 0
236 0 0 0
248 0 0 0
260 0 0 0
272 0 0 0
284 0 0 0
296 0 0 0
308 0 0 0
320 0 0 0
332 0 0 0
344 0 0 0
356 0 0 0
368 0 0 0
380 0 0 0
392 0 0 0
404 0 0 0
416 0 0 0
428 0 0 0
440 0 0 0
452 0 0 0
464 0 0 0
476 0 0 0
488 0 0 0
500 0 0 0
512 0 0 0
524 0 0 0
536 0 0 0
550 0 0 0
560 0 0 0
570 0 0 0
580 0 0 0
590 0 0 0
600 0 0 0
610 0 0 0
620 0 0 0
630 0 0 0
640 0 0 0
650 0 0 0
660 0 0 0
670 0 0 0
680 0 0 0
690 0 0 0
700 0 0 0
710 0 0 0
720 0 0 0
730 0 0 0
742 0 0 0
749 0 0 0
756 0 0 0
763 0 0 0
770 0 0 0
11 0 0 0
23 0 0 0
35 0 0 0
47 0 0 0
59 0 0 0
71 0 0 0
83 0 0 0
95 0 0 0
107 0 0 0
119 0 0 0
131 0 0 0
143 0 0 0
155 0 0 0
167 0 0 0
179 0 0 0
191 0 0 0
203 0 0 0
215 0 0 0
227 0 0 0
239 0 0 0
251 0 0 0
263 0 0 0
275 0 0 0
287 0 0 0
299 0 0 0
311 0 0 0
323 0 0 0
335 0 0 0
347 0 0 0
359 0 0 0
371 0 0 0
383 0 0 0
395 0 0 0
407 0 0 0
419 0 0 0
431 0 0 0
443 0 0 0
455 0 0 0
467 0 0 0
479 0 0 0
491 0 0 0
503 0 0 0
515 0 0 0
527 0 0 0
539 0 0 0
548 0 0 0
558 0 0 0
568 0 0 0
578 0 0 0
588 0 0 0
598 0 0 0
608 0 0 0
618 0 0 0
628 0 0 0
638 0 0 0
648 0 0 0
658 0 0 0
668 0 0 0
678 0 0 0
688 0 0 0
698 0 0 0
708 0 0 0
718 0 0 0
728 0 0 0

Bonds

1 8 1 2
2 7 1 3
3 7 1 4
4 7 3 5
5 4 5 7
6 4 5 8
7 4 5 9
8 8 13 14
9 7 13 15
10 7 13 16
11 7 15 17
12 4 17 19
13 4 17 20
14 4 17 21
15 8 25 26
16 7 25 27
17 7 25 28
18 7 27 29
19 4 29 31
20 4 29 32
21 4 29 33
22 8 37 38
23 7 37 39
24 7 37 40
25 7 39 41
26 4 41 43
27 4 41 44
28 4 41 45
29 8 49 50
30 7 49 51
31 7 49 52
32 7 51 53
33 4 53 55
34 4 53 56
35 4 53 57
36 8 61 62
37 7 61 63
38 7 61 64
39 7 63 65
40 4 65 67
41 4 65 68
42 4 65 69
43 8 73 74
44 7 73 75
45 7 73 76
46 7 75 77
47 4 77 79
48 4 77 80
49 4 77 81
50 8 85 86
51 7 85 87
52 7 85 88
53 7 87 89
54 4 89 91
55 4 89 92
56 4 89 93
57 8 97 98
58 7 97 99
59 7 97 100
60 7 99 101
61 4 101 103
62 4 101 104
63 4 101 105
64 8 109 110
65 7 109 111
66 7 109 112
67 7 111 113
68 4 113 115
69 4 113 116
70 4 113 117
71 8 121 122
72 7 121 123
73 7 121 124
74 7 123 125
75 4 125 127
76 4 125 128
77 4 125 129
78 8 133 134
79 7 133 135
80 7 133 136
81 7 135 137
82 4 137 139
83 4 137 140
84 4 137 141
85 8 145 146
86 7 145 147
87 7 145 148
88 7 147 149
89 4 149 151
90 4 149 152
91 4 149 153
92 8 157 158
93 7 157 159
94 7 157 160
95 7 159 161
96 4 161 163
97 4 161 164
98 4 161 165
99 8 169 170
100 7 169 171
101 7 169 172
102 7 171 173
103 4 173 175
104 4 173 176
105 4 173 177
106 8 181 182
107 7 181 183
108 7 181 184
109 7 183 185
110 4 185 187
111 4 185 188
112 4 185 189
113 8 193 194
114 7 193 195
115 7 193 196
116 7 195 197
117 4 197 199
118 4 197 200
119 4 197 201
120 8 205 206
121 7 205 207
122 7 205 208
123 7 207 209
124 4 209 211
125 4 209 212
126 4 209 213
127 8 217 218
128 7 217 219
129 7 217 220
130 7 219 221
131 4 221 223
132 4 221 224
133 4 221 225
134 8 229 230
135 7 229 231
136 7 229 232
137 7 231 233
138 4 233 235
139 4 233 236
140 4 233 237
141 8 241 242
142 7 241 243
143 7 241 244
144 7 243 245
145 4 245 247
146 4 245 248
147 4 245 249
148 8 253 254
149 7 253 255
150 7 253 256
151 7 255 257
152 4 257 259
153 4 257 260
154 4 257 261
155 8 265 266
156 7 265 267
157 7 265 268
158 7 267 269
159 4 269 271
160 4 269 272
161 4 269 273
162 8 277 278
163 7 277 279
164 7 277 280
165 7 279 281
166 4 281 283
167 4 281 284
168 4 281 285
169 8 289 290
170 7 289 291
171 7 289 292
172 7 291 293
173 4 293 295
174 4 293 296
175 4 293 297
176 8 301 302
177 7 301 303
178 7 301 304
179 7 303 305
180 4 305 307
181 4 305 308
182 4 305 309
183 8 313 314
184 7 313 315
185 7 313 316
186 7 315 317
187 4 317 319
188 4 317 320
189 4 317 321
190 8 325 326
191 7 325 327
192 7 325 328
193 7 327 329
194 4 329 331
195 4 329 332
196 4 329 333
197 8 337 338
198 7 337 339
199 7 337 340
200 7 339 341
201 4 341 343
202 4 341 344
203 4 341 345
204 8 349 350
205 7 349 351
206 7 349 352
207 7 351 353
208 4 353 355
209 4 353 356
210 4 353 357
211 8 361 362
212 7 361 363
213 7 361 364
214 7 363 365
215 4 365 367
216 4 365 368
217 4 365 369
218 8 373 374
219 7 373 375
220 7 373 376
221 7 375 377
222 4 377 379
223 4 377 380
224 4 377 381
225 8 385 386
226 7 385 387
227 7 385 388
228 7 387 389
229 4 389 391
230 4 389 392
231 4 389 393
232 8 397 398
233 7 397 399
234 7 397 400
235 7 399 401
236 4 401 403
237 4 401 404
238 4 401 405
239 8 409 410
240 7 409 411
241 7 409 412
242 7 411 413
243 4 413 415
244 4 413 416
245 4 413 417
246 8 421 422
247 7 421 423
248 7 421 424
249 7 423 425
250 4 425 427
251 4 425 428
252 4 425 429
253 8 433 434
254 7 433 435
255 7 433 436
256 7 435 437
257 4 437 439
258 4 437 440
259 4 437 441
260 8 445 446
261 7 445 447
262 7 445 448
263 7 447 449
264 4 449 451
265 4 449 452
266 4 449 453
267 8 457 458
268 7 457 459
269 7 457 460
270 7 459 461
271 4 461 463
272 4 461 464
273 4 461 465
274 8 469 470
275 7 469 471
276 7 469 472
277 7 471 473
278 4 473 475
279 4 473 476
280 4 473 477
281 8 481 482
282 7 481 483
283 7 481 484
284 7 483 485
285 4 485 487
286 4 485 488
287 4 485 489
288 8 493 494
289 7 493 495
290 7 493 496
291 7 495 497
292 4 497 499
293 4 497 500
294 4 497 501
295 8 505 506
296 7 505 507
297 7 505 508
298 7 507 509
299 4 509 511
300 4 509 512
301 4 509 513
302 8 517 518
303 7 517 519
304 7 517 520
305 7 519 521
306 4 521 523
307 4 521 524
308 4 521 525
309 8 529 530
310 7 529 531
311 7 529 532
312 7 531 533
313 4 533 535
314 4 533 536
315 4 533 537
316 8 541 542
317 7 541 543
318 7 541 544
319 7 544 545
320 1 545 546
321 4 545 549
322 4 545 550
323 8 551 552
324 7 551 553
325 7 551 554
326 7 554 555
327 1 555 556
328 4 555 559
329 4 555 560
330 8 561 562
331 7 561 563
332 7 561 564
333 7 564 565
334 1 565 566
335 4 565 569
336 4 565 570
337 8 571 572
338 7 571 573
339 7 571 574
340 7 574 575
341 1 575 576
342 4 575 579
343 4 575 580
344 8 581 582
345 7 581 583
346 7 581 584
347 7 584 585
348 1 585 586
349 4 585 589
350 4 585 590
351 8 591 592
352 7 591 593
353 7 591 594
354 7 594 595
355 1 595 596
356 4 595 599
357 4 595 600
358 8 601 602
359 7 601 603
360 7 601 604
361 7 604 605
362 1 605 606
363 4 605 609
364 4 605 610
365 8 611 612
366 7 611 613
367 7 611 614
368 7 614 615
369 1 615 616
370 4 615 619
371 4 615 620
372 8 621 622
373 7 621 623
374 7 621 624
375 7 624 625
376 1 625 626
377 4 625 629
378 4 625 630
379 8 631 632
380 7 631 633
381 7 631 634
382 7 634 635
383 1 635 636
384 4 635 639
385 4 635 640
386 8 641 642
387 7 641 643
388 7 641 644
389 7 644 645
390 1 645 646
391 4 645 649
392 4 645 650
393 8 651 652
394 7 651 653
395 7 651 654
396 7 654 655
397 1 655 656
398 4 655 659
399 4 655 660
400 8 661 662
401 7 661 663
402 7 661 664
403 7 664 665
404 1 665 666
405 4 665 669
406 4 665 670
407 8 671 672
408 7 671 673
409 7 671 674
410 7 674 675
411 1 675 676
412 4 675 679
413 4 675 680
414 8 681 682
415 7 681 683
416 7 681 684
417 7 684 685
418 1 685 686
419 4 685 689
420 4 685 690
421 8 691 692
422 7 691 693
423 7 691 694
424 7 694 695
425 1 695 696
426 4 695 699
427 4 695 700
428 8 701 702
429 7 701 703
430 7 701 704
431 7 704 705
432 1 705 706
433 4 705 709
434 4 705 710
435 8 711 712
436 7 711 713
437 7 711 714
438 7 714 715
439 1 715 716
440 4 715 719
441 4 715 720
442 8 721 722
443 7 721 723
444 7 721 724
445 7 724 725
446 1 725 726
447 4 725 729
448 4 725 730
449 15 736 737
450 15 736 738
451 15 736 739
452 15 736 740
453 15 736 741
454 15 736 742
455 15 743 744
456 15 743 745
457 15 743 746
458 15 743 747
459 15 743 748
460 15 743 749
461 15 750 751
462 15 750 752
463 15 750 753
464 15 750 754
465 15 750 755
466 15 750 756
467 15 757 758
468 15 757 759
469 15 757 760
470 15 757 761
471 15 757 762
472 15 757 763
473 15 764 765
474 15 764 766
475 15 764 767
476 15 764 768
477 15 764 769
478 15 764 770
479 7 4 6
480 4 6 10
481 4 6 11
482 4 6 12
483 7 16 18
484 4 18 22
485 4 18 23
486 4 18 24
487 7 28 30
488 4 30 34
489 4 30 35
490 4 30 36
491 7 40 42
492 4 42 46
493 4 42 47
494 4 42 48
495 7 52 54
496 4 54 58
497 4 54 59
498 4 54 60
499 7 64 66
500 4 66 70
501 4 66 71
502 4 66 72
503 7 76 78
504 4 78 82
505 4 78 83
506 4 78 84
507 7 88 90
508 4 90 94
509 4 90 95
510 4 90 96
511 7 100 102
512 4 102 106
513 4 102 107
514 4 102 108
515 7 112 114
516 4 114 118
517 4 114 119
518 4 114 120
519 7 124 126
520 4 126 130
521 4 126 131
522 4 126 132
523 7 136 138
524 4 138 142
525 4 138 143
526 4 138 144
527 7 148 150
528 4 150 154
529 4 150 155
530 4 150 156
531 7 160 162
532 4 162 166
533 4 162 167
534 4 162 168
535 7 172 174
536 4 174 178
537 4 174 179
538 4 174 180
539 7 184 186
540 4 186 190
541 4 186 191
542 4 186 192
543 7 196 198
544 4 198 202
545 4 198 203
546 4 198 204
547 7 208 210
548 4 210 214
549 4 210 215
550 4 210 216
551 7 220 222
552 4 222 226
553 4 222 227
554 4 222 228
555 7 232 234
556 4 234 238
557 4 234 239
558 4 234 240
559 7 244 246
560 4 246 250
561 4 246 251
562 4 246 252
563 7 256 258
564 4 258 262
565 4 258 263
566 4 258 264
567 7 268 270
568 4 270 274
569 4 270 275
570 4 270 276
571 7 280 282
572 4 282 286
573 4 282 287
574 4 282 288
575 7 292 294
576 4 294 298
577 4 294 299
578 4 294 300
579 7 304 306
580 4 306 310
581 4 306 311
582 4 306 312
583 7 316 318
584 4 318 322
585 4 318 323
586 4 318 324
587 7 328 330
588 4 330 334
589 4 330 335
590 4 330 336
591 7 340 342
592 4 342 346
593 4 342 347
594 4 342 348
595 7 352 354
596 4 354 358
597 4 354 359
598 4 354 360
599 7 364 366
600 4 366 370
601 4 366 371
602 4 366 372
603 7 376 378
604 4 378 382
605 4 378 383
606 4 378 384
607 7 388 390
608 4 390 394
609 4 390 395
610 4 390 396
611 7 400 402
612 4 402 406
613 4 402 407
614 4 402 408
615 7 412 414
616 4 414 418
617 4 414 419
618 4 414 420
619 7 424 426
620 4 426 430
621 4 426 431
622 4 426 432
623 7 436 438
624 4 438 442
625 4 438 443
626 4 438 444
627 7 448 450
628 4 450 454
629 4 450 455
630 4 450 456
631 7 460 462
632 4 462 466
633 4 462 467
634 4 462 468
635 7 472 474
636 4 474 478
637 4 474 479
638 4 474 480
639 7 484 486
640 4 486 490
641 4 486 491
642 4 486 492
643 7 496 498
644 4 498 502
645 4 498 503
646 4 498 504
647 7 508 510
648 4 510 514
649 4 510 515
650 4 510 516
651 7 520 522
652 4 522 526
653 4 522 527
654 4 522 528
655 7 532 534
656 4 534 538
657 4 534 539
658 4 534 540
659 7 543 546
660 4 546 547
661 4 546 548
662 7 553 556
663 4 556 557
664 4 556 558
665 7 563 566
666 4 566 567
667 4 566 568
668 7 573 576
669 4 576 577
670 4 576 578
671 7 583 586
672 4 586 587
673 4 586 588
674 7 593 596
675 4 596 597
676 4 596 598
677 7 603 606
678 4 606 607
679 4 606 608
680 7 613 616
681 4 616 617
682 4 616 618
683 7 623 626
684 4 626 627
685 4 626 628
686 7 633 636
687 4 636 637
688 4 636 638
689 7 643 646
690 4 646 647
691 4 646 648
692 7 653 656
693 4 656 657
694 4 656 658
695 7 663 666
696 4 666 667
697 4 666 668
698 7 673 676
699 4 676 677
700 4 676 678
701 7 683 686
702 4 686 687
703 4 686 688
704 7 693 696
705 4 696 697
706 4 696 698
707 7 703 706
708 4 706 707
709 4 706 708
710 7 713 716
711 4 716 717
712 4 716 718
713 7 723 726
714 4 726 727
715 4 726 728

Angles

1 11 2 1 3
2 11 2 1 4
3 12 3 1 4
4 9 1 3 5
5 4 3 5 7
6 4 3 5 8
7 4 3 5 9
8 7 7 5 8
9 7 7 5 9
10 7 8 5 9
11 11 14 13 15
12 11 14 13 16
13 12 15 13 16
14 9 13 15 17
15 4 15 17 19
16 4 15 17 20
17 4 15 17 21
18 7 19 17 20
19 7 19 17 21
20 7 20 17 21
21 11 26 25 27
22 11 26 25 28
23 12 27 25 28
24 9 25 27 29
25 4 27 29 31
26 4 27 29 32
27 4 27 29 33
28 7 31 29 32
29 7 31 29 33
30 7 32 29 33
31 11 38 37 39
32 11 38 37 40
33 12 39 37 40
34 9 37 39 41
35 4 39 41 43
36 4 39 41 44
37 4 39 41 45
38 7 43 41 44
39 7 43 41 45
40 7 44 41 45
41 11 50 49 51
42 11 50 49 52
43 12 51 49 52
44 9 49 51 53
45 4 51 53 55
46 4 51 53 56
47 4 51 53 57
48 7 55 53 56
49 7 55 53 57
50 7 56 53 57
51 11 62 61 63
52 11 62 61 64
53 12 63 61 64
54 9 61 63 65
55 4 63 65 67
56 4 63 65 68
57 4 63 65 69
58 7 67 65 68
59 7 67 65 69
60 7 68 65 69
61 11 74 73 75
62 11 74 73 76
63 12 75 73 76
64 9 73 75 77
65 4 75 77 79
66 4 75 77 80
67 4 75 77 81
68 7 79 77 80
69 7 79 77 81
70 7 80 77 81
71 11 86 85 87
72 11 86 85 88
73 12 87 85 88
74 9 85 87 89
75 4 87 89 91
76 4 87 89 92
77 4 87 89 93
78 7 91 89 92
79 7 91 89 93
80 7 92 89 93
81 11 98 97 99
82 11 98 97 100
83 12 99 97 100
84 9 97 99 101
85 4 99 101 103
86 4 99 101 104
87 4 99 101 105
88 7 103 101 104
89 7 103 101 105
90 7 104 101 105
91 11 110 109 111
92 11 110 109 112
93 12 111 109 112
94 9 109 111 113
95 4 111 113 115
96 4 111 113 116
97 4 111 113 117
98 7 115 113 116
99 7 115 113 117
100 7 116 113 117
101 11 122 121 123
102 11 122 121 124
103 12 123 121 124
104 9 121 123 125
105 4 123 125 127
106 4 123 125 128
107 4 123 125 129
108 7 127 125 128
109 7 127 125 129
110 7 128 125 129
111 11 134 133 135
112 11 134 133 136
113 12 135 133 136
114 9 133 135 137
115 4 135 137 139
116 4 135 137 140
117 4 135 137 141
118 7 139 137 140
119 7 139 137 141
120 7 140 137 141
121 11 146 145 147
122 11 146 145 148
123 12 147 145 148
124 9 145 147 149
125 4 147 149 151
126 4 147 149 152
127 4 147 149 153
128 7 151 149 152
129 7 151 149 153
130 7 152 149 153
131 11 158 157 159
132 11 158 157 160
133 12 159 157 160
134 9 157 159 161
135 4 159 161 163
136 4 159 161 164
137 4 159 161 165
138 7 163 161 164
139 7 163 161 165
140 7 164 161 165
141 11 170 169 171
142 11 170 169 172
143 12 171 169 172
144 9 169 171 173
145 4 171 173 175
146 4 171 173 176
147 4 171 173 177
148 7 175 173 176
149 7 175 173 177
150 7 176 173 177
151 11 182 181 183
152 11 182 181 184
153 12 183 181 184
154 9 181 183 185
155 4 183 185 187
156 4 183 185 188
157 4 183 185 189
158 7 187 185 188
159 7 187 185 189
160 7 188 185 189
161 11 194 193 195
162 11 194 193 196
163 12 195 193 196
164 9 193 195 197
165 4 195 197 199
166 4 195 197 200
167 4 195 197 201
168 7 199 197 200
169 7 199 197 201
170 7 200 197 201
171 11 206 205 207
172 11 206 205 208
173 12 207 205 208
174 9 205 207 209
175 4 207 209 211
176 4 207 209 212
177 4 207 209 213
178 7 211 209 212
179 7 211 209 213
180 7 212 209 213
181 11 218 217 219
182 11 218 217 220
183 12 219 217 220
184 9 217 219 221
185 4 219 221 223
186 4 219 221 224
187 4 219 221 225
188 7 223 221 224
189 7 223 221 225
190 7 224 221 225
191 11 230 229 231
192 11 230 229 232
193 12 231 229 232
194 9 229 231 233
195 4 231 233 235
196 4 231 233 236
197 4 231 233 237
198 7 235 233 236
199 7 235 233 237
200 7 236 233 237
201 11 242 241 243
202 11 242 241 244
203 12 243 241 244
204 9 241 243 245
205 4 243 245 247
206 4 243 245 248
207 4 243 245 249
208 7 247 245 248
209 7 247 245 249
210 7 248 245 249
211 11 254 253 255
212 11 254 253 256
213 12 255 253 256
214 9 253 255 257
215 4 255 257 259
216 4 255 257 260
217 4 255 257 261
218 7 259 257 260
219 7 259 257 261
220 7 260 257 261
221 11 266 265 267
222 11 266 265 268
223 12 267 265 268
224 9 265 267 269
225 4 267 269 271
226 4 267 269 272
227 4 267 269 273
228 7 271 269 272
229 7 271 269 273
230 7 272 269 273
231 11 278 277 279
232 11 278 277 280
233 12 279 277 280
234 9 277 279 281
235 4 279 281 283
236 4 279 281 284
237 4 279 281 285
238 7 283 281 284
239 7 283 281 285
240 7 284 281 285
241 11 290 289 291
242 11 290 289 292
243 12 291 289 292
244 9 289 291 293
245 4 291 293 295
246 4 291 293 296
247 4 291 293 297
248 7 295 293 296
249 7 295 293 297
250 7 296 293 297
251 11 302 301 303
252 11 302 301 304
253 12 303 301 304
254 9 301 303 305
255 4 303 305 307
256 4 303 305 308
257 4 303 305 309
258 7 307 305 308
259 7 307 305 309
260 7 308 305 309
261 11 314 313 315
262 11 314 313 316
263 12 315 313 316
264 9 313 315 317
265 4 315 317 319
266 4 315 317 320
267 4 315 317 321
268 7 319 317 320
269 7 319 317 321
270 7 320 317 321
271 11 326 325 327
272 11 326 325 328
273 12 327 325 328
274 9 325 327 329
275 4 327 329 331
276 4 327 329 332
277 4 327 329 333
278 7 331 329 332
279 7 331 329 333
280 7 332 329 333
281 11 338 337 339
282 11 338 337 340
283 12 339 337 340
284 9 337 339 341
285 4 339 341 343
286 4 339 341 344
287 4 339 341 345
288 7 343 341 344
289 7 343 341 345
290 7 344 341 345
291 11 350 349 351
292 11 350 349 352
293 12 351 349 352
294 9 349 351 353
295 4 351 353 355
296 4 351 353 356
297 4 351 353 357
298 7 355 353 356
299 7 355 353 357
300 7 356 353 357
301 11 362 361 363
302 11 362 361 364
303 12 363 361 364
304 9 361 363 365
305 4 363 365 367
306 4 363 365 368
307 4 363 365 369
308 7 367 365 368
309 7 367 365 369
310 7 368 365 369
311 11 374 373 375
312 11 374 373 376
313 12 375 373 376
314 9 373 375 377
315 4 375 377 379
316 4 375 377 380
317 4 375 377 381
318 7 379 377 380
319 7 379 377 381
320 7 380 377 381
321 11 386 385 387
322 11 386 385 388
323 12 387 385 388
324 9 385 387 389
325 4 387 389 391
326 4 387 389 392
327 4 387 389 393
328 7 391 389 392
329 7 391 389 393
330 7 392 389 393
331 11 398 397 399
332 11 398 397 400
333 12 399 397 400
334 9 397 399 401
335 4 399 401 403
336 4 399 401 404
337 4 399 401 405
338 7 403 401 404
339 7 403 401 405
340 7 404 401 405
341 11 410 409 411
342 11 410 409 412
343 12 411 409 412
344 9 409 411 413
345 4 411 413 415
346 4 411 413 416
347 4 411 413 417
348 7 415 413 416
349 7 415 413 417
350 7 416 413 417
351 11 422 421 423
352 11 422 421 424
353 12 423 421 424
354 9 421 423 425
355 4 423 425 427
356 4 423 425 428
357 4 423 425 429
358 7 427 425 428
359 7 427 425 429
360 7 428 425 429
361 11 434 433 435
362 11 434 433 436
363 12 435 433 436
364 9 433 435 437
365 4 435 437 439
366 4 435 437 440
367 4 435 437 441
368 7 439 437 440
369 7 439 437 441
370 7 440 437 441
371 11 446 445 447
372 11 446 445 448
373 12 447 445 448
374 9 445 447 449
375 4 447 449 451
376 4 447 449 452
377 4 447 449 453
378 7 451 449 452
379 7 451 449 453
380 7 452 449 453
381 11 458 457 459
382 11 458 457 460
383 12 459 457 460
384 9 457 459 461
385 4 459 461 463
386 4 459 461 464
387 4 459 461 465
388 7 463 461 464
389 7 463 461 465
390 7 464 461 465
391 11 470 469 471
392 11 470 469 472
393 12 471 469 472
394 9 469 471 473
395 4 471 473 475
396 4 471 473 476
397 4 471 473 477
398 7 475 473 476
399 7 475 473 477
400 7 476 473 477
401 11 482 481 483
402 11 482 481 484
403 12 483 481 484
404 9 481 483 485
405 4 483 485 487
406 4 483 485 488
407 4 483 485 489
408 7 487 485 488
409 7 487 485 489
410 7 488 485 489
411 11 494 493 495
412 11 494 493 496
413 12 495 493 496
414 9 493 495 497
415 4 495 497 499
416 4 495 497 500
417 4 495 497 501
418 7 499 497 500
419 7 499 497 501
420 7 500 497 501
421 11 506 505 507
422 11 506 505 508
423 12 507 505 508
424 9 505 507 509
425 4 507 509 511
426 4 507 509 512
427 4 507 509 513
428 7 511 509 512
429 7 511 509 513
430 7 512 509 513
431 11 518 517 519
432 11 518 517 520
433 12 519 517 520
434 9 517 519 521
435 4 519 521 523
436 4 519 521 524
437 4 519 521 525
438 7 523 521 524
439 7 523 521 525
440 7 524 521 525
441 11 530 529 531
442 11 530 529 532
443 12 531 529 532
444 9 529 531 533
445 4 531 533 535
446 4 531 533 536
447 4 531 533 537
448 7 535 533 536
449 7 535 533 537
450 7 536 533 537
451 11 542 541 543
452 11 542 541 544
453 12 543 541 544
454 9 541 544 545
455 13 544 545 546
456 4 546 545 549
457 4 546 545 550
458 6 549 545 550
459 11 552 551 553
460 11 552 551 554
461 12 553 551 554
462 9 551 554 555
463 13 554 555 556
464 4 556 555 559
465 4 556 555 560
466 6 559 555 560
467 11 562 561 563
468 11 562 561 564
469 12 563 561 564
470 9 561 564 565
471 13 564 565 566
472 4 566 565 569
473 4 566 565 570
474 6 569 565 570
475 11 572 571 573
476 11 572 571 574
477 12 573 571 574
478 9 571 574 575
479 13 574 575 576
480 4 576 575 579
481 4 576 575 580
482 6 579 575 580
483 11 582 581 583
484 11 582 581 584
485 12 583 581 584
486 9 581 584 585
487 13 584 585 586
488 4 586 585 589
489 4 586 585 590
490 6 589 585 590
491 11 592 591 593
492 11 592 591 594
493 12 593 591 594
494 9 591 594 595
495 13 594 595 596
496 4 596 595 599
497 4 596 595 600
498 6 599 595 600
499 11 602 601 603
500 11 602 601 604
501 12 603 601 604
502 9 601 604 605
503 13 604 605 606
504 4 606 605 609
505 4 606 605 610
506 6 609 605 610
507 11 612 611 613
508 11 612 611 614
509 12 613 611 614
510 9 611 614 615
511 13 614 615 616
512 4 616 615 619
513 4 616 615 620
514 6 619 615 620
515 11 622 621 623
516 11 622 621 624
517 12 623 621 624
518 9 621 624 625
519 13 624 625 626
520 4 626 625 629
521 4 626 625 630
522 6 629 625 630
523 11 632 631 633
524 11 632 631 634
525 12 633 631 634
526 9 631 634 635
527 13 634 635 636
528 4 636 635 639
529 4 636 635 640
530 6 639 635 640
531 11 642 641 643
532 11 642 641 644
533 12 643 641 644
534 9 641 644 645
535 13 644 645 646
536 4 646 645 649
537 4 646 645 650
538 6 649 645 650
539 11 652 651 653
540 11 652 651 654
541 12 653 651 654
542 9 651 654 655
543 13 654 655 656
544 4 656 655 659
545 4 656 655 660
546 6 659 655 660
547 11 662 661 663
548 11 662 661 664
549 12 663 661 664
550 9 661 664 665
551 13 664 665 666
552 4 666 665 669
553 4 666 665 670
554 6 669 665 670
555 11 672 671 673
556 11 672 671 674
557 12 673 671 674
558 9 671 674 675
559 13 674 675 676
560 4 676 675 679
561 4 676 675 680
562 6 679 675 680
563 11 682 681 683
564 11 682 681 684
565 12 683 681 684
566 9 681 684 685
567 13 684 685 686
568 4 686 685 689
569 4 686 685 690
570 6 689 685 690
571 11 692 691 693
572 11 692 691 694
573 12 693 691 694
574 9 691 694 695
575 13 694 695 696
576 4 696 695 699
577 4 696 695 700
578 6 699 695 700
579 11 702 701 703
580 11 702 701 704
581 12 703 701 704
582 9 701 704 705
583 13 704 705 706
584 4 706 705 709
585 4 706 705 710
586 6 709 705 710
587 11 712 711 713
588 11 712 711 714
589 12 713 711 714
590 9 711 714 715
591 13 714 715 716
592 4 716 715 719
593 4 716 715 720
594 6 719 715 720
595 11 722 721 723
596 11 722 721 724
597 12 723 721 724
598 9 721 724 725
599 13 724 725 726
600 4 726 725 729
601 4 726 725 730
602 6 729 725 730
603 18 737 736 738
604 18 739 736 740
605 18 741 736 742
606 17 737 736 739
607 17 737 736 740
608 17 737 736 741
609 17 737 736 742
610 17 738 736 739
611 17 738 736 740
612 17 738 736 741
613 17 738 736 742
614 17 739 736 741
615 17 739 736 742
616 17 740 736 741
617 17 740 736 742
618 18 744 743 745
619 18 746 743 747
620 18 748 743 749
621 17 744 743 746
622 17 744 743 747
623 17 744 743 748
624 17 744 743 749
625 17 745 743 746
626 17 745 743 747
627 17 745 743 748
628 17 745 743 749
629 17 746 743 748
630 17 746 743 749
631 17 747 743 748
632 17 747 743 749
633 18 751 750 752
634 18 753 750 754
635 18 755 750 756
636 17 751 750 753
637 17 751 750 754
638 17 751 750 755
639 17 751 750 756
640 17 752 750 753
641 17 752 750 754
642 17 752 750 755
643 17 752 750 756
644 17 753 750 755
645 17 753 750 756
646 17 754 750 755
647 17 754 750 756
648 18 758 757 759
649 18 760 757 761
650 18 762 757 763
651 17 758 757 760
652 17 758 757 761
653 17 758 757 762
654 17 758 757 763
655 17 759 757 760
656 17 759 757 761
657 17 759 757 762
658 17 759 757 763
659 17 760 757 762
660 17 760 757 763
661 17 761 757 762
662 17 761 757 763
663 18 765 764 766
664 18 767 764 768
665 18 769 764 770
666 17 765 764 767
667 17 765 764 768
668 17 765 764 769
669 17 765 764 770
670 17 766 764 767
671 17 766 764 768
672 17 766 764 769
673 17 766 764 770
674 17 767 764 769
675 17 767 764 770
676 17 768 764 769
677 17 768 764 770
678 9 1 4 6
679 4 4 6 10
680 4 4 6 11
681 4 4 6 12
682 7 10 6 11
683 7 10 6 12
684 7 11 6 12
685 9 13 16 18
686 4 16 18 22
687 4 16 18 23
688 4 16 18 24
689 7 22 18 23
690 7 22 18 24
691 7 23 18 24
692 9 25 28 30
693 4 28 30 34
694 4 28 30 35
695 4 28 30 36
696 7 34 30 35
697 7 34 30 36
698 7 35 30 36
699 9 37 40 42
700 4 40 42 46
701 4 40 42 47
702 4 40 42 48
703 7 46 42 47
704 7 46 42 48
705 7 47 42 48
706 9 49 52 54
707 4 52 54 58
708 4 52 54 59
709 4 52 54 60
710 7 58 54 59
711 7 58 54 60
712 7 59 54 60
713 9 61 64 66
714 4 64 66 70
715 4 64 66 71
716 4 64 66 72
717 7 70 66 71
718 7 70 66 72
719 7 71 66 72
720 9 73 76 78
721 4 76 78 82
722 4 76 78 83
723 4 76 78 84
724 7 82 78 83
725 7 82 78 84
726 7 83 78 84
727 9 85 88 90
728 4 88 90 94
729 4 88 90 95
730 4 88 90 96
731 7 94 90 95
732 7 94 90 96
733 7 95 90 96
734 9 97 100 102
735 4 100 102 106
736 4 100 102 107
737 4 100 102 108
738 7 106 102 107
739 7 106 102 108
740 7 107 102 108
741 9 109 112 114
742 4 112 114 118
743 4 112 114 119
744 4 112 114 120
745 7 118 114 119
746 7 118 114 120
747 7 119 114 120
748 9 121 124 126
749 4 124 126 130
750 4 124 126 131
751 4 124 126 132
752 7 130 126 131
753 7 130 126 132
754 7 131 126 132
755 9 133 136 138
756 4 136 138 142
757 4 136 138 143
758 4 136 138 144
759 7 142 138 143
760 7 142 138 144
761 7 143 138 144
762 9 145 148 150
763 4 148 150 154
764 4 148 150 155
765 4 148 150 156
766 7 154 150 155
767 7 154 150 156
768 7 155 150 156
769 9 157 160 162
770 4 160 162 166
771 4 160 162 167
772 4 160 162 168
773 7 166 162 167
774 7 166 162 168
775 7 167 162 168
776 9 169 172 174
777 4 172 174 178
778 4 172 174 179
779 4 172 174 180
780 7 178 174 179
781 7 178 174 180
782 7 179 174 180
783 9 181 184 186
784 4 184 186 190
785 4 184 186 191
786 4 184 186 192
787 7 190 186 191
788 7 190 186 192
789 7 191 186 192
790 9 193 196 198
791 4 196 198 202
792 4 196 198 203
793 4 196 198 204
794 7 202 198 203
795 7 202 198 204
796 7 203 198 204
797 9 205 208 210
798 4 208 210 214
799 4 208 210 215
800 4 208 210 216
801 7 214 210 215
802 7 214 210 216
803 7 215 210 216
804 9 217 220 222
805 4 220 222 226
806 4 220 222 227
807 4 220 222 228
808 7 226 222 227
809 7 226 222 228
810 7 227 222 228
811 9 229 232 234
812 4 232 234 238
813 4 232 234 239
814 4 232 234 240
815 7 238 234 239
816 7 238 234 240
817 7 239 234 240
818 9 241 244 246
819 4 244 246 250
820 4 244 246 251
821 4 244 246 252
822 7 250 246 251
823 7 250 246 252
824 7 251 246 252
825 9 253 256 258
826 4 256 258 262
827 4 256 258 263
828 4 256 258 264
829 7 262 258 263
830 7 262 258 264
831 7 263 258 264
832 9 265 268 270
833 4 268 270 274
834 4 268 270 275
835 4 268 270 276
836 7 274 270 275
837 7 274 270 276
838 7 275 270 276
839 9 277 280 282
840 4 280 282 286
841 4 280 282 287
842 4 280 282 288
843 7 286 282 287
844 7 286 282 288
845 7 287 282 288
846 9 289 292 294
847 4 292 294 298
848 4 292 294 299
849 4 292 294 300
850 7 298 294 299
851 7 298 294 300
852 7 299 294 300
853 9 301 304 306
854 4 304 306 310
855 4 304 306 311
856 4 304 306 312
857 7 310 306 311
858 7 310 306 312
859 7 311 306 312
860 9 313 316 318
861 4 316 318 322
862 4 316 318 323
863 4 316 318 324
864 7 322 318 323
865 7 322 318 324
866 7 323 318 324
867 9 325 328 330
868 4 328 330 334
869 4 328 330 335
870 4 328 330 336
871 7 334 330 335
872 7 334 330 336
873 7 335 330 336
874 9 337 340 342
875 4 340 342 346
876 4 340 342 347
877 4 340 342 348
878 7 346 342 347
879 7 346 342 348
880 7 347 342 348
881 9 349 352 354
882 4 352 354 358
883 4 352 354 359
884 4 352 354 360
885 7 358 354 359
886 7 358 354 360
887 7 359 354 360
888 9 361 364 366
889 4 364 366 370
890 4 364 366 371
891 4 364 366 372
892 7 370 366 371
893 7 370 366 372
894 7 371 366 372
895 9 373 376 378
896 4 376 378 382
897 4 376 378 383
898 4 376 378 384
899 7 382 378 383
900 7 382 378 384
901 7 383 378 384
902 9 385 388 390
903 4 388 390 394
904 4 388 390 395
905 4 388 390 396
906 7 394 390 395
907 7 394 390 396
908 7 395 390 396
909 9 397 400 402
910 4 400 402 406
911 4 400 402 407
912 4 400 402 408
913 7 406 402 407
914 7 406 402 408
915 7 407 402 408
916 9 409 412 414
917 4 412 414 418
918 4 412 414 419
919 4 412 414 420
920 7 418 414 419
921 7 418 414 420
922 7 419 414 420
923 9 421 424 426
924 4 424 426 430
925 4 424 426 431
926 4 424 426 432
927 7 430 426 431
928 7 430 426 432
929 7 431 426 432
930 9 433 436 438
931 4 436 438 442
932 4 436 438 443
933 4 436 438 444
934 7 442 438 443
935 7 442 438 444
936 7 443 438 444
937 9 445 448 450
938 4 448 450 454
939 4 448 450 455
940 4 448 450 456
941 7 454 450 455
942 7 454 450 456
943 7 455 450 456
944 9 457 460 462
945 4 460 462 466
946 4 460 462 467
947 4 460 462 468
948 7 466 462 467
949 7 466 462 468
950 7 467 462 468
951 9 469 472 474
952 4 472 474 478
953 4 472 474 479
954 4 472 474 480
955 7 478 474 479
956 7 478 474 480
957 7 479 474 480
958 9 481 484 486
959 4 484 486 490
960 4 484 486 491
961 4 484 486 492
962 7 490 486 491
963 7 490 486 492
964 7 491 486 492
965 9 493 496 498
966 4 496 498 502
967 4 496 498 503
968 4 496 498 504
969 7 502 498 503
970 7 502 498 504
971 7 503 498 504
972 9 505 508 510
973 4 508 510 514
974 4 508 510 515
975 4 508 510 516
976 7 514 510 515
977 7 514 510 516
978 7 515 510 516
979 9 517 520 522
980 4 520 522 526
981 4 520 522 527
982 4 520 522 528
983 7 526 522 527
984 7 526 522 528
985 7 527 522 528
986 9 529 532 534
987 4 532 534 538
988 4 532 534 539
989 4 532 534 540
990 7 538 534 539
991 7 538 534 540
992 7 539 534 540
993 9 541 543 546
994 13 543 546 545
995 4 545 546 547
996 4 545 546 548
997 6 547 546 548
998 9 551 553 556
999 13 553 556 555
1000 4 555 556 557
1001 4 555 556 558
1002 6 557 556 558
1003 9 561 563 566
1004 13 563 566 565
1005 4 565 566 567
1006 4 565 566 568
1007 6 567 566 568
1008 9 571 573 576
1009 13 573 576 575
1010 4 575 576 577
1011 4 575 576 578
1012 6 577 576 578
1013 9 581 583 586
1014 13 583 586 585
1015 4 585 586 587
1016 4 585 586 588
1017 6 587 586 588
1018 9 591 593 596
1019 13 593 596 595
1020 4 595 596 597
1021 4 595 596 598
1022 6 597 596 598
1023 9 601 603 606
1024 13 603 606 605
1025 4 605 606 607
1026 4 605 606 608
1027 6 607 606 608
1028 9 611 613 616
1029 13 613 616 615
1030 4 615 616 617
1031 4 615 616 618
1032 6 617 616 618
1033 9 621 623 626
1034 13 623 626 625
1035 4 625 626 627
1036 4 625 626 628
1037 6 627 626 628
1038 9 631 633 636
1039 13 633 636 635
1040 4 635 636 637
1041 4 635 636 638
1042 6 637 636 638
1043 9 641 643 646
1044 13 643 646 645
1045 4 645 646 647
1046 4 645 646 648
1047 6 647 646 648
1048 9 651 653 656
1049 13 653 656 655
1050 4 655 656 657
1051 4 655 656 658
1052 6 657 656 658
1053 9 661 663 666
1054 13 663 666 665
1055 4 665 666 667
1056 4 665 666 668
1057 6 667 666 668
1058 9 671 673 676
1059 13 673 676 675
1060 4 675 676 677
1061 4 675 676 678
1062 6 677 676 678
1063 9 681 683 686
1064 13 683 686 685
1065 4 685 686 687
1066 4 685 686 688
1067 6 687 686 688
1068 9 691 693 696
1069 13 693 696 695
1070 4 695 696 697
1071 4 695 696 698
1072 6 697 696 698
1073 9 701 703 706
1074 13 703 706 705
1075 4 705 706 707
1076 4 705 706 708
1077 6 707 706 708
1078 9 711 713 716
1079 13 713 716 715
1080 4 715 716 717
1081 4 715 716 718
1082 6 717 716 718
1083 9 721 723 726
1084 13 723 726 725
1085 4 725 726 727
1086 4 725 726 728
1087 6 727 726 728

Dihedrals

1 8 2 1 3 5
2 8 2 1 4 6
3 6 1 3 5 7
4 6 1 3 5 8
5 6 1 3 5 9
6 8 14 13 15 17
7 8 14 13 16 18
8 6 13 15 17 19
9 6 13 15 17 20
10 6 13 15 17 21
11 8 26 25 27 29
12 8 26 25 28 30
13 6 25 27 29 31
14 6 25 27 29 32
15 6 25 27 29 33
16 8 38 37 39 41
17 8 38 37 40 42
18 6 37 39 41 43
19 6 37 39 41 44
20 6 37 39 41 45
21 8 50 49 51 53
22 8 50 49 52 54
23 6 49 51 53 55
24 6 49 51 53 56
25 6 49 51 53 57
26 8 62 61 63 65
27 8 62 61 64 66
28 6 61 63 65 67
29 6 61 63 65 68
30 6 61 63 65 69
31 8 74 73 75 77
32 8 74 73 76 78
33 6 73 75 77 79
34 6 73 75 77 80
35 6 73 75 77 81
36 8 86 85 87 89
37 8 86 85 88 90
38 6 85 87 89 91
39 6 85 87 89 92
40 6 85 87 89 93
41 8 98 97 99 101
42 8 98 97 100 102
43 6 97 99 101 103
44 6 97 99 101 104
45 6 97 99 101 105
46 8 110 109 111 113
47 8 110 109 112 114
48 6 109 111 113 115
49 6 109 111 113 116
50 6 109 111 113 117
51 8 122 121 123 125
52 8 122 121 124 126
53 6 121 123 125 127
54 6 121 123 125 128
55 6 121 123 125 129
56 8 134 133 135 137
57 8 134 133 136 138
58 6 133 135 137 139
59 6 133 135 137 140
60 6 133 135 137 141
61 8 146 145 147 149
62 8 146 145 148 150
63 6 145 147 149 151
64 6 145 147 149 152
65 6 145 147 149 153
66 8 158 157 159 161
67 8 158 157 160 162
68 6 157 159 161 163
69 6 157 159 161 164
70 6 157 159 161 165
71 8 170 169 171 173
72 8 170 169 172 174
73 6 169 171 173 175
74 6 169 171 173 176
75 6 169 171 173 177
76 8 182 181 183 185
77 8 182 181 184 186
78 6 181 183 185 187
79 6 181 183 185 188
80 6 181 183 185 189
81 8 194 193 195 197
82 8 194 193 196 198
83 6 193 195 197 199
84 6 193 195 197 200
85 6 193 195 197 201
86 8 206 205 207 209
87 8 206 205 208 210
88 6 205 207 209 211
89 6 205 207 209 212
90 6 205 207 209 213
91 8 218 217 219 221
92 8 218 217 220 222
93 6 217 219 221 223
94 6 217 219 221 224
95 6 217 219 221 225
96 8 230 229 231 233
97 8 230 229 232 234
98 6 229 231 233 235
99 6 229 231 233 236
100 6 229 231 233 237
101 8 242 241 243 245
102 8 242 241 244 246
103 6 241 243 245 247
104 6 241 243 245 248
105 6 241 243 245 249
106 8 254 253 255 257
107 8 254 253 256 258
108 6 253 255 257 259
109 6 253 255 257 260
110 6 253 255 257 261
111 8 266 265 267 269
112 8 266 265 268 270
113 6 265 267 269 271
114 6 265 267 269 272
115 6 265 267 269 273
116 8 278 277 279 281
117 8 278 277 280 282
118 6 277 279 281 283
119 6 277 279 281 284
120 6 277 279 281 285
121 8 290 289 291 293
122 8 290 289 292 294
123 6 289 291 293 295
124 6 289 291 293 296
125 6 289 291 293 297
126 8 302 301 303 305
127 8 302 301 304 306
128 6 301 303 305 307
129 6 301 303 305 308
130 6 301 303 305 309
131 8 314 313 315 317
132 8 314 313 316 318
133 6 313 315 317 319
134 6 313 315 317 320
135 6 313 315 317 321
136 8 326 325 327 329
137 8 326 325 328 330
138 6 325 327 329 331
139 6 325 327 329 332
140 6 325 327 329 333
141 8 338 337 339 341
142 8 338 337 340 342
143 6 337 339 341 343
144 6 337 339 341 344
145 6 337 339 341 345
146 8 350 349 351 353
147 8 350 349 352 354
148 6 349 351 353 355
149 6 349 351 353 356
150 6 349 351 353 357
151 8 362 361 363 365
152 8 362 361 364 366
153 6 361 363 365 367
154 6 361 363 365 368
155 6 361 363 365 369
156 8 374 373 375 377
157 8 374 373 376 378
158 6 373 375 377 379
159 6 373 375 377 380
160 6 373 375 377 381
161 8 386 385 387 389
162 8 386 385 388 390
163 6 385 387 389 391
164 6 385 387 389 392
165 6 385 387 389 393
166 8 398 397 399 401
167 8 398 397 400 402
168 6 397 399 401 403
169 6 397 399 401 404
170 6 397 399 401 405
171 8 410 409 411 413
172 8 410 409 412 414
173 6 409 411 413 415
174 6 409 411 413 416
175 6 409 411 413 417
176 8 422 421 423 425
177 8 422 421 424 426
178 6 421 423 425 427
179 6 421 423 425 428
180 6 421 423 425 429
181 8 434 433 435 437
182 8 434 433 436 438
183 6 433 435 437 439
184 6 433 435 437 440
185 6 433 435 437 441
186 8 446 445 447 449
187 8 446 445 448 450
188 6 445 447 449 451
189 6 445 447 449 452
190 6 445 447 449 453
191 8 458 457 459 461
192 8 458 457 460 462
193 6 457 459 461 463
194 6 457 459 461 464
195 6 457 459 461 465
196 8 470 469 471 473
197 8 470 469 472 474
198 6 469 471 473 475
199 6 469 471 473 476
200 6 469 471 473 477
201 8 482 481 483 485
202 8 482 481 484 486
203 6 481 483 485 487
204 6 481 483 485 488
205 6 481 483 485 489
206 8 494 493 495 497
207 8 494 493 496 498
208 6 493 495 497 499
209 6 493 495 497 500
210 6 493 495 497 501
211 8 506 505 507 509
212 8 506 505 508 510
213 6 505 507 509 511
214 6 505 507 509 512
215 6 505 507 509 513
216 8 518 517 519 521
217 8 518 517 520 522
218 6 517 519 521 523
219 6 517 519 521 524
220 6 517 519 521 525
221 8 530 529 531 533
222 8 530 529 532 534
223 6 529 531 533 535
224 6 529 531 533 536
225 6 529 531 533 537
226 8 542 541 543 546
227 8 542 541 544 545
228 7 541 544 545 546
229 8 552 551 553 556
230 8 552 551 554 555
231 7 551 554 555 556
232 8 562 561 563 566
233 8 562 561 564 565
234 7 561 564 565 566
235 8 572 571 573 576
236 8 572 571 574 575
237 7 571 574 575 576
238 8 582 581 583 586
239 8 582 581 584 585
240 7 581 584 585 586
241 8 592 591 593 596
242 8 592 591 594 595
243 7 591 594 595 596
244 8 602 601 603 606
245 8 602 601 604 605
246 7 601 604 605 606
247 8 612 611 613 616
248 8 612 611 614 615
249 7 611 614 615 616
250 8 622 621 623 626
251 8 622 621 624 625
252 7 621 624 625 626
253 8 632 631 633 636
254 8 632 631 634 635
255 7 631 634 635 636
256 8 642 641 643 646
257 8 642 641 644 645
258 7 641 644 645 646
259 8 652 651 653 656
260 8 652 651 654 655
261 7 651 654 655 656
262 8 662 661 663 666
263 8 662 661 664 665
264 7 661 664 665 666
265 8 672 671 673 676
266 8 672 671 674 675
267 7 671 674 675 676
268 8 682 681 683 686
269 8 682 681 684 685
270 7 681 684 685 686
271 8 692 691 693 696
272 8 692 691 694 695
273 7 691 694 695 696
274 8 702 701 703 706
275 8 702 701 704 705
276 7 701 704 705 706
277 8 712 711 713 716
278 8 712 711 714 715
279 7 711 714 715 716
280 8 722 721 723 726
281 8 722 721 724 725
282 7 721 724 725 726
283 6 1 4 6 10
284 6 1 4 6 11
285 6 1 4 6 12
286 6 13 16 18 22
287 6 13 16 18 23
288 6 13 16 18 24
289 6 25 28 30 34
290 6 25 28 30 35
291 6 25 28 30 36
292 6 37 40 42 46
293 6 37 40 42 47
294 6 37 40 42 48
295 6 49 52 54 58
296 6 49 52 54 59
297 6 49 52 54 60
298 6 61 64 66 70
299 6 61 64 66 71
300 6 61 64 66 72
301 6 73 76 78 82
302 6 73 76 78 83
303 6 73 76 78 84
304 6 85 88 90 94
305 6 85 88 90 95
306 6 85 88 90 96
307 6 97 100 102 106
308 6 97 100 102 107
309 6 97 100 102 108
310 6 109 112 114 118
311 6 109 112 114 119
312 6 109 112 114 120
313 6 121 124 126 130
314 6 121 124 126 131
315 6 121 124 126 132
316 6 133 136 138 142
317 6 133 136 138 143
318 6 133 136 138 144
319 6 145 148 150 154
320 6 145 148 150 155
321 6 145 148 150 156
322 6 157 160 162 166
323 6 157 160 162 167
324 6 157 160 162 168
325 6 169 172 174 178
326 6 169 172 174 179
327 6 169 172 174 180
328 6 181 184 186 190
329 6 181 184 186 191
330 6 181 184 186 192
331 6 193 196 198 202
332 6 193 196 198 203
333 6 193 196 198 204
334 6 205 208 210 214
335 6 205 208 210 215
336 6 205 208 210 216
337 6 217 220 222 226
338 6 217 220 222 227
339 6 217 220 222 228
340 6 229 232 234 238
341 6 229 232 234 239
342 6 229 232 234 240
343 6 241 244 246 250
344 6 241 244 246 251
345 6 241 244 246 252
346 6 253 256 258 262
347 6 253 256 258 263
348 6 253 256 258 264
349 6 265 268 270 274
350 6 265 268 270 275
351 6 265 268 270 276
352 6 277 280 282 286
353 6 277 280 282 287
354 6 277 280 282 288
355 6 289 292 294 298
356 6 289 292 294 299
357 6 289 292 294 300
358 6 301 304 306 310
359 6 301 304 306 311
360 6 301 304 306 312
361 6 313 316 318 322
362 6 313 316 318 323
363 6 313 316 318 324
364 6 325 328 330 334
365 6 325 328 330 335
366 6 325 328 330 336
367 6 337 340 342 346
368 6 337 340 342 347
369 6 337 340 342 348
370 6 349 352 354 358
371 6 349 352 354 359
372 6 349 352 354 360
373 6 361 364 366 370
374 6 361 364 366 371
375 6 361 364 366 372
376 6 373 376 378 382
377 6 373 376 378 383
378 6 373 376 378 384
379 6 385 388 390 394
380 6 385 388 390 395
381 6 385 388 390 396
382 6 397 400 402 406
383 6 397 400 402 407
384 6 397 400 402 408
385 6 409 412 414 418
386 6 409 412 414 419
387 6 409 412 414 420
388 6 421 424 426 430
389 6 421 424 426 431
390 6 421 424 426 432
391 6 433 436 438 442
392 6 433 436 438 443
393 6 433 436 438 444
394 6 445 448 450 454
395 6 445 448 450 455
396 6 445 448 450 456
397 6 457 460 462 466
398 6 457 460 462 467
399 6 457 460 462 468
400 6 469 472 474 478
401 6 469 472 474 479
402 6 469 472 474 480
403 6 481 484 486 490
404 6 481 484 486 491
405 6 481 484 486 492
406 6 493 496 498 502
407 6 493 496 498 503
408 6 493 496 498 504
409 6 505 508 510 514
410 6 505 508 510 515
411 6 505 508 510 516
412 6 517 520 522 526
413 6 517 520 522 527
414 6 517 520 522 528
415 6 529 532 534 538
416 6 529 532 534 539
417 6 529 532 534 540
418 5 541 543 546 545
419 7 543 546 545 544
420 5 551 553 556 555
421 7 553 556 555 554
422 5 561 563 566 565
423 7 563 566 565 564
424 5 571 573 576 575
425 7 573 576 575 574
426 5 581 583 586 585
427 7 583 586 585 584
428 5 591 593 596 595
429 7 593 596 595 594
430 5 601 603 606 605
431 7 603 606 605 604
432 5 611 613 616 615
433 7 613 616 615 614
434 5 621 623 626 625
435 7 623 626 625 624
436 5 631 633 636 635
437 7 633 636 635 634
438 5 641 643 646 645
439 7 643 646 645 644
440 5 651 653 656 655
441 7 653 656 655 654
442 5 661 663 666 665
443 7 663 666 665 664
444 5 671 673 676 675
445 7 673 676 675 674
446 5 681 683 686 685
447 7 683 686 685 684
448 5 691 693 696 695
449 7 693 696 695 694
450 5 701 703 706 705
451 7 703 706 705 704
452 5 711 713 716 715
453 7 713 716 715 714
454 5 721 723 726 725
455 7 723 726 725 724
