LAMMPS data file via write_data, version 23 Jun 2022, timestep = 226

770 atoms
31 atom types
715 bonds
17 bond types
1087 angles
18 angle types
455 dihedrals
9 dihedral types
0 impropers
2 improper types

0 20 xlo xhi
0 20 ylo yhi
0 20 zlo zhi

Masses

1 12.011
2 12.011
3 12.011
4 12.011
5 12.011
6 12.011
7 12.011
8 12.011
9 12.011
10 12.011
11 1.008
12 1.008
13 1.008
14 1.008
15 1.008
16 1.008
17 1.008
18 15.999
19 15.999
20 15.999
21 15.999
22 14.007
23 14.007
24 14.007
25 14.007
26 18.998
27 30.974
28 6.941
29 32.065
30 32.065
31 6.941

Atoms # full

180 15 11 0.06 10.996364067945002 2.515335052887178 0.7367739791754052 0 0 0
170 15 20 -0.5 14.10698605209796 2.250301396357714 0.9464011236643421 0 0 0
755 72 26 -0.39 16.37878703365865 0.0824271570819021 0.1465140384179322 0 0 1
143 12 11 0.06 2.686268233292931 3.409436175499726 0.9680348696217921 0 0 0
144 12 11 0.06 3.266730395052527 2.2664977964719957 1.2717696922666346 0 0 0
138 12 1 0.22 3.6290090363452414 3.1503094717686055 1.3357702588580402 0 0 0
641 56 9 0.52 5.899016778470369 4.222605836769393 18.653272073488147 0 0 -1
136 12 19 -0.35 5.0244779935426855 3.115110486832948 1.346244494204848 0 0 0
133 12 9 0.52 6.197368766367103 3.4050630305572054 1.852792270194377 0 0 0
134 12 20 -0.5 6.568762374717695 2.606573484702681 1.0893248847837846 0 0 0
140 12 11 0.06 8.89687627498776 4.709853265413528 1.8530840801990662 0 0 0
137 12 1 0.22 8.41246167240782 4.655418862894627 2.3498039837116877 0 0 0
141 12 11 0.06 9.184124706333641 5.087056064862321 2.730834444002786 0 0 0
178 15 11 0.06 11.125679594948917 2.502823968032989 0.7411565737908213 0 0 0
174 15 1 0.22 11.386223403200882 3.529383436981739 0.6399207233838867 0 0 0
172 15 19 -0.35 12.719017249557533 3.6536848350549893 0.9346536053976434 0 0 0
169 15 9 0.52 14.057238123842383 3.0908303315433283 0.503923730387219 0 0 0
171 15 19 -0.35 15.666591120236777 2.9837009838364144 0.4841018552223569 0 0 0
173 15 1 0.22 17.02922936371114 2.7869753276598495 1.3449295677762836 0 0 0
175 15 11 0.06 17.054346667552743 2.251094640329638 2.1159928406842514 0 0 0
177 15 11 0.06 17.988908836812257 2.915669592913625 1.5379958185514426 0 0 0
176 15 11 0.06 17.9703819486722 2.441361956335293 1.0946045751822395 0 0 0
647 56 11 0.06 3.48304899454459 6.201096568646531 19.70961850072225 0 0 -1
646 56 2 0.22 4.451613959150059 5.998626295038806 19.908252819297278 0 0 -1
644 56 19 -0.35 6.445833590292052 5.3981208718771425 19.384352220103498 0 0 -1
645 56 2 0.22 5.573792183629168 5.938768340542817 0.34617493395611604 0 0 0
649 56 11 0.06 6.352584119706407 6.223658160412514 0.8366950862806112 0 0 0
748 71 26 -0.39 18.04970980108085 5.546007270129303 0.07137765950699997 0 0 1
332 28 11 0.06 19.485348541954572 8.147334377853825 1.5368468346411204 0 0 0
678 59 11 0.06 2.5801758120328637 10.346716896188756 1.2986471830328534 0 0 0
674 59 19 -0.35 4.360668049640861 8.072765902954043 2.1015342179914187 0 0 0
680 59 11 0.06 5.268807045007681 9.066297979036367 1.8987071932600375 0 0 0
597 51 11 0.06 12.549562354275286 8.521258740103992 19.11621221093227 0 0 0
723 64 19 -0.35 12.180602330484517 9.920658398007234 1.7425518359697714 0 0 0
721 64 9 0.52 13.60839750629637 8.189768130976926 1.9078072010530454 0 0 0
722 64 20 -0.5 13.115144594146008 7.116692129545349 1.8074732842460712 0 0 0
599 51 11 0.06 16.048487171598968 9.182589728122345 19.408644823470482 0 0 0
769 74 26 -0.39 18.833598696961992 10.282926689969827 19.237717408471813 0 0 0
326 28 20 -0.5 16.5323403911664 7.5358258594355245 1.8691925333463233 0 0 0
728 64 11 0.06 11.783524772617024 10.565098248546363 1.83074939778909 0 0 0
727 64 11 0.06 11.782848517548302 10.560906723810684 1.8323104011776654 0 0 0
726 64 2 0.22 12.589941391391676 10.813931261936997 1.0504130688280544 0 0 0
724 64 19 -0.35 14.5500835632076 11.282325375937413 0.9364675246703594 0 0 0
725 64 2 0.22 13.78488558630648 11.600800075938242 1.1229381709238926 0 0 0
730 64 11 0.06 14.840843919460793 11.499326626337169 0.88303726899547 0 0 0
733 67 31 1 17.604227469410883 13.60681909992649 0.21062983343950342 0 0 0
729 64 11 0.06 14.816019064105193 11.648210181039234 1.0868259857126665 0 0 0
240 20 11 0.06 2.0965186190986063 14.694069027471835 0.9275100260356017 0 0 0
230 20 20 -0.5 5.429522329172134 15.53629457272967 1.0159505516416676 0 0 0
83 7 11 0.06 8.060234883410475 14.12506159810656 0.7238993041483964 0 0 0
84 7 11 0.06 8.406529714251182 13.82625914289012 0.47770377627563254 0 0 0
78 7 1 0.22 8.743575963390343 13.94287065460362 1.0866941373320593 0 0 0
76 7 19 -0.35 9.871369644058735 13.974236145093148 0.9823793649100325 0 0 0
741 70 26 -0.39 12.261384131518659 12.818222030422342 18.844396191667926 0 0 0
75 7 19 -0.35 12.956472476463592 14.4558095397477 1.5258651185662329 0 0 0
80 7 11 0.06 14.959988119925328 14.819410607966446 0.9416934069569207 0 0 0
239 20 11 0.06 1.8572742213955435 16.547767985398956 0.9441845449144776 0 0 0
238 20 11 0.06 1.806813812619565 16.144513000200632 1.871161361401625 0 0 0
234 20 1 0.22 2.441092369118615 15.785866760306495 1.0266541483973326 0 0 0
232 20 19 -0.35 3.7869238440809205 16.60170880989724 1.0801135119226992 0 0 0
229 20 9 0.52 5.333705513522239 16.57548997543243 1.03164306164515 0 0 0
231 20 19 -0.35 6.486584270302995 16.88173010422134 19.980459835794697 0 0 -1
233 20 1 0.22 8.208614068424126 16.905677843928235 19.6083357072483 0 0 -1
236 20 11 0.06 9.16428836342658 16.8306218937373 19.9501881600635 0 0 -1
237 20 11 0.06 9.30146129185718 16.765717128523765 0.021670488421881476 0 0 0
235 20 11 0.06 9.308981754684398 16.76184006581625 0.024834922161070406 0 0 0
73 7 9 0.52 11.25272548925099 14.101243589394544 1.3750793226013929 0 0 0
77 7 1 0.22 14.15067357570299 15.23246010493908 1.052632574454677 0 0 0
81 7 11 0.06 13.703108843556763 15.772666287564945 0.9490184548674258 0 0 0
762 73 26 -0.39 9.636275555523472 19.78049513036391 19.680274540092856 0 0 0
60 5 11 0.06 1.242643688943906 1.2692322767449487 4.152008125473666 0 0 0
515 43 11 0.06 5.579311674755195 0.5781118493576207 3.0632806783077053 0 0 0
510 43 1 0.22 6.566327730104663 0.8913060537361015 3.548811426404617 0 0 0
516 43 11 0.06 5.708760032987976 0.3212606715927157 3.9293604577220393 0 0 0
508 43 19 -0.35 8.670520220731456 1.3564908931524644 3.2705557419815254 0 0 0
505 43 9 0.52 9.935941712326857 2.2303300509355153 3.5559592388966648 0 0 0
506 43 20 -0.5 9.720601880542203 2.345603263889042 3.954422448124954 0 0 0
507 43 19 -0.35 11.454628505613277 2.6146278604166255 3.720015925451089 0 0 0
509 43 1 0.22 12.687680611905368 2.178151834955594 4.353091647375032 0 0 0
512 43 11 0.06 13.081803691584335 2.3554389122727506 3.761205028634233 0 0 0
511 43 11 0.06 13.426453301699553 2.1489039467077045 4.026505159840585 0 0 0
129 11 11 0.06 16.088535824541147 0.2829031471714106 4.162013985392197 0 1 0
59 5 11 0.06 0.8552574239394966 2.0636320339060386 3.0442266670947924 0 0 0
54 5 1 0.22 1.6150628736319634 2.0684099579545387 3.7682394552154195 0 0 0
142 12 11 0.06 3.1986833935982375 3.841647547129392 1.5704203080128187 0 0 0
52 5 19 -0.35 3.0929908300916487 2.1550710857432627 4.306236495767094 0 0 0
49 5 9 0.52 4.234495658760813 3.057380252509343 4.271819148890275 0 0 0
50 5 20 -0.5 3.8144118792493575 3.951151190167583 4.539734497092707 0 0 0
51 5 19 -0.35 5.485481988654136 3.6319600938797185 4.757110514969481 0 0 0
53 5 1 0.22 6.7452359173293015 3.5164421056586894 4.98262697735805 0 0 0
57 5 11 0.06 7.356972772153324 3.5926379870352116 5.31431542902538 0 0 0
56 5 11 0.06 7.132242624860271 3.5712822811979517 4.833089075135443 0 0 0
135 12 19 -0.35 7.604337606109588 3.611695778717726 1.610951676916091 0 0 0
139 12 11 0.06 9.316600446094796 4.907606441337881 2.359364059554119 0 0 0
513 43 11 0.06 12.919719868532184 2.4980807942809533 3.6936881266053025 0 0 0
120 10 11 0.06 15.184648777493484 4.385998066975397 3.0874448552073033 0 0 0
118 10 11 0.06 14.671919069353873 4.799713245310199 2.9001139707550596 0 0 0
116 10 11 0.06 0.6742161061602756 5.419964929056536 1.9191628974719108 1 0 0
113 10 1 0.22 0.5827713375993618 5.5247545623450565 2.8006483938703393 1 0 0
115 10 11 0.06 0.9822288369798132 5.007446054763604 3.6033560369375617 1 0 0
117 10 11 0.06 1.14143185579475 5.023819517364608 3.5660668227105288 1 0 0
491 41 11 0.06 6.45978977342829 6.490380148618353 4.7266092244358875 0 0 0
216 18 11 0.06 8.114312846733732 7.8884365690521205 2.6549418789189643 0 0 0
371 31 11 0.06 10.436960757708095 4.845171014567024 5.445023714668839 0 0 0
364 31 19 -0.35 12.425175056682997 5.0273591294846 5.253695744532701 0 0 0
119 10 11 0.06 14.991327706160344 4.964678233998587 2.7415645212731543 0 0 0
209 18 1 0.22 13.928557932602509 7.595771800108614 4.864346077633337 0 0 0
212 18 11 0.06 14.940191900788822 7.312255619908101 4.607155642830075 0 0 0
488 41 11 0.06 12.07502462866336 7.107499393629931 7.390258627582154 0 0 0
114 10 1 0.22 15.258180038844245 4.72408306030871 3.1260374862344973 0 0 0
112 10 19 -0.35 16.579064845595507 4.950017127179063 3.3878343650955034 0 0 0
368 31 11 0.06 17.25604217616699 5.133833271969878 7.252819229054446 0 0 0
109 10 9 0.52 18.012593920116064 5.352635839934771 3.2974793182920354 0 0 0
110 10 20 -0.5 18.055712043065835 4.720196212406406 4.192105480268498 0 0 0
111 10 19 -0.35 19.270667792812183 5.314508157586464 2.800692388962941 0 0 0
333 28 11 0.06 19.618642396287072 8.944510830662807 1.8017889250902883 0 0 0
673 59 19 -0.35 2.4758473040551254 7.993038277460646 1.9710050093889613 0 0 0
331 28 11 0.06 19.484103312691236 8.17169016172993 1.9142486654516635 0 0 0
677 59 11 0.06 2.3300407850865925 10.140035015313819 1.3412947169318121 0 0 0
671 59 9 0.52 3.196115524690077 6.979484601926988 2.5919150612947717 0 0 0
672 59 20 -0.5 4.082587446817696 6.443497326076379 2.898189883956375 0 0 0
44 4 11 0.06 4.265282057045918 8.493137719308686 5.119323245565379 0 0 0
679 59 11 0.06 5.230533578592535 9.159431481310756 2.359196907147472 0 0 0
210 18 1 0.22 8.378881973058446 8.282861116991997 3.03403830106956 0 0 0
215 18 11 0.06 8.004282872163563 8.035538355355097 2.5650658568442375 0 0 0
208 18 19 -0.35 9.72752092097954 8.395707168572121 3.0636034199407463 0 0 0
214 18 11 0.06 8.194720024176863 8.757768718861392 2.5813505717731817 0 0 0
205 18 9 0.52 10.871850569384208 8.176298710927444 3.8011696681153557 0 0 0
206 18 20 -0.5 11.072714258999538 7.384661564215789 3.98566625542687 0 0 0
207 18 19 -0.35 11.991827262815383 8.556977712458199 4.401595163270458 0 0 0
213 18 11 0.06 14.947184975124706 7.494699126132539 4.862282780618265 0 0 0
330 28 1 0.22 14.462133000924313 10.356082772306422 3.8192643416946126 0 0 0
335 28 11 0.06 14.456179274343269 10.4680252931681 3.8206307237702015 0 0 0
336 28 11 0.06 14.290862725157325 10.389238725265994 3.8181909272319134 0 0 0
211 18 11 0.06 14.877691012713216 7.83698956652015 5.393021140486859 0 0 0
334 28 11 0.06 14.45256458609495 10.358499800089596 3.785594537019007 0 0 0
328 28 19 -0.35 15.927776214993637 9.688291335291632 3.067300630492362 0 0 0
325 28 9 0.52 16.557427608136372 8.668884648399812 2.3197725158237965 0 0 0
47 4 11 0.06 17.925603022451767 7.820826763777995 4.997724884564646 -1 0 0
329 28 1 0.22 19.298846549325607 8.654159858895127 2.116898007775415 0 0 0
327 28 19 -0.35 17.92964933556735 8.849118451392634 1.7759904533401856 0 0 0
48 4 11 0.06 17.957278470525054 7.853708387026271 4.951886671274079 -1 0 0
40 4 19 -0.35 19.652120256045002 7.802144714578229 5.280803037063625 -1 0 0
68 6 11 0.06 1.8231064272474646 11.537080548580017 3.945631744697362 1 0 0
69 6 11 0.06 1.823391408575164 11.536462323767347 3.945826183454653 1 0 0
676 59 2 0.22 2.894813210291693 9.45746855297097 2.0679777868136124 0 0 0
675 59 2 0.22 4.28929754709355 9.258183274332076 1.5698758709954097 0 0 0
45 4 11 0.06 3.9768283332959165 8.547077863206896 5.033845073572761 0 0 0
573 49 19 -0.35 4.093586637974282 12.732624577818571 2.3061579443116007 0 0 0
248 21 11 0.06 4.373869238502657 11.479786227916396 5.52160517573757 0 0 0
571 49 9 0.52 5.282169195796215 12.085307350877104 1.712176013510313 0 0 0
572 49 20 -0.5 6.937418542895581 11.554857167179351 1.7857440039052597 0 0 0
479 40 11 0.06 7.752036518829681 10.647189171482395 4.928051024304742 0 0 0
384 32 11 0.06 13.11292697113814 13.117155373025497 4.235368939793933 0 0 0
476 40 11 0.06 13.437020240794064 10.112565120913228 6.894432402732969 0 0 0
71 6 11 0.06 16.497802148742522 10.671910276793362 6.003754188042469 0 0 0
61 6 9 0.52 18.999770783165115 10.618797142344071 4.3592788763326675 0 0 0
62 6 20 -0.5 18.508967826631753 11.076713962915946 3.698726328380975 0 0 0
251 21 11 0.06 19.863580947300985 13.728304278238772 3.3527065011845103 -1 0 0
578 49 11 0.06 3.8494988381343473 14.526272217932263 3.355954916703627 0 0 0
577 49 11 0.06 3.974157282866898 14.845759877493434 3.546325689019465 0 0 0
576 49 2 0.22 4.406273485736309 13.749718740813115 3.23831840463668 0 0 0
580 49 11 0.06 6.4152113362245045 13.243743431520457 4.2269207284279275 0 0 0
574 49 19 -0.35 5.962011344477825 12.385782274524152 2.853677187107327 0 0 0
575 49 2 0.22 5.751623802439662 13.746418774078448 3.4439206809052982 0 0 0
579 49 11 0.06 6.414815783749482 13.245912863123328 4.229622345119399 0 0 0
82 7 11 0.06 8.11842056453211 14.211596047182747 1.0580327412274408 0 0 0
651 57 9 0.52 9.3784049391307 12.981469668470952 3.851727787374074 0 0 0
653 57 19 -0.35 8.407680080831378 15.438201584406626 3.777757498128444 0 0 0
654 57 19 -0.35 10.175789194593479 13.998149801089781 4.236732660123658 0 0 0
74 7 20 -0.5 11.672649659018306 13.656660516831973 1.661462500502278 0 0 0
652 57 20 -0.5 10.004320586285163 12.154419761334875 3.645515044609784 0 0 0
79 7 11 0.06 14.56806934256389 14.621014694681477 1.4016594732001961 0 0 0
378 32 1 0.22 14.081320159297315 13.427323081364303 4.1086773905469425 0 0 0
383 32 11 0.06 13.072019923774588 13.085619916167266 4.304084603856633 0 0 0
376 32 19 -0.35 15.592444576161995 13.243343436014625 3.8612924610299375 0 0 0
375 32 19 -0.35 17.831947982224293 15.618875716347588 4.483866594021399 0 0 0
380 32 11 0.06 0.4018401198263294 16.251219403384457 4.878945040879756 1 0 0
658 57 11 0.06 6.793573789587577 16.242888502742964 4.736324213824179 0 0 0
186 16 1 0.22 8.554198410580202 18.171877156460024 2.561807248336899 0 0 0
191 16 11 0.06 7.375548845634262 18.188784416511364 2.529204431416453 0 0 0
192 16 11 0.06 7.946921912624354 18.768453272861013 1.9423893973331152 0 0 0
184 16 19 -0.35 10.810769555747004 16.790564796252262 2.619180152082883 0 0 0
656 57 2 0.22 7.879180774027452 15.84609900893095 4.827846997468588 0 0 0
190 16 11 0.06 7.407629163379117 18.194204892380057 2.5439798736693855 0 0 0
655 57 2 0.22 9.614179015181575 14.92338570468368 5.053054004206449 0 0 0
181 16 9 0.52 12.121332998133905 16.624544187262114 3.4196889591445827 0 0 0
182 16 20 -0.5 11.0694063991379 16.593766588680275 3.0282559703275034 0 0 0
660 57 11 0.06 10.775480757923523 15.004569249278028 5.55448568663164 0 0 0
183 16 19 -0.35 13.034056472259104 16.232740989112756 4.010034063028551 0 0 0
185 16 1 0.22 14.464365544284528 16.471075716037006 3.765177997485447 0 0 0
188 16 11 0.06 15.278499119366108 16.983294091778166 3.210858581227833 0 0 0
187 16 11 0.06 15.06921494313606 16.71795998357713 4.092767052965051 0 0 0
132 11 11 0.06 11.08406760859469 19.761320591894346 2.3067055114956445 0 0 0
130 11 11 0.06 11.086479793357421 19.761215552305337 2.305301759088425 0 0 0
131 11 11 0.06 11.336471255537008 19.71004950762364 2.159673666881511 0 0 0
126 11 1 0.22 11.445361064623523 19.66092823674506 3.212358458895596 0 0 0
124 11 19 -0.35 12.490725695005723 19.546284235684062 2.879669756798276 0 0 0
189 16 11 0.06 15.112677045616117 17.10247068495885 3.234978115154996 0 0 0
121 11 9 0.52 13.316164144325237 19.183989766660446 4.461182423713173 0 0 0
123 11 19 -0.35 14.770774677166086 19.601521932286918 4.857783260647499 0 0 0
125 11 1 0.22 16.234243375253172 19.48510176783071 4.6683105357731405 0 0 0
128 11 11 0.06 16.882918566492872 19.471590131070204 3.7368563566772295 0 0 0
514 43 11 0.06 5.673806709764373 0.4266915536516724 4.213605484548763 0 0 0
556 47 2 0.22 8.749021527487603 0.44911274646314175 6.127900152498557 0 1 0
555 47 2 0.22 9.989849109994706 1.0034940570735082 6.621647600838651 0 1 0
288 24 11 0.06 13.061138319924142 1.8916879875988113 8.011021360920079 0 0 0
280 24 19 -0.35 14.526938524633142 1.8184529973097965 6.862286480409369 0 0 0
58 5 11 0.06 1.4462632814700283 2.0326925327154153 4.660399460728817 0 0 0
693 61 19 -0.35 2.5478978750221617 3.4162280581136217 7.203870254694825 0 0 0
691 61 9 0.52 3.8999296719979153 2.5042599857852212 7.200735960022339 0 0 0
694 61 19 -0.35 4.714392021057991 3.9222512045662326 7.639611944446413 0 0 0
692 61 20 -0.5 4.8377929112871385 1.7981817584534237 7.041299968285882 0 0 0
55 5 11 0.06 6.9790903182227675 3.4938073682266726 5.393323286261169 0 0 0
372 31 11 0.06 10.557643830780803 4.221420431012846 6.140113090730643 0 0 0
287 24 11 0.06 12.445570403959572 2.7565896096398097 7.953099991656739 0 0 0
361 31 9 0.52 13.648411271800192 4.8580693771516 6.185422018515118 0 0 0
286 24 11 0.06 12.44484211949455 2.7557923114568963 7.9544118267482915 0 0 0
282 24 1 0.22 13.249730794638372 2.1594888798070384 7.49587826434227 0 0 0
277 24 9 0.52 15.860732254046642 2.3527855309511576 6.537907868888217 0 0 0
278 24 20 -0.5 16.15176283180042 1.4096607937234797 7.2376988572167384 0 0 0
279 24 19 -0.35 17.202868889181254 2.4314306954309792 5.932374220641479 0 0 0
284 24 11 0.06 18.493722239244626 1.9184019396861154 5.170851045433285 0 0 0
281 24 1 0.22 18.702297680005845 2.4975656452860964 6.097725278943861 0 0 0
283 24 11 0.06 19.21035823733419 2.0483878251974654 6.660159245124814 0 0 0
285 24 11 0.06 19.40749677574451 3.169884356358974 6.54238829336275 0 0 0
698 61 11 0.06 2.0129183419682746 4.957589588143816 6.715947806076795 0 0 0
696 61 2 0.22 2.773348323906326 4.764144247840516 7.283284190666127 0 0 0
695 61 2 0.22 4.236200654195962 5.140582886446426 7.261162179112018 0 0 0
492 41 11 0.06 6.468495897076864 6.426983822546789 5.7253315885574425 0 0 0
700 61 11 0.06 5.095921780666014 5.118351407764731 8.049776266915002 0 0 0
490 41 11 0.06 6.471581483240974 6.427015025338975 5.727974494574105 0 0 0
734 68 31 1 7.826716778747075 3.353836299751971 8.266280663467425 0 0 0
486 41 1 0.22 6.928537037979715 6.740126577361999 5.158034046727485 0 0 0
484 41 19 -0.35 8.224917410221463 6.856598727572645 5.6679481435077586 0 0 0
366 31 1 0.22 10.902892530674745 4.927966795572168 5.698138944571288 0 0 0
370 31 11 0.06 10.338166985868087 4.284433597630523 6.290175660482976 0 0 0
481 41 9 0.52 9.242944766832862 7.416411795916986 6.443093519559641 0 0 0
482 41 20 -0.5 9.092026594020313 6.8476447326276135 7.224851871589368 0 0 0
483 41 19 -0.35 10.62806119692328 7.655563615904346 6.954161027875113 0 0 0
362 31 20 -0.5 13.871706410679929 4.537072790088437 5.778537832019451 0 0 0
363 31 19 -0.35 14.961766266777587 5.251843848962006 6.908978598420912 0 0 0
485 41 1 0.22 12.027227783943044 7.442850927091833 7.179432925488714 0 0 0
487 41 11 0.06 12.4195061869847 7.2878696135306695 7.437880836459961 0 0 0
489 41 11 0.06 12.119965981298948 7.468112222031045 7.524886930785925 0 0 0
365 31 1 0.22 16.604038700687422 5.250960955869929 6.762432652219674 0 0 0
369 31 11 0.06 17.052798261444728 5.458163141645259 7.574978732831919 0 0 0
367 31 11 0.06 16.223947065401507 5.923992508268979 7.291412051620279 0 0 0
37 4 9 0.52 1.1908194432348378 7.470617745731493 5.3006680096147205 0 0 0
38 4 20 -0.5 0.9256809898711624 7.946329261443179 4.534738328449337 0 0 0
39 4 19 -0.35 2.590751675951081 7.764110829324836 5.4227746552307945 0 0 0
359 30 11 0.06 0.26168051294981126 7.112287696340464 8.142759023249988 0 0 0
41 4 1 0.22 3.725344045947516 8.55851134414357 5.3806509997881085 0 0 0
43 4 11 0.06 4.092021189111404 8.217892460788573 5.366800302238187 0 0 0
356 30 11 0.06 6.314718928621909 8.994668198496516 7.266821800416675 0 0 0
42 4 1 0.22 18.247246714936104 7.570704318846213 5.811775152508638 -1 0 0
46 4 11 0.06 18.311044886469087 7.892898523635308 6.002774328050627 -1 0 0
63 6 19 -0.35 0.41591452117457833 10.846842865950618 3.977459330198203 1 0 0
65 6 1 0.22 1.4288038604721556 10.898947719891297 4.770761257663992 1 0 0
67 6 11 0.06 1.5149850527773423 10.584953831394447 5.981797390237164 1 0 0
246 21 1 0.22 19.84477361778981 13.368951444320578 5.4940145451962215 -1 0 0
241 21 9 0.52 2.441049496751938 13.741677979249056 5.883169629867813 0 0 0
242 21 20 -0.5 2.5780485016024532 13.706324169217137 6.691986990579909 0 0 0
245 21 1 0.22 4.352573302440916 11.505838898698082 5.694122592322382 0 0 0
247 21 11 0.06 4.91920066471723 11.300593621949202 5.951391482467758 0 0 0
478 40 11 0.06 7.670910369261907 10.433684059206055 5.01301016636829 0 0 0
474 40 1 0.22 8.576420453182585 10.140009717256584 5.376789486923803 0 0 0
480 40 11 0.06 7.75388325114246 10.615481051731466 4.8942666376362105 0 0 0
612 53 20 -0.5 7.612272905239287 11.763286505218302 7.707175864407661 0 0 0
472 40 19 -0.35 9.684545852854912 10.357484507568138 6.05586955548785 0 0 0
469 40 9 0.52 10.537319200491964 11.122032282112341 6.412142530053689 0 0 0
471 40 19 -0.35 11.745135017676725 11.045520064706466 6.057783528629288 0 0 0
473 40 1 0.22 12.931295958753608 10.638713963316608 6.478290252390095 0 0 0
475 40 11 0.06 13.426858543406027 10.091335224659396 6.890372378162343 0 0 0
477 40 11 0.06 13.34203611872713 10.085220576605352 6.647447373716895 0 0 0
72 6 11 0.06 16.32813134492913 10.420535800365396 6.163982442066562 0 0 0
66 6 1 0.22 16.612150335525918 10.35791058557079 5.907942075590017 0 0 0
70 6 11 0.06 16.68129786284197 10.585230978085024 6.251193882047113 0 0 0
64 6 19 -0.35 17.73533020876727 10.82413986760755 5.306044998851191 0 0 0
250 21 11 0.06 19.075984536402743 13.167579794685599 6.612845179156981 -1 0 0
252 21 11 0.06 19.540317230021422 12.780708282966547 6.687255347677567 -1 0 0
381 32 11 0.06 0.2938632409599399 16.380696425910248 4.681073613706303 1 0 0
244 21 19 -0.35 1.1168432144349514 13.61365893394349 6.2301760550424 0 0 0
243 21 19 -0.35 3.7871007799570298 12.610972152861754 5.943452344901277 0 0 0
657 57 11 0.06 6.991391148427937 16.62599854618856 5.083391991221013 0 0 0
611 53 9 0.52 6.9635301501514 12.37656998128958 7.868231640901853 0 0 0
616 53 2 0.22 6.576596919527944 14.529680916391113 7.187861535352559 0 0 0
618 53 11 0.06 5.480784487594498 14.84950882476642 7.044469636294076 0 0 0
249 21 11 0.06 4.92045732903222 11.29978153667091 5.94900361863413 0 0 0
613 53 19 -0.35 6.287394127274056 13.625297701732753 7.256787681427226 0 0 0
614 53 19 -0.35 8.034004228293202 13.362442939700488 8.085243813544714 0 0 0
615 53 2 0.22 8.004346961741522 14.846651468441355 7.704680250574092 0 0 0
620 53 11 0.06 9.057841799937131 14.520304285034605 7.97234185401184 0 0 0
470 40 20 -0.5 10.373743274593798 12.189215512156851 6.620078388623251 0 0 0
631 55 9 0.52 15.152448058488751 12.577678030527878 7.886003508282584 0 0 0
636 55 2 0.22 13.358890903948497 14.429171602284512 6.969229182802141 0 0 0
638 55 11 0.06 12.504952166201281 13.960431279385087 7.770942778863453 0 0 0
382 32 11 0.06 13.08178068798497 13.170213891843977 4.262355634270911 0 0 0
634 55 19 -0.35 15.636887745592176 13.35120454314022 7.0339544019194715 0 0 0
373 32 9 0.52 16.859138273078095 14.344133022052688 3.693727363576808 0 0 0
374 32 20 -0.5 17.059604438440125 13.60503149834841 4.407005697941963 0 0 0
635 55 2 0.22 15.08370482489784 14.439946027147998 6.745022527360815 0 0 0
640 55 11 0.06 15.776668631595246 15.231388987367763 6.63289694364295 0 0 0
377 32 1 0.22 19.25422813464254 16.270282593497946 5.018746383513358 0 0 0
379 32 11 0.06 19.513681606584804 16.290340493171936 6.087285417150141 0 0 0
659 57 11 0.06 10.774846089301668 15.005777587906582 5.555793232229861 0 0 0
95 8 11 0.06 3.81718986069241 18.766899049581692 6.373623689801129 0 0 0
88 8 19 -0.35 5.501623905244802 18.528603982664222 7.1738837378972224 0 0 0
558 47 11 0.06 7.840075311006513 0.7604615984887351 6.268189306637243 0 1 0
551 47 9 0.52 9.423887060104741 18.34670168405401 5.426759143852133 0 0 0
553 47 19 -0.35 8.473171909954313 19.225546496983554 5.3693823177940585 0 0 0
557 47 11 0.06 7.838633282725711 0.7559195267715405 6.262179978767673 0 1 0
87 8 19 -0.35 7.908477220113725 18.439098971541327 8.206691786446454 0 0 0
560 47 11 0.06 10.835987915306685 0.839662109113301 6.296160573348457 0 1 0
552 47 20 -0.5 10.343158818685493 17.97106187998257 5.590613787909961 0 0 0
92 8 11 0.06 9.978884329773141 19.477259455719306 9.203911425959065 0 0 0
554 47 19 -0.35 10.560261535269223 19.516842637566942 6.074553075844533 0 0 0
559 47 11 0.06 10.835551768099672 0.8408487021371448 6.2952765553437775 0 1 0
122 11 20 -0.5 13.418078446052725 18.711013218915216 5.654755306533213 0 0 0
127 11 11 0.06 16.666570607818233 18.927793946751038 5.512506655801801 0 0 0
302 26 20 -0.5 2.0060248426174527 1.1457174123442582 9.493589712697494 0 0 0
308 26 11 0.06 5.221891517413706 2.160033655872509 10.01118883984442 0 0 0
311 26 11 0.06 18.93813661306569 3.234223387409034 9.504204336165479 -1 0 0
697 61 11 0.06 1.7872207267873623 4.565865141748537 7.719245335251841 0 0 0
360 30 11 0.06 19.99283168258195 7.057014672089338 8.341829160672495 -1 0 0
350 30 20 -0.5 3.5562010815558325 7.881536836480603 8.757572051083837 0 0 0
699 61 11 0.06 5.007561186416358 5.165050662008869 8.021960000305256 0 0 0
548 46 11 0.06 12.527204538251713 5.92808446227331 10.109798988937897 0 0 0
550 46 11 0.06 15.965192654801541 6.295649239763484 10.318181978721261 0 0 0
354 30 1 0.22 0.6103735197568652 7.756877262512833 8.2275325621058 0 0 0
358 30 11 0.06 0.555125543756138 8.508890972791683 8.051908724921603 0 0 0
352 30 19 -0.35 2.0984640983079204 7.477188343949389 8.369985834012976 0 0 0
349 30 9 0.52 3.4879310205981637 7.859496914296523 8.282658246458325 0 0 0
351 30 19 -0.35 5.089736945381107 8.157149541035793 8.195068070662565 0 0 0
353 30 1 0.22 6.052261419829315 9.079204027506355 7.618260941043305 0 0 0
355 30 11 0.06 6.818923884067523 8.882567930573108 7.45546975739336 0 0 0
357 30 11 0.06 6.813695248448526 8.86259564910717 7.444811393059786 0 0 0
155 13 11 0.06 5.838633854878921 10.556984394858318 10.536696820567856 0 0 0
563 48 19 -0.35 7.656684739178203 7.21024958205156 9.827245936439693 0 0 0
11 1 11 0.06 13.742158504214338 8.725008340643917 9.711262362719037 0 0 0
1 1 9 0.52 16.607498663594242 8.94953017112482 8.760593067608612 0 0 0
3 1 19 -0.35 18.159340311897306 10.099252451702663 8.902853775678956 0 0 0
8 1 11 0.06 19.342125932058547 10.881339664494044 9.42894466417181 0 0 0
583 50 19 -0.35 2.3354892165218186 12.34312003824498 9.493186699513913 0 0 0
581 50 9 0.52 3.2912628150418954 11.461928434265483 8.898060958406647 0 0 0
584 50 19 -0.35 4.103702513226729 12.486109664167603 8.965945193070601 0 0 0
582 50 20 -0.5 3.2591012185808346 10.845711858871924 8.407029768161465 0 0 0
146 13 20 -0.5 8.818366370196339 10.603438100594602 10.19571815987411 0 0 0
152 13 11 0.06 11.633010415955088 10.804009779698589 9.186134206290337 0 0 0
632 55 20 -0.5 15.265531675680755 11.866141764943045 8.566542275819314 0 0 0
9 1 11 0.06 19.29521543076418 11.655067480029942 9.86900211788327 0 0 0
588 50 11 0.06 1.4187934492949918 13.733124323486287 9.45637744659746 0 0 0
586 50 2 0.22 2.6065137437047063 13.902370946455298 9.684986554401894 0 0 0
585 50 2 0.22 4.143018034053035 13.303353803992346 9.881941360104829 0 0 0
587 50 11 0.06 1.4199893261874417 13.731403342071317 9.45840584094738 0 0 0
590 50 11 0.06 5.21306910239786 13.449863727969792 10.053710479825178 0 0 0
617 53 11 0.06 5.458292016697698 14.838012233742726 7.0569961420081295 0 0 0
589 50 11 0.06 5.213069152061259 13.449863748016371 10.053710376197666 0 0 0
619 53 11 0.06 9.058276430310151 14.517999772231594 7.97528661194374 0 0 0
633 55 19 -0.35 13.60091408396829 13.368046441244482 7.516767263544726 0 0 0
637 55 11 0.06 12.504882429021954 13.960507186272295 7.771008008666331 0 0 0
683 60 19 -0.35 14.820464623174658 15.068120413994455 9.663777560562263 0 0 0
639 55 11 0.06 15.741636731462313 15.269753256670942 6.630050939446983 0 0 0
96 8 11 0.06 3.463058305991521 17.47909746275456 7.128628431643852 0 0 0
504 42 11 0.06 5.113326078995114 16.51554040780483 9.521193838405615 0 0 0
503 42 11 0.06 5.006087103212329 16.420594033076682 9.698073085090293 0 0 0
496 42 19 -0.35 7.4082190559514975 16.311885283460732 10.259428542749875 0 0 0
498 42 1 0.22 6.161237478558826 16.25913468531364 9.60348043959188 0 0 0
502 42 11 0.06 5.088306898157727 16.567268988973083 9.47955701474149 0 0 0
493 42 9 0.52 9.033138025824057 16.440830597215893 10.276300538657239 0 0 0
494 42 20 -0.5 9.63167105444633 15.56696597667955 10.734131282594005 0 0 0
495 42 19 -0.35 10.600552205718238 16.491021036393914 9.624815423791096 0 0 0
497 42 1 0.22 11.183657337097063 16.62882332630357 8.138709825857813 0 0 0
500 42 11 0.06 12.115012068348952 17.022986981563015 7.817343186585657 0 0 0
499 42 11 0.06 11.504688793935761 16.9530432938204 8.656438048184594 0 0 0
688 60 11 0.06 13.267592525904146 15.236338314451451 10.372290295725106 0 0 0
690 60 11 0.06 16.69906417450596 17.75078625921032 9.127451992951505 0 0 0
90 8 1 0.22 3.9957874929295225 18.35823509734619 7.327111033639922 0 0 0
94 8 11 0.06 3.487041613026765 18.834134332311034 8.204248485615658 0 0 0
85 8 9 0.52 6.491549345803244 18.86168686093774 8.15514203835959 0 0 0
86 8 20 -0.5 6.316558263043268 19.73121118333573 8.63683331300472 0 0 0
501 42 11 0.06 12.063723301203012 17.307483413610203 8.07888096336738 0 0 0
89 8 1 0.22 9.221068162368114 18.989937949131853 8.706109286277394 0 0 0
91 8 11 0.06 9.465438791109019 19.311690204824156 9.523284979307181 0 0 0
93 8 11 0.06 9.233593787995114 19.91067065227331 9.31062659381273 0 0 0
539 45 11 0.06 11.388654701047113 1.9022239512233035 11.015619703530005 0 0 0
529 45 9 0.52 15.076475962595614 1.718395624147596 12.053154837070885 0 0 0
530 45 20 -0.5 15.708491056645924 1.4765725278650577 11.499960723275082 0 0 0
312 26 11 0.06 19.030849839786562 2.0298180855530195 9.65398021116965 -1 0 0
536 45 11 0.06 18.324804842743873 0.15489786577619644 12.13541333912855 0 0 0
304 26 19 -0.35 0.7736227634035767 2.327483349740423 10.378708516089889 0 0 0
301 26 9 0.52 2.0078718262238135 2.2701317742627123 9.921843272109045 0 0 0
419 35 11 0.06 2.196916346434659 3.157907204475848 12.884453970479008 0 0 0
228 19 11 0.06 1.1961680422188519 5.2912163574277296 10.568505779462983 0 0 0
303 26 19 -0.35 3.293802087232266 2.962052433855468 10.101068537709704 0 0 0
305 26 1 0.22 4.495870867633389 2.5926625964677585 10.327695837698629 0 0 0
412 35 19 -0.35 3.7477025827628605 2.9677540466175314 13.207450705324826 0 0 0
309 26 11 0.06 5.268948797602265 2.037975887505988 10.241406891980104 0 0 0
307 26 11 0.06 4.89928494567419 1.6957056072166388 10.462320149232907 0 0 0
411 35 19 -0.35 6.3771287532002905 2.1992111258200913 13.023762501152246 0 0 0
416 35 11 0.06 8.51722277913392 2.1902255652370854 11.834779157209722 0 0 0
541 46 9 0.52 14.530843215159587 3.7099985220149954 9.883618352109803 0 0 0
543 46 19 -0.35 13.272965671843192 4.459399712351796 10.278952843460477 0 0 0
542 46 20 -0.5 15.304754197323357 3.4426590200441645 9.274342559078004 0 0 0
306 26 1 0.22 19.4903097601945 2.7880969517475136 10.195902998846464 -1 0 0
310 26 11 0.06 18.91426955487167 3.5238942025851085 9.753761467711834 -1 0 0
227 19 11 0.06 1.1205787955756061 5.696180052770263 10.76563637154937 0 0 0
222 19 1 0.22 1.7508303829188046 5.570733105700632 11.16105153395007 0 0 0
226 19 11 0.06 1.2589166867746018 5.783697445596923 11.778747062804811 0 0 0
220 19 19 -0.35 2.970305582912692 6.18870491814957 11.230288235837264 0 0 0
217 19 9 0.52 4.148325466014939 5.746455648959134 10.835837127750935 0 0 0
218 19 20 -0.5 4.5124310498014975 6.717197345678649 11.343176066525679 0 0 0
219 19 19 -0.35 5.5067464891919995 5.469471812654047 11.083280914707643 0 0 0
221 19 1 0.22 6.587893084311747 4.564937860403954 11.17432114736785 0 0 0
225 19 11 0.06 7.087803789497112 4.828025550461145 11.553866488639905 0 0 0
224 19 11 0.06 6.879008125964308 4.507865063076513 10.865834126979243 0 0 0
223 19 11 0.06 7.083127336861728 4.841495327489066 11.575874542982401 0 0 0
561 48 9 0.52 9.546780025398336 5.306360347993558 9.756899680978085 0 0 0
562 48 20 -0.5 9.848284134769381 4.35600661155614 10.241967731972721 0 0 0
564 48 19 -0.35 9.79334817345473 6.106207494019588 11.353376914114747 0 0 0
547 46 11 0.06 12.712228302051217 5.942923786422534 10.69598672870287 0 0 0
544 46 19 -0.35 15.400000401516488 4.6143462782845415 10.596206973311656 0 0 0
546 46 2 0.22 13.538290614905593 5.706601226569945 10.18778806913634 0 0 0
545 46 2 0.22 14.934994623085782 6.002993200677706 10.791713167403099 0 0 0
549 46 11 0.06 15.873767480974594 6.344568979979341 10.454641448163706 0 0 0
428 36 11 0.06 1.7990200672851784 9.44184802219046 10.617256621014027 1 0 0
427 36 11 0.06 2.0198778369877948 9.023269563767899 11.46260079070565 1 0 0
423 36 19 -0.35 1.1158112027199492 8.682912355322571 11.031332340025221 1 0 0
348 29 11 0.06 4.215263079136216 8.775430856121945 13.50403789389494 0 0 0
347 29 11 0.06 4.5392362189697595 9.160794218181097 13.082407974937894 0 0 0
568 48 11 0.06 7.4811931466088275 7.461288285316654 10.011115953332068 0 0 0
156 13 11 0.06 5.82593345640758 10.421894260060087 10.289079758341586 0 0 0
566 48 2 0.22 8.115256288019586 7.776584661421785 10.910619545153345 0 0 0
567 48 11 0.06 7.478322602873397 7.459291315894733 10.011876479233583 0 0 0
342 29 1 0.22 5.097414012811451 9.219753476614178 13.266108585417395 0 0 0
340 29 19 -0.35 6.764017804012798 9.280673837007862 13.262927839044956 0 0 0
570 48 11 0.06 10.502748896718156 8.136583588065964 9.958383215507924 0 0 0
148 13 19 -0.35 7.338462094089996 10.901803462924455 10.805886521638849 0 0 0
147 13 19 -0.35 10.126192460050685 11.387751970495415 9.542395535584363 0 0 0
565 48 2 0.22 9.71672961579833 7.525389803169024 10.86159203054494 0 0 0
569 48 11 0.06 9.71557773267724 7.277280471794633 12.003286918680402 0 0 0
341 29 1 0.22 10.231904520805163 10.12130038839045 12.796946680377953 0 0 0
344 29 11 0.06 10.914760080432671 10.012224093088706 12.258810727818165 0 0 0
12 1 11 0.06 13.446529177026557 8.848743807433495 10.593108830615703 0 0 0
6 1 1 0.22 14.123455081342863 9.13561064627395 9.808857723116503 0 0 0
4 1 19 -0.35 15.206294574901133 8.863848093903567 8.969391129705219 0 0 0
10 1 11 0.06 13.506164298436333 8.826153891940116 10.481545918034476 0 0 0
2 1 20 -0.5 17.137531891467265 8.520226894129395 8.686595203938817 0 0 0
432 36 11 0.06 16.04145489464604 8.847756010538728 12.097723029731707 0 0 0
424 36 19 -0.35 17.71032377581122 8.816063416186676 12.041329949147551 0 0 0
5 1 1 0.22 19.204654717188802 10.940033311630616 10.541646916216107 0 0 0
7 1 11 0.06 0.06442709778280584 9.858349498581807 13.578010864883003 1 0 0
422 36 20 -0.5 18.66534623057685 7.399762418522463 11.008618946364084 0 0 0
425 36 1 0.22 1.8351722739362772 9.645496889742727 11.168385527161568 1 0 0
429 36 11 0.06 2.411893223090874 9.511530305312101 10.999364294973889 1 0 0
324 27 11 0.06 1.706601488226176 12.212742681927352 12.713030402692572 0 0 0
314 27 20 -0.5 4.704533144871626 12.157523108038486 12.802907833429414 0 0 0
150 13 1 0.22 5.904728079420802 9.968437892055928 10.47671323423331 0 0 0
154 13 11 0.06 5.55506247927401 10.383422383125477 10.540061249674599 0 0 0
145 13 9 0.52 8.800788151021267 11.579281913390119 10.455624566527053 0 0 0
339 29 19 -0.35 9.017017012713232 10.015253565171074 13.128644854525726 0 0 0
149 13 1 0.22 11.706579558330148 11.062855159959858 9.563705177943255 0 0 0
153 13 11 0.06 11.567118035651225 11.55523233147403 9.296379872274802 0 0 0
151 13 11 0.06 12.228417481874631 11.407008650108208 9.320548432641212 0 0 0
345 29 11 0.06 10.916044281799476 10.012475139073338 12.26010714611454 0 0 0
431 36 11 0.06 16.27877151136204 10.729029980082688 11.147723036271035 0 0 0
426 36 1 0.22 16.607981685815716 9.634959076904574 11.677150381723465 0 0 0
430 36 11 0.06 16.03834637494308 8.84775273207342 12.100022620929648 0 0 0
26 3 20 -0.5 15.841289150950477 10.883753334060303 14.292434860869031 0 0 0
421 36 9 0.52 19.1837879572268 8.055104159455668 11.352376523815321 0 0 0
32 3 11 0.06 18.360055397204203 12.265940821063184 13.090575207404962 0 0 0
318 27 1 0.22 1.809987633350113 12.781487349294547 13.250498228828798 0 0 0
323 27 11 0.06 1.5083991577782063 12.37166374149036 12.376454526705798 0 0 0
521 44 1 0.22 0.586802471652758 15.194610980532639 11.956499865219024 1 0 0
524 44 11 0.06 0.5900430659862849 16.056459332711608 11.162717726041777 1 0 0
313 27 9 0.52 4.543647622672003 13.149051990567182 12.96199006415532 0 0 0
315 27 19 -0.35 5.285933770563686 14.30610174845955 12.92728356154075 0 0 0
317 27 1 0.22 6.726610108520192 14.411746576350946 12.477919263539897 0 0 0
320 27 11 0.06 7.486158294546876 13.804040301064944 11.978659006113409 0 0 0
321 27 11 0.06 7.528414947402883 14.81605095111234 12.855093344655145 0 0 0
35 3 11 0.06 11.077613755261853 13.01244684826546 11.88415659427509 0 0 0
681 60 9 0.52 16.143954584290242 14.841349847368193 9.584785183090169 0 0 0
522 44 1 0.22 15.511722542593041 14.140415512935986 12.429981207082047 0 0 0
527 44 11 0.06 15.119485867694518 14.18151078515948 13.045654515996693 0 0 0
528 44 11 0.06 15.224281007069084 13.88641335953922 12.384900469482972 0 0 0
682 60 20 -0.5 17.0934994280611 14.09776768770339 9.591291157455348 0 0 0
684 60 19 -0.35 16.376541351622816 16.089272038277063 9.443679692520039 0 0 0
520 44 19 -0.35 16.638345027259568 14.647020156078932 12.535957571946609 0 0 0
517 44 9 0.52 17.96454043642653 15.123780385772028 12.271294955747916 0 0 0
519 44 19 -0.35 19.270653316511826 14.6851304770592 11.568781572547682 0 0 0
525 44 11 0.06 0.787960416414118 15.901279740165172 11.431538677909112 1 0 0
434 37 20 -0.5 5.972448393498929 18.675247229259984 11.42178512389102 0 0 0
686 60 2 0.22 14.171678141557246 15.703011847962696 9.556087157591918 0 0 0
687 60 11 0.06 13.276898104900912 15.22995673930073 10.373518151220155 0 0 0
702 62 20 -0.5 14.90591453778953 17.06730901416907 12.242005064683143 0 0 0
685 60 2 0.22 15.663041413235094 16.9914914013244 9.175654360757248 0 0 0
689 60 11 0.06 16.673514222735097 17.78323227274679 9.770852829044173 0 0 0
518 44 20 -0.5 17.744778707058018 16.117296660077315 12.110070416072631 0 0 0
443 37 11 0.06 2.4901470978112314 18.369622482777405 11.507000261193019 0 0 0
440 37 11 0.06 8.537260779131683 17.63828415034158 12.981523831467392 0 0 0
708 62 11 0.06 11.342663171884322 18.511231147063423 11.722863985243018 0 0 0
703 62 19 -0.35 12.878849884517333 17.87073992863883 11.755574251638045 0 0 0
706 62 2 0.22 12.237753374118931 18.668199265932408 11.003989726329772 0 0 0
707 62 11 0.06 11.340762113477444 18.505484901037498 11.720267958578644 0 0 0
701 62 9 0.52 14.22562622104387 17.694399639755108 11.792316105231953 0 0 0
704 62 19 -0.35 14.346967043414066 18.81162048052216 11.941351181713674 0 0 0
705 62 2 0.22 13.691645702479528 19.37097810314281 10.80828395073406 0 0 0
710 62 11 0.06 14.34588517276639 19.66049080896331 9.541331841726448 0 0 0
709 62 11 0.06 15.046288125757851 19.46922325511422 14.031021463726685 0 0 0
534 45 1 0.22 12.220746686386077 1.9036410341951344 11.443396284905447 0 0 0
540 45 11 0.06 11.556622702243592 1.4902767325899038 11.996162837768106 0 0 0
538 45 11 0.06 11.990502869405336 1.4084511022994302 12.199084983576219 0 0 0
168 14 11 0.06 10.30964605704158 1.6220799639915433 15.042621709736812 0 0 0
532 45 19 -0.35 13.459753546722224 2.045622216667611 12.142925992902349 0 0 0
531 45 19 -0.35 16.725833448526178 1.0586946777496171 12.1229099884294 0 0 0
533 45 1 0.22 18.164449704756777 0.7843711154521231 13.06224053197135 0 0 0
537 45 11 0.06 18.751186146022853 0.9271781357151525 12.429212764656956 0 0 0
535 45 11 0.06 18.228768866964717 0.33021867006114614 13.885645061439954 0 0 0
420 35 11 0.06 2.200863407728318 2.4440990856824127 13.174268337374087 0 0 0
414 35 1 0.22 2.531629352713622 3.499341746124067 13.527317619011765 0 0 0
418 35 11 0.06 2.3175978761161007 4.258872642254095 14.134217321341923 0 0 0
409 35 9 0.52 5.162885781227326 2.91671515244885 13.234268083639309 0 0 0
410 35 20 -0.5 5.087681162873686 2.0016806867331645 13.984913789981311 0 0 0
413 35 1 0.22 7.661191186395155 2.0226529892006804 12.444194351233127 0 0 0
417 35 11 0.06 8.255098966671031 2.498277863970945 13.036497106296716 0 0 0
415 35 11 0.06 8.20782609489639 2.4572222441178933 13.072092874441365 0 0 0
162 14 1 0.22 10.881329230704484 2.3773882734685188 15.389023990244112 0 0 0
167 14 11 0.06 10.702144484346483 2.2945094272138453 14.756776754108424 0 0 0
160 14 19 -0.35 12.268014752925865 2.250808517432762 15.064323462783413 0 0 0
290 25 20 -0.5 9.480646597440714 5.70249991157725 14.5402165521329 0 0 0
157 14 9 0.52 13.669890869855537 2.5638743985675694 15.088691785980268 0 0 0
159 14 19 -0.35 14.945392591444628 3.522461819188318 14.44162087727358 0 0 0
296 25 11 0.06 12.944374014256073 5.6168884629271885 13.667487314422965 0 0 0
161 14 1 0.22 16.34865484801704 3.3533586331254797 14.620219608773347 0 0 0
164 14 11 0.06 16.498511764488953 3.130385309364469 14.280004933865845 0 0 0
165 14 11 0.06 16.746957363578066 2.691066950882982 15.237326921960092 0 0 0
623 54 19 -0.35 18.096788760979212 4.7794235386127575 12.352102123481883 0 0 0
621 54 9 0.52 19.117118557862337 3.857319578506797 13.009966629791933 0 0 0
622 54 20 -0.5 19.489693136586684 3.258996085291567 14.165349609236259 0 0 0
735 69 31 1 6.054341465547646 6.437154368356146 13.895132603294952 0 0 0
299 25 11 0.06 6.998100850333462 3.9897478349263427 15.34831421453165 0 0 0
628 54 11 0.06 16.45519132644775 6.085230675893865 13.386106421390316 0 0 0
627 54 11 0.06 16.575513767326893 6.2153030891751175 13.433133019156246 0 0 0
626 54 2 0.22 17.525408369927227 5.750903597645898 13.240510869238525 0 0 0
630 54 11 0.06 19.440038053519945 6.978946047101255 14.140736912765268 0 0 0
629 54 11 0.06 19.779165636486837 6.3880201513874715 14.474616175477207 0 0 0
624 54 19 -0.35 19.33829466450227 4.863673711044959 13.890624934707654 0 0 0
625 54 2 0.22 19.01514875003891 6.187053461268596 13.72787257732076 0 0 0
346 29 11 0.06 4.212498936700499 8.918252498623342 13.808220254324105 0 0 0
337 29 9 0.52 7.980446502154454 9.448064102956605 13.453158201606778 0 0 0
338 29 20 -0.5 7.925725043719159 8.766378819143172 14.152245601476052 0 0 0
343 29 11 0.06 10.914039991931858 10.013634458784903 12.258743613131752 0 0 0
608 52 11 0.06 10.714260943703406 8.360868000535897 15.177058961895884 0 0 0
455 38 11 0.06 6.624655918938838 12.697540439746083 15.074698143636535 0 0 0
30 3 1 0.22 12.177613898005259 12.724074416041185 12.014033680033384 0 0 0
36 3 11 0.06 11.09130700965634 12.984641390535447 11.891262918186921 0 0 0
447 38 19 -0.35 11.622382377333407 12.948345422632055 15.079388161542067 0 0 0
28 3 19 -0.35 13.584356018508362 11.381278084039245 12.291090600943939 0 0 0
452 38 11 0.06 13.355914781166112 13.081008649189759 15.208938795529631 0 0 0
31 3 11 0.06 18.85723084412845 12.684617167512195 13.771222858217193 0 0 0
322 27 11 0.06 1.8352183614086615 12.258715020340542 13.892997928705796 0 0 0
523 44 11 0.06 1.1504854915543377 15.395638738375759 11.937409692018571 1 0 0
316 27 19 -0.35 3.0818245733324967 12.983689923105763 12.668690313142374 0 0 0
319 27 11 0.06 7.518213890286955 13.884724151752694 12.037349986858807 0 0 0
34 3 11 0.06 11.552174629202996 13.224431935008228 11.787224061679897 0 0 0
264 22 11 0.06 11.373592228671454 15.607316781503316 13.675360716401709 0 0 0
526 44 11 0.06 14.728395366370128 14.118241773908496 12.751345278277391 0 0 0
25 3 9 0.52 15.453497464825313 11.342866527219769 13.955984301180708 0 0 0
27 3 19 -0.35 16.98930332092244 11.922957498289257 13.80667228364945 0 0 0
29 3 1 0.22 18.31225078434307 12.287283823099308 13.359740838596451 0 0 0
33 3 11 0.06 18.860146514947562 12.618441286027702 13.763253488846825 0 0 0
400 34 19 -0.35 1.8756510730687361 16.268090638101118 14.71217324798117 0 0 0
402 34 1 0.22 0.5125136724378092 16.028233784757543 14.881820400787932 0 0 0
444 37 11 0.06 3.2647275852427935 17.519484763611256 11.995169209222212 0 0 0
436 37 19 -0.35 4.389523652022862 18.715903592619647 11.739535279873781 0 0 0
397 34 9 0.52 2.9935197761748946 15.767405719838791 15.206827255988166 0 0 0
398 34 20 -0.5 3.1661873758954138 14.659221213268609 15.155296420594713 0 0 0
404 34 11 0.06 5.414307830306397 17.087371415198636 14.040775677093416 0 0 0
401 34 1 0.22 4.932603552279983 17.076778466979285 14.984246073899472 0 0 0
405 34 11 0.06 4.935360967829018 18.126422189809993 15.115132941788842 0 0 0
258 22 1 0.22 11.925690840422465 16.19429031023845 14.053317779867974 0 0 0
263 22 11 0.06 11.393284462220194 15.792863369354931 13.326925524001346 0 0 0
256 22 19 -0.35 13.183324832636655 16.099734336094393 14.496463902868427 0 0 0
253 22 9 0.52 14.327540685680711 16.60386215272449 15.145966128506096 0 0 0
254 22 20 -0.5 14.460226782531658 15.838963335154913 15.615313839333094 0 0 0
257 22 1 0.22 17.44249465072655 16.701083342411085 15.182219802942857 0 0 0
260 22 11 0.06 17.171843000482593 17.45509993930041 14.7318625908708 0 0 0
407 34 11 0.06 0.3334108163949733 17.032528534446968 14.313779676055278 0 0 0
261 22 11 0.06 17.409106715521173 17.5667676860836 14.713641634912888 0 0 0
408 34 11 0.06 0.18397807573798985 14.768460792320127 15.470669294551739 0 0 0
438 37 1 0.22 3.1264588745576227 18.3718250139773 12.318804716740182 0 0 0
442 37 11 0.06 2.6963820299310757 18.733396487263217 13.213305155312055 0 0 0
433 37 9 0.52 5.786353400741198 19.366430777983265 12.128756150723593 0 0 0
435 37 19 -0.35 7.2227670216669715 18.68506977939431 12.259602174080621 0 0 0
437 37 1 0.22 8.245282288398483 18.601824096640534 13.373363354619546 0 0 0
441 37 11 0.06 8.68228609112531 19.24034537170827 12.89954645218971 0 0 0
439 37 11 0.06 8.870156664176017 18.046355053782868 13.405213541404422 0 0 0
158 14 20 -0.5 13.832829847032771 1.8821004456093537 15.32434609226667 0 0 0
756 72 26 -0.39 15.271442662244068 0.7324170963592169 17.688002368530046 0 0 0
294 25 1 0.22 7.110257325496836 4.288686295937323 15.698750304535084 0 0 0
300 25 11 0.06 7.104911849002145 3.27129618370411 15.843327977273042 0 0 0
298 25 11 0.06 6.411380554045994 4.072531800969323 15.703544315471419 0 0 0
166 14 11 0.06 10.384370365889563 1.8723681858940304 15.586481944465083 0 0 0
289 25 9 0.52 9.751641671069725 5.127510849042425 15.002972927361425 0 0 0
291 25 19 -0.35 11.066774377153816 5.30630513295204 14.45607749294366 0 0 0
204 17 11 0.06 10.493203847353822 4.18337260811603 17.75194947153896 0 0 0
293 25 1 0.22 12.386741695852903 5.096080442279166 14.12732166385334 0 0 0
731 65 31 1 12.135525238011542 1.6881713423211273 18.024056447149732 0 0 0
295 25 11 0.06 12.406977006545153 4.767076317536139 13.438541683875377 0 0 0
163 14 11 0.06 16.741966053711817 2.5961020515347375 15.17083181037912 0 0 0
749 71 26 -0.39 19.13883200708045 3.7994523088405683 17.899218097904413 0 0 0
275 23 11 0.06 2.411793205672928 7.303303163041387 15.58201360509949 0 0 0
270 23 1 0.22 2.449771785821453 6.599338818264331 16.303197528157373 0 0 0
276 23 11 0.06 2.47806741319408 5.667925782121471 16.776875754974427 0 0 0
268 23 19 -0.35 3.9787240857524058 6.989839519534147 16.14212532345425 0 0 0
265 23 9 0.52 5.376183579112839 6.671990455747877 16.80357625622714 0 0 0
266 23 20 -0.5 5.164112269377321 7.34710479296834 17.328669733219897 0 0 0
292 25 19 -0.35 8.511988706645882 4.212816173229782 15.48469637150466 0 0 0
272 23 11 0.06 8.334106708678146 7.35414523704794 16.765017766971283 0 0 0
269 23 1 0.22 8.120511706949904 6.919657729987029 17.18819915043332 0 0 0
203 17 11 0.06 10.693979665472888 4.975618238370143 17.847091655330157 0 0 0
196 17 19 -0.35 12.559656744320117 4.656712893689901 18.11430655725086 0 0 0
297 25 11 0.06 12.538678162250743 5.708232550601267 13.680176616684554 0 0 0
602 52 20 -0.5 14.100725385668134 7.029910261401789 16.325931102950783 0 0 0
194 17 20 -0.5 14.632697473495721 3.79796223311135 17.647396775036874 0 0 0
197 17 1 0.22 16.765653743930038 5.670448430262694 16.476931876220302 0 0 0
200 17 11 0.06 17.4683786130115 5.658748123032751 16.242005042198873 0 0 0
201 17 11 0.06 17.086447089879055 6.765789621189271 16.412316190168088 0 0 0
396 33 11 0.06 2.7657275811661712 9.954990199427789 16.96037977044145 0 0 0
267 23 19 -0.35 6.829928976536021 7.175722410900996 16.695565754784802 0 0 0
273 23 11 0.06 8.570039601685657 7.430277742459812 17.055571185747485 0 0 0
603 52 19 -0.35 11.80205495847013 7.582109531113039 16.266699685974242 0 0 0
606 52 2 0.22 11.628263107220258 8.191852126608778 15.092636264275948 0 0 0
607 52 11 0.06 10.71403914761225 8.371518370588424 15.184016537665197 0 0 0
601 52 9 0.52 13.12533785793787 6.995390606286262 16.325361411923367 0 0 0
604 52 19 -0.35 13.746836020427615 8.006297257353785 15.291986398835288 0 0 0
610 52 11 0.06 13.456803200836639 9.072621232580381 14.197480482373964 0 0 0
605 52 2 0.22 12.699126713614426 8.731114643418907 14.300433194604352 0 0 0
609 52 11 0.06 13.67184523696813 8.836305865790575 13.970530993971972 0 0 0
770 74 26 -0.39 19.49370718198247 8.121893688342812 17.65753546992769 0 0 0
395 33 11 0.06 2.812768153943838 10.588014238200126 16.18313510205303 0 0 0
390 33 1 0.22 3.195038354187124 10.90845482024858 16.914885960233242 0 0 0
456 38 11 0.06 6.735960524182234 12.722949870639907 15.246666764090326 0 0 0
388 33 19 -0.35 4.332073198674277 10.187358504889149 16.848547768479218 0 0 0
385 33 9 0.52 5.811887706435454 10.162415098928381 16.52171234022408 0 0 0
454 38 11 0.06 7.057209676535496 12.992938616244754 15.189799400243814 0 0 0
392 33 11 0.06 8.82287998099471 10.386446079697809 16.59418367563335 0 0 0
450 38 1 0.22 7.1872424934968135 12.175528519086566 14.480008318718284 0 0 0
448 38 19 -0.35 8.802929953282467 12.666546149245729 14.513501968250463 0 0 0
387 33 19 -0.35 7.461151363018992 10.222868649371502 16.737140471015657 0 0 0
389 33 1 0.22 8.506076199090268 11.073782478935517 17.038590441410417 0 0 0
393 33 11 0.06 8.876529422362676 11.890133082252326 17.409690016964614 0 0 0
445 38 9 0.52 10.317526619259437 12.330212785932599 14.81786512221078 0 0 0
23 2 11 0.06 11.80086527901107 10.575516869215708 16.904733539290927 0 0 0
24 2 11 0.06 11.79283088561463 10.50436258251599 16.996787247072902 0 0 0
18 2 1 0.22 12.74606714977685 10.40072355919596 16.791960959609387 0 0 0
22 2 11 0.06 11.792248158185982 10.503121646475396 16.99866718666636 0 0 0
449 38 1 0.22 12.962797876097179 12.714425277322473 14.903728472508815 0 0 0
13 2 9 0.52 14.999796912832348 10.871803643044563 17.165188102103585 0 0 0
16 2 19 -0.35 13.930447722894892 10.931019600994434 17.21955073490435 0 0 0
451 38 11 0.06 13.173736243064129 13.172339907025155 15.14305931980171 0 0 0
14 2 20 -0.5 15.353143778037266 11.853415957770896 17.085993969208452 0 0 0
15 2 19 -0.35 16.674471053685792 11.106951868117745 17.19008567005985 0 0 0
17 2 1 0.22 18.188204070633773 11.1407223879375 16.43898053840906 0 0 0
20 2 11 0.06 18.26178294839381 10.251247591057322 15.940880116769199 0 0 0
19 2 11 0.06 18.819635041903357 11.937434476827004 16.68384532518607 0 0 0
21 2 11 0.06 18.300718350334904 12.235980507405497 16.684809656849733 0 0 0
446 38 20 -0.5 10.009463137430894 13.136089912425922 14.683981972234324 0 0 0
742 70 26 -0.39 12.454211211321423 13.807456963392779 18.643335879299972 0 0 0
458 39 20 -0.5 10.56558107803799 15.339920603990407 16.634728402435666 0 0 0
453 38 11 0.06 13.3589509224142 13.079702382035684 15.210193321547367 0 0 0
104 9 11 0.06 1.4923382323431396 16.592773523566194 17.668352250815182 1 0 0
105 9 11 0.06 1.5943599683386107 17.415295935793708 17.60180841813174 1 0 0
399 34 19 -0.35 3.703049562776906 16.876251013430963 15.462514875396051 0 0 0
403 34 11 0.06 5.267314094280705 17.8167744600909 14.643000563842632 0 0 0
468 39 11 0.06 7.861570076679777 16.165123484593295 15.512771601813638 0 0 0
467 39 11 0.06 7.776637767939247 16.637064524784776 15.828524419275483 0 0 0
462 39 1 0.22 8.05687883921185 16.94584887537699 16.302296446691006 0 0 0
460 39 19 -0.35 9.174690047370078 16.113284561410108 16.484531789009093 0 0 0
262 22 11 0.06 11.490956874747457 16.827176962506506 14.20078522773335 0 0 0
457 39 9 0.52 10.178989909308582 15.7022900739835 17.358182574286968 0 0 0
459 39 19 -0.35 11.638360657748805 16.27096933023948 17.143732674231433 0 0 0
464 39 11 0.06 12.918924365498142 16.705966423151224 18.039017173618667 0 0 0
107 9 11 0.06 15.679482482423428 17.763746587673836 17.55661045825859 0 0 0
108 9 11 0.06 16.28843145936117 15.473094983841829 17.964481872775583 0 0 0
461 39 1 0.22 12.734952837383153 17.096949788407596 17.721816147440084 0 0 0
102 9 1 0.22 16.056774572822363 16.67591362785355 18.01321491155141 0 0 0
465 39 11 0.06 12.871014161204656 17.275267454367423 18.490636698968547 0 0 0
255 22 19 -0.35 15.993227311183624 16.33555881788944 14.93935899037948 0 0 0
100 9 19 -0.35 17.13730620975822 17.483184735562773 18.06085250953387 0 0 0
259 22 11 0.06 17.421598539328887 15.88674212080575 15.150979788638447 0 0 0
406 34 11 0.06 0.38332117563632634 17.206739944528668 14.865397418060445 0 0 0
101 9 1 0.22 0.7690308255013134 16.515549272244783 17.84692131164958 1 0 0
97 9 9 0.52 18.61420341140169 17.367396128880415 17.916487890742776 0 0 0
99 9 19 -0.35 19.34919821117038 16.16375986624374 18.004316910930314 0 0 0
763 73 26 -0.39 9.55003646283141 19.421793378471904 17.09696502082434 0 0 0
732 66 31 1 12.301335566197427 19.342584678089942 15.786735205258296 0 0 0
760 73 26 -0.39 9.135389322394055 0.9713024315712645 18.770329185124695 0 1 0
752 72 26 -0.39 14.238908414236008 19.8649125568224 19.136622102603482 0 -1 0
750 72 27 1.34 15.677930529975727 0.4478012128743967 18.88968468781422 0 0 0
751 72 26 -0.39 16.947856690411772 0.9280917639793936 18.715346919079522 0 0 0
642 56 20 -0.5 7.362064152800677 4.206548184350792 18.682014051344915 0 0 -1
179 15 11 0.06 10.774976107272229 2.85758529943718 0.42764641183589225 0 0 0
195 17 19 -0.35 15.427282402220138 4.499022030434214 17.234571110630803 0 0 0
753 72 26 -0.39 16.296651564081582 1.312663620708677 17.863132094761273 0 0 0
745 71 26 -0.39 17.721886808279113 4.7134602648958355 19.15179657981688 0 0 0
747 71 26 -0.39 18.174852549605262 3.6389724896092535 18.34361185442232 0 0 0
743 71 27 1.34 18.858080876869288 4.604621984851953 19.213642386905754 0 0 0
744 71 26 -0.39 0.23883141413813067 5.034101331581424 18.917974927455205 1 0 0
643 56 19 -0.35 4.408569424357202 4.865332651025999 18.990919152571582 0 0 -1
274 23 11 0.06 2.2010532208542783 6.982687082452294 17.05486539499085 0 0 0
648 56 11 0.06 3.5505175107284277 6.400877174572851 19.670033036111374 0 0 -1
271 23 11 0.06 8.35709223494972 6.713354362114995 17.130360156244038 0 0 0
650 56 11 0.06 6.351291887674792 6.223622613518521 0.8384574674490869 0 0 0
711 63 9 0.52 9.213820713614888 7.142931367971894 19.970622522443726 0 0 0
202 17 11 0.06 10.527590041217843 4.566465218298424 17.95935178019598 0 0 0
198 17 1 0.22 11.440494275397922 4.540712628228073 17.410655175021404 0 0 0
712 63 20 -0.5 10.42836450300736 6.735694185161944 0.26082959164265795 0 0 1
193 17 9 0.52 13.724903752913322 4.308849781168275 17.52558706334033 0 0 0
199 17 11 0.06 17.131566873269705 6.4828696429766 16.80255641340465 0 0 0
746 71 26 -0.39 18.26499528992927 5.88466713430214 19.685347259313925 0 0 0
765 74 26 -0.39 0.7095258996139695 9.188484119431587 19.00523526152045 1 0 0
718 63 11 0.06 6.841284997626349 8.8928091593993 19.351592732658872 0 0 0
386 33 20 -0.5 5.905272662111802 9.956591353371214 16.054462642478242 0 0 0
717 63 11 0.06 6.831691300251324 8.842688263081364 19.324032513650305 0 0 0
713 63 19 -0.35 7.302098102373637 8.706060775911448 19.45370834764638 0 0 0
714 63 19 -0.35 9.68169273806179 8.09352836686273 19.883172756918086 0 0 0
716 63 2 0.22 7.818675441245532 9.50359407036066 19.702127684295537 0 0 0
715 63 2 0.22 9.155475390877811 9.29840720534078 19.369698544386797 0 0 0
720 63 11 0.06 9.987280899414701 10.034591083948683 19.48802956277204 0 0 0
719 63 11 0.06 9.986426308295572 10.035177038266443 19.489425089166545 0 0 0
598 51 11 0.06 12.549549749473009 8.521226125204347 19.116192733953834 0 0 0
591 51 9 0.52 14.730542291453547 6.491964864043759 19.35768331101538 0 0 0
592 51 20 -0.5 15.04503581877244 5.852619603379064 19.8806136043069 0 0 0
596 51 2 0.22 13.739224591397296 8.475314961243313 18.924662056050767 0 0 0
593 51 19 -0.35 12.761644598636119 8.205865679799203 19.03589176173866 0 0 0
594 51 19 -0.35 15.540583929338334 7.6840659263612485 19.042542167792288 0 0 0
595 51 2 0.22 15.049414362335236 8.795951772050376 19.344011015651677 0 0 0
600 51 11 0.06 16.048513685668436 9.182603917405446 19.408834602301813 0 0 0
766 74 26 -0.39 18.767276151876036 8.515446866643774 18.335471448900474 0 0 0
768 74 26 -0.39 19.62201170311291 8.064029834668572 18.13683576448257 0 0 0
764 74 27 1.34 19.750328336623078 9.411040094387033 18.405512043127374 0 0 0
394 33 11 0.06 2.969234418996018 10.712618396443801 17.756590152813942 0 0 0
662 58 20 -0.5 6.268223493635021 11.936026298622643 18.889513001012567 0 0 0
391 33 11 0.06 8.876745291057293 11.88973306914394 17.409693235265394 0 0 0
740 70 26 -0.39 13.441394461107373 13.473349056165464 18.73217341187946 0 0 0
767 74 26 -0.39 19.29999694507518 10.630208789226044 19.340269136023274 0 0 0
668 58 11 0.06 3.930069336417757 14.895972483964457 18.0447897984715 0 0 0
667 58 11 0.06 3.9092364137315543 14.961629943867141 18.495274237252225 0 0 0
663 58 19 -0.35 4.334979944848156 13.334197643140515 18.26138824036465 0 0 0
666 58 2 0.22 4.813874189207424 14.486393582097291 18.27472939940591 0 0 0
670 58 11 0.06 6.988869497155269 14.702121544712337 17.981890841365882 0 0 0
661 58 9 0.52 5.31324627188817 12.32128798707074 18.713575229876025 0 0 0
664 58 19 -0.35 6.355431779722509 13.183834695917449 18.38798464141119 0 0 0
669 58 11 0.06 6.992682863891458 14.699676809801305 17.979871286137204 0 0 0
665 58 2 0.22 6.038718078625776 14.597705971508429 17.530303716780313 0 0 0
738 70 26 -0.39 11.393218200205503 13.029775731531394 18.57700990894711 0 0 0
736 70 27 1.34 12.389657979271204 13.372256011812565 18.031020852958022 0 0 0
737 70 26 -0.39 13.561500033366972 13.811249165444476 18.478782460723068 0 0 0
103 9 11 0.06 0.9797369454670212 15.556053302195343 18.253020347015273 1 0 0
466 39 11 0.06 7.323942174330272 17.434281912381543 16.79228647357849 0 0 0
761 73 26 -0.39 9.999596597161494 18.70386343576159 17.76257474145622 0 0 0
739 70 26 -0.39 11.363693970940323 13.147922166095281 18.517116114290054 0 0 0
463 39 11 0.06 12.839605468047305 16.756171445270052 18.25259485796177 0 0 0
106 9 11 0.06 15.838945569454937 16.87504407448272 18.942846757055328 0 0 0
98 9 20 -0.5 18.50926571666572 18.381175711693615 18.467680588762764 0 0 0
759 73 26 -0.39 7.979796128834778 19.74234278637237 18.591821381455333 0 0 0
757 73 27 1.34 9.469159822235003 19.689201748823063 18.454634089480663 0 0 0
758 73 26 -0.39 10.720301340415094 19.273590858513604 19.10174234613011 0 0 0
754 72 26 -0.39 15.077123659256753 19.62075411933635 19.87846471646198 0 -1 0

Velocities

180 0 0 0
170 0 0 0
755 0 0 0
143 0 0 0
144 0 0 0
138 0 0 0
641 0 0 0
136 0 0 0
133 0 0 0
134 0 0 0
140 0 0 0
137 0 0 0
141 0 0 0
178 0 0 0
174 0 0 0
172 0 0 0
169 0 0 0
171 0 0 0
173 0 0 0
175 0 0 0
177 0 0 0
176 0 0 0
647 0 0 0
646 0 0 0
644 0 0 0
645 0 0 0
649 0 0 0
748 0 0 0
332 0 0 0
678 0 0 0
674 0 0 0
680 0 0 0
597 0 0 0
723 0 0 0
721 0 0 0
722 0 0 0
599 0 0 0
769 0 0 0
326 0 0 0
728 0 0 0
727 0 0 0
726 0 0 0
724 0 0 0
725 0 0 0
730 0 0 0
733 0 0 0
729 0 0 0
240 0 0 0
230 0 0 0
83 0 0 0
84 0 0 0
78 0 0 0
76 0 0 0
741 0 0 0
75 0 0 0
80 0 0 0
239 0 0 0
238 0 0 0
234 0 0 0
232 0 0 0
229 0 0 0
231 0 0 0
233 0 0 0
236 0 0 0
237 0 0 0
235 0 0 0
73 0 0 0
77 0 0 0
81 0 0 0
762 0 0 0
60 0 0 0
515 0 0 0
510 0 0 0
516 0 0 0
508 0 0 0
505 0 0 0
506 0 0 0
507 0 0 0
509 0 0 0
512 0 0 0
511 0 0 0
129 0 0 0
59 0 0 0
54 0 0 0
142 0 0 0
52 0 0 0
49 0 0 0
50 0 0 0
51 0 0 0
53 0 0 0
57 0 0 0
56 0 0 0
135 0 0 0
139 0 0 0
513 0 0 0
120 0 0 0
118 0 0 0
116 0 0 0
113 0 0 0
115 0 0 0
117 0 0 0
491 0 0 0
216 0 0 0
371 0 0 0
364 0 0 0
119 0 0 0
209 0 0 0
212 0 0 0
488 0 0 0
114 0 0 0
112 0 0 0
368 0 0 0
109 0 0 0
110 0 0 0
111 0 0 0
333 0 0 0
673 0 0 0
331 0 0 0
677 0 0 0
671 0 0 0
672 0 0 0
44 0 0 0
679 0 0 0
210 0 0 0
215 0 0 0
208 0 0 0
214 0 0 0
205 0 0 0
206 0 0 0
207 0 0 0
213 0 0 0
330 0 0 0
335 0 0 0
336 0 0 0
211 0 0 0
334 0 0 0
328 0 0 0
325 0 0 0
47 0 0 0
329 0 0 0
327 0 0 0
48 0 0 0
40 0 0 0
68 0 0 0
69 0 0 0
676 0 0 0
675 0 0 0
45 0 0 0
573 0 0 0
248 0 0 0
571 0 0 0
572 0 0 0
479 0 0 0
384 0 0 0
476 0 0 0
71 0 0 0
61 0 0 0
62 0 0 0
251 0 0 0
578 0 0 0
577 0 0 0
576 0 0 0
580 0 0 0
574 0 0 0
575 0 0 0
579 0 0 0
82 0 0 0
651 0 0 0
653 0 0 0
654 0 0 0
74 0 0 0
652 0 0 0
79 0 0 0
378 0 0 0
383 0 0 0
376 0 0 0
375 0 0 0
380 0 0 0
658 0 0 0
186 0 0 0
191 0 0 0
192 0 0 0
184 0 0 0
656 0 0 0
190 0 0 0
655 0 0 0
181 0 0 0
182 0 0 0
660 0 0 0
183 0 0 0
185 0 0 0
188 0 0 0
187 0 0 0
132 0 0 0
130 0 0 0
131 0 0 0
126 0 0 0
124 0 0 0
189 0 0 0
121 0 0 0
123 0 0 0
125 0 0 0
128 0 0 0
514 0 0 0
556 0 0 0
555 0 0 0
288 0 0 0
280 0 0 0
58 0 0 0
693 0 0 0
691 0 0 0
694 0 0 0
692 0 0 0
55 0 0 0
372 0 0 0
287 0 0 0
361 0 0 0
286 0 0 0
282 0 0 0
277 0 0 0
278 0 0 0
279 0 0 0
284 0 0 0
281 0 0 0
283 0 0 0
285 0 0 0
698 0 0 0
696 0 0 0
695 0 0 0
492 0 0 0
700 0 0 0
490 0 0 0
734 0 0 0
486 0 0 0
484 0 0 0
366 0 0 0
370 0 0 0
481 0 0 0
482 0 0 0
483 0 0 0
362 0 0 0
363 0 0 0
485 0 0 0
487 0 0 0
489 0 0 0
365 0 0 0
369 0 0 0
367 0 0 0
37 0 0 0
38 0 0 0
39 0 0 0
359 0 0 0
41 0 0 0
43 0 0 0
356 0 0 0
42 0 0 0
46 0 0 0
63 0 0 0
65 0 0 0
67 0 0 0
246 0 0 0
241 0 0 0
242 0 0 0
245 0 0 0
247 0 0 0
478 0 0 0
474 0 0 0
480 0 0 0
612 0 0 0
472 0 0 0
469 0 0 0
471 0 0 0
473 0 0 0
475 0 0 0
477 0 0 0
72 0 0 0
66 0 0 0
70 0 0 0
64 0 0 0
250 0 0 0
252 0 0 0
381 0 0 0
244 0 0 0
243 0 0 0
657 0 0 0
611 0 0 0
616 0 0 0
618 0 0 0
249 0 0 0
613 0 0 0
614 0 0 0
615 0 0 0
620 0 0 0
470 0 0 0
631 0 0 0
636 0 0 0
638 0 0 0
382 0 0 0
634 0 0 0
373 0 0 0
374 0 0 0
635 0 0 0
640 0 0 0
377 0 0 0
379 0 0 0
659 0 0 0
95 0 0 0
88 0 0 0
558 0 0 0
551 0 0 0
553 0 0 0
557 0 0 0
87 0 0 0
560 0 0 0
552 0 0 0
92 0 0 0
554 0 0 0
559 0 0 0
122 0 0 0
127 0 0 0
302 0 0 0
308 0 0 0
311 0 0 0
697 0 0 0
360 0 0 0
350 0 0 0
699 0 0 0
548 0 0 0
550 0 0 0
354 0 0 0
358 0 0 0
352 0 0 0
349 0 0 0
351 0 0 0
353 0 0 0
355 0 0 0
357 0 0 0
155 0 0 0
563 0 0 0
11 0 0 0
1 0 0 0
3 0 0 0
8 0 0 0
583 0 0 0
581 0 0 0
584 0 0 0
582 0 0 0
146 0 0 0
152 0 0 0
632 0 0 0
9 0 0 0
588 0 0 0
586 0 0 0
585 0 0 0
587 0 0 0
590 0 0 0
617 0 0 0
589 0 0 0
619 0 0 0
633 0 0 0
637 0 0 0
683 0 0 0
639 0 0 0
96 0 0 0
504 0 0 0
503 0 0 0
496 0 0 0
498 0 0 0
502 0 0 0
493 0 0 0
494 0 0 0
495 0 0 0
497 0 0 0
500 0 0 0
499 0 0 0
688 0 0 0
690 0 0 0
90 0 0 0
94 0 0 0
85 0 0 0
86 0 0 0
501 0 0 0
89 0 0 0
91 0 0 0
93 0 0 0
539 0 0 0
529 0 0 0
530 0 0 0
312 0 0 0
536 0 0 0
304 0 0 0
301 0 0 0
419 0 0 0
228 0 0 0
303 0 0 0
305 0 0 0
412 0 0 0
309 0 0 0
307 0 0 0
411 0 0 0
416 0 0 0
541 0 0 0
543 0 0 0
542 0 0 0
306 0 0 0
310 0 0 0
227 0 0 0
222 0 0 0
226 0 0 0
220 0 0 0
217 0 0 0
218 0 0 0
219 0 0 0
221 0 0 0
225 0 0 0
224 0 0 0
223 0 0 0
561 0 0 0
562 0 0 0
564 0 0 0
547 0 0 0
544 0 0 0
546 0 0 0
545 0 0 0
549 0 0 0
428 0 0 0
427 0 0 0
423 0 0 0
348 0 0 0
347 0 0 0
568 0 0 0
156 0 0 0
566 0 0 0
567 0 0 0
342 0 0 0
340 0 0 0
570 0 0 0
148 0 0 0
147 0 0 0
565 0 0 0
569 0 0 0
341 0 0 0
344 0 0 0
12 0 0 0
6 0 0 0
4 0 0 0
10 0 0 0
2 0 0 0
432 0 0 0
424 0 0 0
5 0 0 0
7 0 0 0
422 0 0 0
425 0 0 0
429 0 0 0
324 0 0 0
314 0 0 0
150 0 0 0
154 0 0 0
145 0 0 0
339 0 0 0
149 0 0 0
153 0 0 0
151 0 0 0
345 0 0 0
431 0 0 0
426 0 0 0
430 0 0 0
26 0 0 0
421 0 0 0
32 0 0 0
318 0 0 0
323 0 0 0
521 0 0 0
524 0 0 0
313 0 0 0
315 0 0 0
317 0 0 0
320 0 0 0
321 0 0 0
35 0 0 0
681 0 0 0
522 0 0 0
527 0 0 0
528 0 0 0
682 0 0 0
684 0 0 0
520 0 0 0
517 0 0 0
519 0 0 0
525 0 0 0
434 0 0 0
686 0 0 0
687 0 0 0
702 0 0 0
685 0 0 0
689 0 0 0
518 0 0 0
443 0 0 0
440 0 0 0
708 0 0 0
703 0 0 0
706 0 0 0
707 0 0 0
701 0 0 0
704 0 0 0
705 0 0 0
710 0 0 0
709 0 0 0
534 0 0 0
540 0 0 0
538 0 0 0
168 0 0 0
532 0 0 0
531 0 0 0
533 0 0 0
537 0 0 0
535 0 0 0
420 0 0 0
414 0 0 0
418 0 0 0
409 0 0 0
410 0 0 0
413 0 0 0
417 0 0 0
415 0 0 0
162 0 0 0
167 0 0 0
160 0 0 0
290 0 0 0
157 0 0 0
159 0 0 0
296 0 0 0
161 0 0 0
164 0 0 0
165 0 0 0
623 0 0 0
621 0 0 0
622 0 0 0
735 0 0 0
299 0 0 0
628 0 0 0
627 0 0 0
626 0 0 0
630 0 0 0
629 0 0 0
624 0 0 0
625 0 0 0
346 0 0 0
337 0 0 0
338 0 0 0
343 0 0 0
608 0 0 0
455 0 0 0
30 0 0 0
36 0 0 0
447 0 0 0
28 0 0 0
452 0 0 0
31 0 0 0
322 0 0 0
523 0 0 0
316 0 0 0
319 0 0 0
34 0 0 0
264 0 0 0
526 0 0 0
25 0 0 0
27 0 0 0
29 0 0 0
33 0 0 0
400 0 0 0
402 0 0 0
444 0 0 0
436 0 0 0
397 0 0 0
398 0 0 0
404 0 0 0
401 0 0 0
405 0 0 0
258 0 0 0
263 0 0 0
256 0 0 0
253 0 0 0
254 0 0 0
257 0 0 0
260 0 0 0
407 0 0 0
261 0 0 0
408 0 0 0
438 0 0 0
442 0 0 0
433 0 0 0
435 0 0 0
437 0 0 0
441 0 0 0
439 0 0 0
158 0 0 0
756 0 0 0
294 0 0 0
300 0 0 0
298 0 0 0
166 0 0 0
289 0 0 0
291 0 0 0
204 0 0 0
293 0 0 0
731 0 0 0
295 0 0 0
163 0 0 0
749 0 0 0
275 0 0 0
270 0 0 0
276 0 0 0
268 0 0 0
265 0 0 0
266 0 0 0
292 0 0 0
272 0 0 0
269 0 0 0
203 0 0 0
196 0 0 0
297 0 0 0
602 0 0 0
194 0 0 0
197 0 0 0
200 0 0 0
201 0 0 0
396 0 0 0
267 0 0 0
273 0 0 0
603 0 0 0
606 0 0 0
607 0 0 0
601 0 0 0
604 0 0 0
610 0 0 0
605 0 0 0
609 0 0 0
770 0 0 0
395 0 0 0
390 0 0 0
456 0 0 0
388 0 0 0
385 0 0 0
454 0 0 0
392 0 0 0
450 0 0 0
448 0 0 0
387 0 0 0
389 0 0 0
393 0 0 0
445 0 0 0
23 0 0 0
24 0 0 0
18 0 0 0
22 0 0 0
449 0 0 0
13 0 0 0
16 0 0 0
451 0 0 0
14 0 0 0
15 0 0 0
17 0 0 0
20 0 0 0
19 0 0 0
21 0 0 0
446 0 0 0
742 0 0 0
458 0 0 0
453 0 0 0
104 0 0 0
105 0 0 0
399 0 0 0
403 0 0 0
468 0 0 0
467 0 0 0
462 0 0 0
460 0 0 0
262 0 0 0
457 0 0 0
459 0 0 0
464 0 0 0
107 0 0 0
108 0 0 0
461 0 0 0
102 0 0 0
465 0 0 0
255 0 0 0
100 0 0 0
259 0 0 0
406 0 0 0
101 0 0 0
97 0 0 0
99 0 0 0
763 0 0 0
732 0 0 0
760 0 0 0
752 0 0 0
750 0 0 0
751 0 0 0
642 0 0 0
179 0 0 0
195 0 0 0
753 0 0 0
745 0 0 0
747 0 0 0
743 0 0 0
744 0 0 0
643 0 0 0
274 0 0 0
648 0 0 0
271 0 0 0
650 0 0 0
711 0 0 0
202 0 0 0
198 0 0 0
712 0 0 0
193 0 0 0
199 0 0 0
746 0 0 0
765 0 0 0
718 0 0 0
386 0 0 0
717 0 0 0
713 0 0 0
714 0 0 0
716 0 0 0
715 0 0 0
720 0 0 0
719 0 0 0
598 0 0 0
591 0 0 0
592 0 0 0
596 0 0 0
593 0 0 0
594 0 0 0
595 0 0 0
600 0 0 0
766 0 0 0
768 0 0 0
764 0 0 0
394 0 0 0
662 0 0 0
391 0 0 0
740 0 0 0
767 0 0 0
668 0 0 0
667 0 0 0
663 0 0 0
666 0 0 0
670 0 0 0
661 0 0 0
664 0 0 0
669 0 0 0
665 0 0 0
738 0 0 0
736 0 0 0
737 0 0 0
103 0 0 0
466 0 0 0
761 0 0 0
739 0 0 0
463 0 0 0
106 0 0 0
98 0 0 0
759 0 0 0
757 0 0 0
758 0 0 0
754 0 0 0

Bonds

1 4 138 142
2 4 138 143
3 4 138 144
4 8 641 642
5 7 641 643
6 7 641 644
7 7 136 138
8 8 133 134
9 7 133 135
10 7 133 136
11 4 137 139
12 4 137 140
13 4 137 141
14 4 174 178
15 4 174 179
16 4 174 180
17 7 172 174
18 8 169 170
19 7 169 171
20 7 169 172
21 7 171 173
22 4 173 175
23 4 173 176
24 4 173 177
25 4 646 647
26 4 646 648
27 7 644 645
28 1 645 646
29 4 645 649
30 4 645 650
31 7 674 675
32 7 723 726
33 8 721 722
34 7 721 723
35 7 721 724
36 4 726 727
37 4 726 728
38 7 724 725
39 1 725 726
40 4 725 729
41 4 725 730
42 4 78 82
43 4 78 83
44 4 78 84
45 7 76 78
46 7 75 77
47 4 234 238
48 4 234 239
49 4 234 240
50 7 232 234
51 8 229 230
52 7 229 231
53 7 229 232
54 7 231 233
55 4 233 235
56 4 233 236
57 4 233 237
58 8 73 74
59 7 73 75
60 7 73 76
61 4 77 79
62 4 77 80
63 4 77 81
64 4 510 514
65 4 510 515
66 4 510 516
67 7 508 510
68 8 505 506
69 7 505 507
70 7 505 508
71 7 507 509
72 4 509 511
73 4 509 512
74 4 509 513
75 4 54 58
76 4 54 59
77 4 54 60
78 7 52 54
79 8 49 50
80 7 49 51
81 7 49 52
82 7 51 53
83 4 53 55
84 4 53 56
85 4 53 57
86 7 135 137
87 4 113 115
88 4 113 116
89 4 113 117
90 7 364 366
91 4 209 211
92 4 209 212
93 4 209 213
94 4 114 118
95 4 114 119
96 4 114 120
97 7 112 114
98 8 109 110
99 7 109 111
100 7 109 112
101 7 111 113
102 7 673 676
103 8 671 672
104 7 671 673
105 7 671 674
106 4 210 214
107 4 210 215
108 4 210 216
109 7 208 210
110 8 205 206
111 7 205 207
112 7 205 208
113 7 207 209
114 4 330 334
115 4 330 335
116 4 330 336
117 7 328 330
118 8 325 326
119 7 325 327
120 7 325 328
121 4 329 331
122 4 329 332
123 4 329 333
124 7 327 329
125 7 40 42
126 4 676 677
127 4 676 678
128 1 675 676
129 4 675 679
130 4 675 680
131 7 573 576
132 8 571 572
133 7 571 573
134 7 571 574
135 8 61 62
136 7 61 63
137 7 61 64
138 4 576 577
139 4 576 578
140 7 574 575
141 1 575 576
142 4 575 579
143 4 575 580
144 8 651 652
145 7 651 653
146 7 651 654
147 7 653 656
148 7 654 655
149 4 378 382
150 4 378 383
151 4 378 384
152 7 376 378
153 7 375 377
154 4 186 190
155 4 186 191
156 4 186 192
157 7 184 186
158 4 656 657
159 4 656 658
160 1 655 656
161 4 655 659
162 4 655 660
163 8 181 182
164 7 181 183
165 7 181 184
166 7 183 185
167 4 185 187
168 4 185 188
169 4 185 189
170 4 126 130
171 4 126 131
172 4 126 132
173 7 124 126
174 8 121 122
175 7 121 123
176 7 121 124
177 7 123 125
178 4 125 127
179 4 125 128
180 4 125 129
181 4 556 557
182 4 556 558
183 1 555 556
184 4 555 559
185 4 555 560
186 7 280 282
187 7 693 696
188 8 691 692
189 7 691 693
190 7 691 694
191 7 694 695
192 8 361 362
193 7 361 363
194 7 361 364
195 4 282 286
196 4 282 287
197 4 282 288
198 8 277 278
199 7 277 279
200 7 277 280
201 7 279 281
202 4 281 283
203 4 281 284
204 4 281 285
205 4 696 697
206 4 696 698
207 1 695 696
208 4 695 699
209 4 695 700
210 4 486 490
211 4 486 491
212 4 486 492
213 7 484 486
214 4 366 370
215 4 366 371
216 4 366 372
217 8 481 482
218 7 481 483
219 7 481 484
220 7 483 485
221 7 363 365
222 4 485 487
223 4 485 488
224 4 485 489
225 4 365 367
226 4 365 368
227 4 365 369
228 8 37 38
229 7 37 39
230 7 37 40
231 7 39 41
232 4 41 43
233 4 41 44
234 4 41 45
235 4 42 46
236 4 42 47
237 4 42 48
238 7 63 65
239 4 65 67
240 4 65 68
241 4 65 69
242 4 246 250
243 4 246 251
244 4 246 252
245 8 241 242
246 7 241 243
247 7 241 244
248 4 245 247
249 4 245 248
250 4 245 249
251 4 474 478
252 4 474 479
253 4 474 480
254 7 472 474
255 8 469 470
256 7 469 471
257 7 469 472
258 7 471 473
259 4 473 475
260 4 473 476
261 4 473 477
262 4 66 70
263 4 66 71
264 4 66 72
265 7 64 66
266 7 244 246
267 7 243 245
268 8 611 612
269 7 611 613
270 7 611 614
271 4 616 617
272 4 616 618
273 7 613 616
274 7 614 615
275 1 615 616
276 4 615 619
277 4 615 620
278 8 631 632
279 7 631 633
280 7 631 634
281 4 636 637
282 4 636 638
283 7 634 635
284 8 373 374
285 7 373 375
286 7 373 376
287 1 635 636
288 4 635 639
289 4 635 640
290 4 377 379
291 4 377 380
292 4 377 381
293 7 88 90
294 8 551 552
295 7 551 553
296 7 551 554
297 7 553 556
298 7 87 89
299 7 554 555
300 4 354 358
301 4 354 359
302 4 354 360
303 7 352 354
304 8 349 350
305 7 349 351
306 7 349 352
307 7 351 353
308 4 353 355
309 4 353 356
310 4 353 357
311 7 563 566
312 8 1 2
313 7 1 3
314 7 1 4
315 7 3 5
316 7 583 586
317 8 581 582
318 7 581 583
319 7 581 584
320 7 584 585
321 4 586 587
322 4 586 588
323 1 585 586
324 4 585 589
325 4 585 590
326 7 633 636
327 7 683 686
328 7 496 498
329 4 498 502
330 4 498 503
331 4 498 504
332 8 493 494
333 7 493 495
334 7 493 496
335 7 495 497
336 4 497 499
337 4 497 500
338 4 497 501
339 4 90 94
340 4 90 95
341 4 90 96
342 8 85 86
343 7 85 87
344 7 85 88
345 4 89 91
346 4 89 92
347 4 89 93
348 8 529 530
349 7 529 531
350 7 529 532
351 7 304 306
352 8 301 302
353 7 301 303
354 7 301 304
355 7 303 305
356 4 305 307
357 4 305 308
358 4 305 309
359 7 412 414
360 7 411 413
361 8 541 542
362 7 541 543
363 7 541 544
364 7 543 546
365 4 306 310
366 4 306 311
367 4 306 312
368 4 222 226
369 4 222 227
370 4 222 228
371 7 220 222
372 8 217 218
373 7 217 219
374 7 217 220
375 7 219 221
376 4 221 223
377 4 221 224
378 4 221 225
379 8 561 562
380 7 561 563
381 7 561 564
382 7 564 565
383 7 544 545
384 4 546 547
385 4 546 548
386 1 545 546
387 4 545 549
388 4 545 550
389 7 423 425
390 4 566 567
391 4 566 568
392 4 342 346
393 4 342 347
394 4 342 348
395 7 340 342
396 7 148 150
397 7 147 149
398 1 565 566
399 4 565 569
400 4 565 570
401 4 341 343
402 4 341 344
403 4 341 345
404 4 6 10
405 4 6 11
406 4 6 12
407 7 4 6
408 7 424 426
409 4 5 7
410 4 5 8
411 4 5 9
412 4 425 427
413 4 425 428
414 4 425 429
415 4 150 154
416 4 150 155
417 4 150 156
418 8 145 146
419 7 145 147
420 7 145 148
421 7 339 341
422 4 149 151
423 4 149 152
424 4 149 153
425 4 426 430
426 4 426 431
427 4 426 432
428 8 421 422
429 7 421 423
430 7 421 424
431 4 318 322
432 4 318 323
433 4 318 324
434 4 521 523
435 4 521 524
436 4 521 525
437 8 313 314
438 7 313 315
439 7 313 316
440 7 315 317
441 4 317 319
442 4 317 320
443 4 317 321
444 8 681 682
445 7 681 683
446 7 681 684
447 4 522 526
448 4 522 527
449 4 522 528
450 7 684 685
451 7 520 522
452 8 517 518
453 7 517 519
454 7 517 520
455 7 519 521
456 4 686 687
457 4 686 688
458 1 685 686
459 4 685 689
460 4 685 690
461 7 703 706
462 4 706 707
463 4 706 708
464 8 701 702
465 7 701 703
466 7 701 704
467 7 704 705
468 1 705 706
469 4 705 709
470 4 705 710
471 4 534 538
472 4 534 539
473 4 534 540
474 7 532 534
475 7 531 533
476 4 533 535
477 4 533 536
478 4 533 537
479 4 414 418
480 4 414 419
481 4 414 420
482 8 409 410
483 7 409 411
484 7 409 412
485 4 413 415
486 4 413 416
487 4 413 417
488 4 162 166
489 4 162 167
490 4 162 168
491 7 160 162
492 8 157 158
493 7 157 159
494 7 157 160
495 7 159 161
496 4 161 163
497 4 161 164
498 4 161 165
499 7 623 626
500 8 621 622
501 7 621 623
502 7 621 624
503 4 626 627
504 4 626 628
505 7 624 625
506 1 625 626
507 4 625 629
508 4 625 630
509 8 337 338
510 7 337 339
511 7 337 340
512 4 30 34
513 4 30 35
514 4 30 36
515 7 447 449
516 7 28 30
517 7 316 318
518 8 25 26
519 7 25 27
520 7 25 28
521 7 27 29
522 4 29 31
523 4 29 32
524 4 29 33
525 7 400 402
526 4 402 406
527 4 402 407
528 4 402 408
529 7 436 438
530 8 397 398
531 7 397 399
532 7 397 400
533 4 401 403
534 4 401 404
535 4 401 405
536 4 258 262
537 4 258 263
538 4 258 264
539 7 256 258
540 8 253 254
541 7 253 255
542 7 253 256
543 4 257 259
544 4 257 260
545 4 257 261
546 4 438 442
547 4 438 443
548 4 438 444
549 8 433 434
550 7 433 435
551 7 433 436
552 7 435 437
553 4 437 439
554 4 437 440
555 4 437 441
556 4 294 298
557 4 294 299
558 4 294 300
559 8 289 290
560 7 289 291
561 7 289 292
562 7 291 293
563 4 293 295
564 4 293 296
565 4 293 297
566 4 270 274
567 4 270 275
568 4 270 276
569 7 268 270
570 8 265 266
571 7 265 267
572 7 265 268
573 7 292 294
574 4 269 271
575 4 269 272
576 4 269 273
577 7 196 198
578 4 197 199
579 4 197 200
580 4 197 201
581 7 267 269
582 7 603 606
583 4 606 607
584 4 606 608
585 8 601 602
586 7 601 603
587 7 601 604
588 7 604 605
589 1 605 606
590 4 605 609
591 4 605 610
592 4 390 394
593 4 390 395
594 4 390 396
595 7 388 390
596 8 385 386
597 7 385 387
598 7 385 388
599 4 450 454
600 4 450 455
601 4 450 456
602 7 448 450
603 7 387 389
604 4 389 391
605 4 389 392
606 4 389 393
607 8 445 446
608 7 445 447
609 7 445 448
610 4 18 22
611 4 18 23
612 4 18 24
613 4 449 451
614 4 449 452
615 4 449 453
616 8 13 14
617 7 13 15
618 7 13 16
619 7 16 18
620 7 15 17
621 4 17 19
622 4 17 20
623 4 17 21
624 7 399 401
625 4 462 466
626 4 462 467
627 4 462 468
628 7 460 462
629 8 457 458
630 7 457 459
631 7 457 460
632 7 459 461
633 4 461 463
634 4 461 464
635 4 461 465
636 4 102 106
637 4 102 107
638 4 102 108
639 7 255 257
640 7 100 102
641 4 101 103
642 4 101 104
643 4 101 105
644 8 97 98
645 7 97 99
646 7 97 100
647 7 99 101
648 15 750 751
649 15 750 752
650 15 750 753
651 15 750 754
652 15 750 755
653 15 750 756
654 7 195 197
655 15 743 744
656 15 743 745
657 15 743 746
658 15 743 747
659 15 743 748
660 15 743 749
661 7 643 646
662 8 711 712
663 7 711 713
664 7 711 714
665 4 198 202
666 4 198 203
667 4 198 204
668 8 193 194
669 7 193 195
670 7 193 196
671 7 713 716
672 7 714 715
673 4 716 717
674 4 716 718
675 1 715 716
676 4 715 719
677 4 715 720
678 8 591 592
679 7 591 593
680 7 591 594
681 4 596 597
682 4 596 598
683 7 593 596
684 7 594 595
685 1 595 596
686 4 595 599
687 4 595 600
688 15 764 765
689 15 764 766
690 15 764 767
691 15 764 768
692 15 764 769
693 15 764 770
694 7 663 666
695 4 666 667
696 4 666 668
697 8 661 662
698 7 661 663
699 7 661 664
700 7 664 665
701 1 665 666
702 4 665 669
703 4 665 670
704 15 736 737
705 15 736 738
706 15 736 739
707 15 736 740
708 15 736 741
709 15 736 742
710 15 757 758
711 15 757 759
712 15 757 760
713 15 757 761
714 15 757 762
715 15 757 763

Angles

1 4 136 138 142
2 4 136 138 143
3 4 136 138 144
4 7 142 138 143
5 7 142 138 144
6 7 143 138 144
7 11 642 641 643
8 11 642 641 644
9 12 643 641 644
10 9 133 136 138
11 11 134 133 135
12 11 134 133 136
13 12 135 133 136
14 4 135 137 139
15 4 135 137 140
16 4 135 137 141
17 7 139 137 140
18 7 139 137 141
19 7 140 137 141
20 4 172 174 178
21 4 172 174 179
22 4 172 174 180
23 7 178 174 179
24 7 178 174 180
25 7 179 174 180
26 9 169 172 174
27 11 170 169 171
28 11 170 169 172
29 12 171 169 172
30 9 169 171 173
31 4 171 173 175
32 4 171 173 176
33 4 171 173 177
34 7 175 173 176
35 7 175 173 177
36 7 176 173 177
37 13 643 646 645
38 4 645 646 647
39 4 645 646 648
40 6 647 646 648
41 9 641 644 645
42 13 644 645 646
43 4 646 645 649
44 4 646 645 650
45 6 649 645 650
46 9 671 674 675
47 9 721 723 726
48 11 722 721 723
49 11 722 721 724
50 12 723 721 724
51 13 723 726 725
52 4 725 726 727
53 4 725 726 728
54 6 727 726 728
55 9 721 724 725
56 13 724 725 726
57 4 726 725 729
58 4 726 725 730
59 6 729 725 730
60 4 76 78 82
61 4 76 78 83
62 4 76 78 84
63 7 82 78 83
64 7 82 78 84
65 7 83 78 84
66 9 73 76 78
67 9 73 75 77
68 4 232 234 238
69 4 232 234 239
70 4 232 234 240
71 7 238 234 239
72 7 238 234 240
73 7 239 234 240
74 9 229 232 234
75 11 230 229 231
76 11 230 229 232
77 12 231 229 232
78 9 229 231 233
79 4 231 233 235
80 4 231 233 236
81 4 231 233 237
82 7 235 233 236
83 7 235 233 237
84 7 236 233 237
85 11 74 73 75
86 11 74 73 76
87 12 75 73 76
88 4 75 77 79
89 4 75 77 80
90 4 75 77 81
91 7 79 77 80
92 7 79 77 81
93 7 80 77 81
94 4 508 510 514
95 4 508 510 515
96 4 508 510 516
97 7 514 510 515
98 7 514 510 516
99 7 515 510 516
100 9 505 508 510
101 11 506 505 507
102 11 506 505 508
103 12 507 505 508
104 9 505 507 509
105 4 507 509 511
106 4 507 509 512
107 4 507 509 513
108 7 511 509 512
109 7 511 509 513
110 7 512 509 513
111 4 52 54 58
112 4 52 54 59
113 4 52 54 60
114 7 58 54 59
115 7 58 54 60
116 7 59 54 60
117 9 49 52 54
118 11 50 49 51
119 11 50 49 52
120 12 51 49 52
121 9 49 51 53
122 4 51 53 55
123 4 51 53 56
124 4 51 53 57
125 7 55 53 56
126 7 55 53 57
127 7 56 53 57
128 9 133 135 137
129 4 111 113 115
130 4 111 113 116
131 4 111 113 117
132 7 115 113 116
133 7 115 113 117
134 7 116 113 117
135 9 361 364 366
136 4 207 209 211
137 4 207 209 212
138 4 207 209 213
139 7 211 209 212
140 7 211 209 213
141 7 212 209 213
142 4 112 114 118
143 4 112 114 119
144 4 112 114 120
145 7 118 114 119
146 7 118 114 120
147 7 119 114 120
148 9 109 112 114
149 11 110 109 111
150 11 110 109 112
151 12 111 109 112
152 9 109 111 113
153 9 671 673 676
154 11 672 671 673
155 11 672 671 674
156 12 673 671 674
157 4 208 210 214
158 4 208 210 215
159 4 208 210 216
160 7 214 210 215
161 7 214 210 216
162 7 215 210 216
163 9 205 208 210
164 11 206 205 207
165 11 206 205 208
166 12 207 205 208
167 9 205 207 209
168 4 328 330 334
169 4 328 330 335
170 4 328 330 336
171 7 334 330 335
172 7 334 330 336
173 7 335 330 336
174 9 325 328 330
175 11 326 325 327
176 11 326 325 328
177 12 327 325 328
178 4 327 329 331
179 4 327 329 332
180 4 327 329 333
181 7 331 329 332
182 7 331 329 333
183 7 332 329 333
184 9 325 327 329
185 9 37 40 42
186 13 673 676 675
187 4 675 676 677
188 4 675 676 678
189 6 677 676 678
190 13 674 675 676
191 4 676 675 679
192 4 676 675 680
193 6 679 675 680
194 9 571 573 576
195 11 572 571 573
196 11 572 571 574
197 12 573 571 574
198 11 62 61 63
199 11 62 61 64
200 12 63 61 64
201 13 573 576 575
202 4 575 576 577
203 4 575 576 578
204 6 577 576 578
205 9 571 574 575
206 13 574 575 576
207 4 576 575 579
208 4 576 575 580
209 6 579 575 580
210 11 652 651 653
211 11 652 651 654
212 12 653 651 654
213 9 651 653 656
214 9 651 654 655
215 4 376 378 382
216 4 376 378 383
217 4 376 378 384
218 7 382 378 383
219 7 382 378 384
220 7 383 378 384
221 9 373 376 378
222 9 373 375 377
223 4 184 186 190
224 4 184 186 191
225 4 184 186 192
226 7 190 186 191
227 7 190 186 192
228 7 191 186 192
229 9 181 184 186
230 13 653 656 655
231 4 655 656 657
232 4 655 656 658
233 6 657 656 658
234 13 654 655 656
235 4 656 655 659
236 4 656 655 660
237 6 659 655 660
238 11 182 181 183
239 11 182 181 184
240 12 183 181 184
241 9 181 183 185
242 4 183 185 187
243 4 183 185 188
244 4 183 185 189
245 7 187 185 188
246 7 187 185 189
247 7 188 185 189
248 4 124 126 130
249 4 124 126 131
250 4 124 126 132
251 7 130 126 131
252 7 130 126 132
253 7 131 126 132
254 9 121 124 126
255 11 122 121 123
256 11 122 121 124
257 12 123 121 124
258 9 121 123 125
259 4 123 125 127
260 4 123 125 128
261 4 123 125 129
262 7 127 125 128
263 7 127 125 129
264 7 128 125 129
265 13 553 556 555
266 4 555 556 557
267 4 555 556 558
268 6 557 556 558
269 13 554 555 556
270 4 556 555 559
271 4 556 555 560
272 6 559 555 560
273 9 277 280 282
274 9 691 693 696
275 11 692 691 693
276 11 692 691 694
277 12 693 691 694
278 9 691 694 695
279 11 362 361 363
280 11 362 361 364
281 12 363 361 364
282 4 280 282 286
283 4 280 282 287
284 4 280 282 288
285 7 286 282 287
286 7 286 282 288
287 7 287 282 288
288 11 278 277 279
289 11 278 277 280
290 12 279 277 280
291 9 277 279 281
292 4 279 281 283
293 4 279 281 284
294 4 279 281 285
295 7 283 281 284
296 7 283 281 285
297 7 284 281 285
298 13 693 696 695
299 4 695 696 697
300 4 695 696 698
301 6 697 696 698
302 13 694 695 696
303 4 696 695 699
304 4 696 695 700
305 6 699 695 700
306 4 484 486 490
307 4 484 486 491
308 4 484 486 492
309 7 490 486 491
310 7 490 486 492
311 7 491 486 492
312 9 481 484 486
313 4 364 366 370
314 4 364 366 371
315 4 364 366 372
316 7 370 366 371
317 7 370 366 372
318 7 371 366 372
319 11 482 481 483
320 11 482 481 484
321 12 483 481 484
322 9 481 483 485
323 9 361 363 365
324 4 483 485 487
325 4 483 485 488
326 4 483 485 489
327 7 487 485 488
328 7 487 485 489
329 7 488 485 489
330 4 363 365 367
331 4 363 365 368
332 4 363 365 369
333 7 367 365 368
334 7 367 365 369
335 7 368 365 369
336 11 38 37 39
337 11 38 37 40
338 12 39 37 40
339 9 37 39 41
340 4 39 41 43
341 4 39 41 44
342 4 39 41 45
343 7 43 41 44
344 7 43 41 45
345 7 44 41 45
346 4 40 42 46
347 4 40 42 47
348 4 40 42 48
349 7 46 42 47
350 7 46 42 48
351 7 47 42 48
352 9 61 63 65
353 4 63 65 67
354 4 63 65 68
355 4 63 65 69
356 7 67 65 68
357 7 67 65 69
358 7 68 65 69
359 4 244 246 250
360 4 244 246 251
361 4 244 246 252
362 7 250 246 251
363 7 250 246 252
364 7 251 246 252
365 11 242 241 243
366 11 242 241 244
367 12 243 241 244
368 4 243 245 247
369 4 243 245 248
370 4 243 245 249
371 7 247 245 248
372 7 247 245 249
373 7 248 245 249
374 4 472 474 478
375 4 472 474 479
376 4 472 474 480
377 7 478 474 479
378 7 478 474 480
379 7 479 474 480
380 9 469 472 474
381 11 470 469 471
382 11 470 469 472
383 12 471 469 472
384 9 469 471 473
385 4 471 473 475
386 4 471 473 476
387 4 471 473 477
388 7 475 473 476
389 7 475 473 477
390 7 476 473 477
391 4 64 66 70
392 4 64 66 71
393 4 64 66 72
394 7 70 66 71
395 7 70 66 72
396 7 71 66 72
397 9 61 64 66
398 9 241 244 246
399 9 241 243 245
400 11 612 611 613
401 11 612 611 614
402 12 613 611 614
403 13 613 616 615
404 4 615 616 617
405 4 615 616 618
406 6 617 616 618
407 9 611 613 616
408 9 611 614 615
409 13 614 615 616
410 4 616 615 619
411 4 616 615 620
412 6 619 615 620
413 11 632 631 633
414 11 632 631 634
415 12 633 631 634
416 13 633 636 635
417 4 635 636 637
418 4 635 636 638
419 6 637 636 638
420 9 631 634 635
421 11 374 373 375
422 11 374 373 376
423 12 375 373 376
424 13 634 635 636
425 4 636 635 639
426 4 636 635 640
427 6 639 635 640
428 4 375 377 379
429 4 375 377 380
430 4 375 377 381
431 7 379 377 380
432 7 379 377 381
433 7 380 377 381
434 9 85 88 90
435 11 552 551 553
436 11 552 551 554
437 12 553 551 554
438 9 551 553 556
439 9 85 87 89
440 9 551 554 555
441 4 352 354 358
442 4 352 354 359
443 4 352 354 360
444 7 358 354 359
445 7 358 354 360
446 7 359 354 360
447 9 349 352 354
448 11 350 349 351
449 11 350 349 352
450 12 351 349 352
451 9 349 351 353
452 4 351 353 355
453 4 351 353 356
454 4 351 353 357
455 7 355 353 356
456 7 355 353 357
457 7 356 353 357
458 9 561 563 566
459 11 2 1 3
460 11 2 1 4
461 12 3 1 4
462 9 1 3 5
463 9 581 583 586
464 11 582 581 583
465 11 582 581 584
466 12 583 581 584
467 9 581 584 585
468 13 583 586 585
469 4 585 586 587
470 4 585 586 588
471 6 587 586 588
472 13 584 585 586
473 4 586 585 589
474 4 586 585 590
475 6 589 585 590
476 9 631 633 636
477 9 681 683 686
478 9 493 496 498
479 4 496 498 502
480 4 496 498 503
481 4 496 498 504
482 7 502 498 503
483 7 502 498 504
484 7 503 498 504
485 11 494 493 495
486 11 494 493 496
487 12 495 493 496
488 9 493 495 497
489 4 495 497 499
490 4 495 497 500
491 4 495 497 501
492 7 499 497 500
493 7 499 497 501
494 7 500 497 501
495 4 88 90 94
496 4 88 90 95
497 4 88 90 96
498 7 94 90 95
499 7 94 90 96
500 7 95 90 96
501 11 86 85 87
502 11 86 85 88
503 12 87 85 88
504 4 87 89 91
505 4 87 89 92
506 4 87 89 93
507 7 91 89 92
508 7 91 89 93
509 7 92 89 93
510 11 530 529 531
511 11 530 529 532
512 12 531 529 532
513 9 301 304 306
514 11 302 301 303
515 11 302 301 304
516 12 303 301 304
517 9 301 303 305
518 4 303 305 307
519 4 303 305 308
520 4 303 305 309
521 7 307 305 308
522 7 307 305 309
523 7 308 305 309
524 9 409 412 414
525 9 409 411 413
526 11 542 541 543
527 11 542 541 544
528 12 543 541 544
529 9 541 543 546
530 4 304 306 310
531 4 304 306 311
532 4 304 306 312
533 7 310 306 311
534 7 310 306 312
535 7 311 306 312
536 4 220 222 226
537 4 220 222 227
538 4 220 222 228
539 7 226 222 227
540 7 226 222 228
541 7 227 222 228
542 9 217 220 222
543 11 218 217 219
544 11 218 217 220
545 12 219 217 220
546 9 217 219 221
547 4 219 221 223
548 4 219 221 224
549 4 219 221 225
550 7 223 221 224
551 7 223 221 225
552 7 224 221 225
553 11 562 561 563
554 11 562 561 564
555 12 563 561 564
556 9 561 564 565
557 9 541 544 545
558 13 543 546 545
559 4 545 546 547
560 4 545 546 548
561 6 547 546 548
562 13 544 545 546
563 4 546 545 549
564 4 546 545 550
565 6 549 545 550
566 9 421 423 425
567 13 563 566 565
568 4 565 566 567
569 4 565 566 568
570 6 567 566 568
571 4 340 342 346
572 4 340 342 347
573 4 340 342 348
574 7 346 342 347
575 7 346 342 348
576 7 347 342 348
577 9 337 340 342
578 9 145 148 150
579 9 145 147 149
580 13 564 565 566
581 4 566 565 569
582 4 566 565 570
583 6 569 565 570
584 4 339 341 343
585 4 339 341 344
586 4 339 341 345
587 7 343 341 344
588 7 343 341 345
589 7 344 341 345
590 4 4 6 10
591 4 4 6 11
592 4 4 6 12
593 7 10 6 11
594 7 10 6 12
595 7 11 6 12
596 9 1 4 6
597 9 421 424 426
598 4 3 5 7
599 4 3 5 8
600 4 3 5 9
601 7 7 5 8
602 7 7 5 9
603 7 8 5 9
604 4 423 425 427
605 4 423 425 428
606 4 423 425 429
607 7 427 425 428
608 7 427 425 429
609 7 428 425 429
610 4 148 150 154
611 4 148 150 155
612 4 148 150 156
613 7 154 150 155
614 7 154 150 156
615 7 155 150 156
616 11 146 145 147
617 11 146 145 148
618 12 147 145 148
619 9 337 339 341
620 4 147 149 151
621 4 147 149 152
622 4 147 149 153
623 7 151 149 152
624 7 151 149 153
625 7 152 149 153
626 4 424 426 430
627 4 424 426 431
628 4 424 426 432
629 7 430 426 431
630 7 430 426 432
631 7 431 426 432
632 11 422 421 423
633 11 422 421 424
634 12 423 421 424
635 4 316 318 322
636 4 316 318 323
637 4 316 318 324
638 7 322 318 323
639 7 322 318 324
640 7 323 318 324
641 4 519 521 523
642 4 519 521 524
643 4 519 521 525
644 7 523 521 524
645 7 523 521 525
646 7 524 521 525
647 11 314 313 315
648 11 314 313 316
649 12 315 313 316
650 9 313 315 317
651 4 315 317 319
652 4 315 317 320
653 4 315 317 321
654 7 319 317 320
655 7 319 317 321
656 7 320 317 321
657 11 682 681 683
658 11 682 681 684
659 12 683 681 684
660 4 520 522 526
661 4 520 522 527
662 4 520 522 528
663 7 526 522 527
664 7 526 522 528
665 7 527 522 528
666 9 681 684 685
667 9 517 520 522
668 11 518 517 519
669 11 518 517 520
670 12 519 517 520
671 9 517 519 521
672 13 683 686 685
673 4 685 686 687
674 4 685 686 688
675 6 687 686 688
676 13 684 685 686
677 4 686 685 689
678 4 686 685 690
679 6 689 685 690
680 9 701 703 706
681 13 703 706 705
682 4 705 706 707
683 4 705 706 708
684 6 707 706 708
685 11 702 701 703
686 11 702 701 704
687 12 703 701 704
688 9 701 704 705
689 13 704 705 706
690 4 706 705 709
691 4 706 705 710
692 6 709 705 710
693 4 532 534 538
694 4 532 534 539
695 4 532 534 540
696 7 538 534 539
697 7 538 534 540
698 7 539 534 540
699 9 529 532 534
700 9 529 531 533
701 4 531 533 535
702 4 531 533 536
703 4 531 533 537
704 7 535 533 536
705 7 535 533 537
706 7 536 533 537
707 4 412 414 418
708 4 412 414 419
709 4 412 414 420
710 7 418 414 419
711 7 418 414 420
712 7 419 414 420
713 11 410 409 411
714 11 410 409 412
715 12 411 409 412
716 4 411 413 415
717 4 411 413 416
718 4 411 413 417
719 7 415 413 416
720 7 415 413 417
721 7 416 413 417
722 4 160 162 166
723 4 160 162 167
724 4 160 162 168
725 7 166 162 167
726 7 166 162 168
727 7 167 162 168
728 9 157 160 162
729 11 158 157 159
730 11 158 157 160
731 12 159 157 160
732 9 157 159 161
733 4 159 161 163
734 4 159 161 164
735 4 159 161 165
736 7 163 161 164
737 7 163 161 165
738 7 164 161 165
739 9 621 623 626
740 11 622 621 623
741 11 622 621 624
742 12 623 621 624
743 13 623 626 625
744 4 625 626 627
745 4 625 626 628
746 6 627 626 628
747 9 621 624 625
748 13 624 625 626
749 4 626 625 629
750 4 626 625 630
751 6 629 625 630
752 11 338 337 339
753 11 338 337 340
754 12 339 337 340
755 4 28 30 34
756 4 28 30 35
757 4 28 30 36
758 7 34 30 35
759 7 34 30 36
760 7 35 30 36
761 9 445 447 449
762 9 25 28 30
763 9 313 316 318
764 11 26 25 27
765 11 26 25 28
766 12 27 25 28
767 9 25 27 29
768 4 27 29 31
769 4 27 29 32
770 4 27 29 33
771 7 31 29 32
772 7 31 29 33
773 7 32 29 33
774 9 397 400 402
775 4 400 402 406
776 4 400 402 407
777 4 400 402 408
778 7 406 402 407
779 7 406 402 408
780 7 407 402 408
781 9 433 436 438
782 11 398 397 399
783 11 398 397 400
784 12 399 397 400
785 4 399 401 403
786 4 399 401 404
787 4 399 401 405
788 7 403 401 404
789 7 403 401 405
790 7 404 401 405
791 4 256 258 262
792 4 256 258 263
793 4 256 258 264
794 7 262 258 263
795 7 262 258 264
796 7 263 258 264
797 9 253 256 258
798 11 254 253 255
799 11 254 253 256
800 12 255 253 256
801 4 255 257 259
802 4 255 257 260
803 4 255 257 261
804 7 259 257 260
805 7 259 257 261
806 7 260 257 261
807 4 436 438 442
808 4 436 438 443
809 4 436 438 444
810 7 442 438 443
811 7 442 438 444
812 7 443 438 444
813 11 434 433 435
814 11 434 433 436
815 12 435 433 436
816 9 433 435 437
817 4 435 437 439
818 4 435 437 440
819 4 435 437 441
820 7 439 437 440
821 7 439 437 441
822 7 440 437 441
823 4 292 294 298
824 4 292 294 299
825 4 292 294 300
826 7 298 294 299
827 7 298 294 300
828 7 299 294 300
829 11 290 289 291
830 11 290 289 292
831 12 291 289 292
832 9 289 291 293
833 4 291 293 295
834 4 291 293 296
835 4 291 293 297
836 7 295 293 296
837 7 295 293 297
838 7 296 293 297
839 4 268 270 274
840 4 268 270 275
841 4 268 270 276
842 7 274 270 275
843 7 274 270 276
844 7 275 270 276
845 9 265 268 270
846 11 266 265 267
847 11 266 265 268
848 12 267 265 268
849 9 289 292 294
850 4 267 269 271
851 4 267 269 272
852 4 267 269 273
853 7 271 269 272
854 7 271 269 273
855 7 272 269 273
856 9 193 196 198
857 4 195 197 199
858 4 195 197 200
859 4 195 197 201
860 7 199 197 200
861 7 199 197 201
862 7 200 197 201
863 9 265 267 269
864 9 601 603 606
865 13 603 606 605
866 4 605 606 607
867 4 605 606 608
868 6 607 606 608
869 11 602 601 603
870 11 602 601 604
871 12 603 601 604
872 9 601 604 605
873 13 604 605 606
874 4 606 605 609
875 4 606 605 610
876 6 609 605 610
877 4 388 390 394
878 4 388 390 395
879 4 388 390 396
880 7 394 390 395
881 7 394 390 396
882 7 395 390 396
883 9 385 388 390
884 11 386 385 387
885 11 386 385 388
886 12 387 385 388
887 4 448 450 454
888 4 448 450 455
889 4 448 450 456
890 7 454 450 455
891 7 454 450 456
892 7 455 450 456
893 9 445 448 450
894 9 385 387 389
895 4 387 389 391
896 4 387 389 392
897 4 387 389 393
898 7 391 389 392
899 7 391 389 393
900 7 392 389 393
901 11 446 445 447
902 11 446 445 448
903 12 447 445 448
904 4 16 18 22
905 4 16 18 23
906 4 16 18 24
907 7 22 18 23
908 7 22 18 24
909 7 23 18 24
910 4 447 449 451
911 4 447 449 452
912 4 447 449 453
913 7 451 449 452
914 7 451 449 453
915 7 452 449 453
916 11 14 13 15
917 11 14 13 16
918 12 15 13 16
919 9 13 16 18
920 9 13 15 17
921 4 15 17 19
922 4 15 17 20
923 4 15 17 21
924 7 19 17 20
925 7 19 17 21
926 7 20 17 21
927 9 397 399 401
928 4 460 462 466
929 4 460 462 467
930 4 460 462 468
931 7 466 462 467
932 7 466 462 468
933 7 467 462 468
934 9 457 460 462
935 11 458 457 459
936 11 458 457 460
937 12 459 457 460
938 9 457 459 461
939 4 459 461 463
940 4 459 461 464
941 4 459 461 465
942 7 463 461 464
943 7 463 461 465
944 7 464 461 465
945 4 100 102 106
946 4 100 102 107
947 4 100 102 108
948 7 106 102 107
949 7 106 102 108
950 7 107 102 108
951 9 253 255 257
952 9 97 100 102
953 4 99 101 103
954 4 99 101 104
955 4 99 101 105
956 7 103 101 104
957 7 103 101 105
958 7 104 101 105
959 11 98 97 99
960 11 98 97 100
961 12 99 97 100
962 9 97 99 101
963 18 751 750 752
964 18 753 750 754
965 18 755 750 756
966 17 751 750 753
967 17 751 750 754
968 17 751 750 755
969 17 751 750 756
970 17 752 750 753
971 17 752 750 754
972 17 752 750 755
973 17 752 750 756
974 17 753 750 755
975 17 753 750 756
976 17 754 750 755
977 17 754 750 756
978 9 193 195 197
979 18 744 743 745
980 18 746 743 747
981 18 748 743 749
982 17 744 743 746
983 17 744 743 747
984 17 744 743 748
985 17 744 743 749
986 17 745 743 746
987 17 745 743 747
988 17 745 743 748
989 17 745 743 749
990 17 746 743 748
991 17 746 743 749
992 17 747 743 748
993 17 747 743 749
994 9 641 643 646
995 11 712 711 713
996 11 712 711 714
997 12 713 711 714
998 4 196 198 202
999 4 196 198 203
1000 4 196 198 204
1001 7 202 198 203
1002 7 202 198 204
1003 7 203 198 204
1004 11 194 193 195
1005 11 194 193 196
1006 12 195 193 196
1007 9 711 713 716
1008 9 711 714 715
1009 13 713 716 715
1010 4 715 716 717
1011 4 715 716 718
1012 6 717 716 718
1013 13 714 715 716
1014 4 716 715 719
1015 4 716 715 720
1016 6 719 715 720
1017 11 592 591 593
1018 11 592 591 594
1019 12 593 591 594
1020 13 593 596 595
1021 4 595 596 597
1022 4 595 596 598
1023 6 597 596 598
1024 9 591 593 596
1025 9 591 594 595
1026 13 594 595 596
1027 4 596 595 599
1028 4 596 595 600
1029 6 599 595 600
1030 18 765 764 766
1031 18 767 764 768
1032 18 769 764 770
1033 17 765 764 767
1034 17 765 764 768
1035 17 765 764 769
1036 17 765 764 770
1037 17 766 764 767
1038 17 766 764 768
1039 17 766 764 769
1040 17 766 764 770
1041 17 767 764 769
1042 17 767 764 770
1043 17 768 764 769
1044 17 768 764 770
1045 9 661 663 666
1046 13 663 666 665
1047 4 665 666 667
1048 4 665 666 668
1049 6 667 666 668
1050 11 662 661 663
1051 11 662 661 664
1052 12 663 661 664
1053 9 661 664 665
1054 13 664 665 666
1055 4 666 665 669
1056 4 666 665 670
1057 6 669 665 670
1058 18 737 736 738
1059 18 739 736 740
1060 18 741 736 742
1061 17 737 736 739
1062 17 737 736 740
1063 17 737 736 741
1064 17 737 736 742
1065 17 738 736 739
1066 17 738 736 740
1067 17 738 736 741
1068 17 738 736 742
1069 17 739 736 741
1070 17 739 736 742
1071 17 740 736 741
1072 17 740 736 742
1073 18 758 757 759
1074 18 760 757 761
1075 18 762 757 763
1076 17 758 757 760
1077 17 758 757 761
1078 17 758 757 762
1079 17 758 757 763
1080 17 759 757 760
1081 17 759 757 761
1082 17 759 757 762
1083 17 759 757 763
1084 17 760 757 762
1085 17 760 757 763
1086 17 761 757 762
1087 17 761 757 763

Dihedrals

1 8 642 641 643 646
2 8 642 641 644 645
3 6 133 136 138 142
4 6 133 136 138 143
5 6 133 136 138 144
6 8 134 133 135 137
7 8 134 133 136 138
8 6 169 172 174 178
9 6 169 172 174 179
10 6 169 172 174 180
11 8 170 169 171 173
12 8 170 169 172 174
13 6 169 171 173 175
14 6 169 171 173 176
15 6 169 171 173 177
16 7 643 646 645 644
17 7 641 644 645 646
18 7 671 674 675 676
19 5 721 723 726 725
20 8 722 721 723 726
21 8 722 721 724 725
22 7 723 726 725 724
23 7 721 724 725 726
24 6 73 76 78 82
25 6 73 76 78 83
26 6 73 76 78 84
27 6 73 75 77 79
28 6 73 75 77 80
29 6 73 75 77 81
30 6 229 232 234 238
31 6 229 232 234 239
32 6 229 232 234 240
33 8 230 229 231 233
34 8 230 229 232 234
35 6 229 231 233 235
36 6 229 231 233 236
37 6 229 231 233 237
38 8 74 73 75 77
39 8 74 73 76 78
40 6 505 508 510 514
41 6 505 508 510 515
42 6 505 508 510 516
43 8 506 505 507 509
44 8 506 505 508 510
45 6 505 507 509 511
46 6 505 507 509 512
47 6 505 507 509 513
48 6 49 52 54 58
49 6 49 52 54 59
50 6 49 52 54 60
51 8 50 49 51 53
52 8 50 49 52 54
53 6 49 51 53 55
54 6 49 51 53 56
55 6 49 51 53 57
56 6 133 135 137 139
57 6 133 135 137 140
58 6 133 135 137 141
59 6 361 364 366 370
60 6 361 364 366 371
61 6 361 364 366 372
62 6 109 112 114 118
63 6 109 112 114 119
64 6 109 112 114 120
65 8 110 109 111 113
66 8 110 109 112 114
67 6 109 111 113 115
68 6 109 111 113 116
69 6 109 111 113 117
70 5 671 673 676 675
71 8 672 671 673 676
72 8 672 671 674 675
73 6 205 208 210 214
74 6 205 208 210 215
75 6 205 208 210 216
76 8 206 205 207 209
77 8 206 205 208 210
78 6 205 207 209 211
79 6 205 207 209 212
80 6 205 207 209 213
81 6 325 328 330 334
82 6 325 328 330 335
83 6 325 328 330 336
84 8 326 325 327 329
85 8 326 325 328 330
86 6 325 327 329 331
87 6 325 327 329 332
88 6 325 327 329 333
89 6 37 40 42 46
90 6 37 40 42 47
91 6 37 40 42 48
92 7 673 676 675 674
93 5 571 573 576 575
94 8 572 571 573 576
95 8 572 571 574 575
96 8 62 61 63 65
97 8 62 61 64 66
98 7 573 576 575 574
99 7 571 574 575 576
100 8 652 651 653 656
101 8 652 651 654 655
102 5 651 653 656 655
103 7 651 654 655 656
104 6 373 376 378 382
105 6 373 376 378 383
106 6 373 376 378 384
107 6 373 375 377 379
108 6 373 375 377 380
109 6 373 375 377 381
110 6 181 184 186 190
111 6 181 184 186 191
112 6 181 184 186 192
113 7 653 656 655 654
114 8 182 181 183 185
115 8 182 181 184 186
116 6 181 183 185 187
117 6 181 183 185 188
118 6 181 183 185 189
119 6 121 124 126 130
120 6 121 124 126 131
121 6 121 124 126 132
122 8 122 121 123 125
123 8 122 121 124 126
124 6 121 123 125 127
125 6 121 123 125 128
126 6 121 123 125 129
127 7 553 556 555 554
128 6 277 280 282 286
129 6 277 280 282 287
130 6 277 280 282 288
131 5 691 693 696 695
132 8 692 691 693 696
133 8 692 691 694 695
134 7 691 694 695 696
135 8 362 361 363 365
136 8 362 361 364 366
137 8 278 277 279 281
138 8 278 277 280 282
139 6 277 279 281 283
140 6 277 279 281 284
141 6 277 279 281 285
142 7 693 696 695 694
143 6 481 484 486 490
144 6 481 484 486 491
145 6 481 484 486 492
146 8 482 481 483 485
147 8 482 481 484 486
148 6 481 483 485 487
149 6 481 483 485 488
150 6 481 483 485 489
151 6 361 363 365 367
152 6 361 363 365 368
153 6 361 363 365 369
154 8 38 37 39 41
155 8 38 37 40 42
156 6 37 39 41 43
157 6 37 39 41 44
158 6 37 39 41 45
159 6 61 63 65 67
160 6 61 63 65 68
161 6 61 63 65 69
162 8 242 241 243 245
163 8 242 241 244 246
164 6 469 472 474 478
165 6 469 472 474 479
166 6 469 472 474 480
167 8 470 469 471 473
168 8 470 469 472 474
169 6 469 471 473 475
170 6 469 471 473 476
171 6 469 471 473 477
172 6 61 64 66 70
173 6 61 64 66 71
174 6 61 64 66 72
175 6 241 244 246 250
176 6 241 244 246 251
177 6 241 244 246 252
178 6 241 243 245 247
179 6 241 243 245 248
180 6 241 243 245 249
181 8 612 611 613 616
182 8 612 611 614 615
183 7 613 616 615 614
184 5 611 613 616 615
185 7 611 614 615 616
186 8 632 631 633 636
187 8 632 631 634 635
188 7 633 636 635 634
189 7 631 634 635 636
190 8 374 373 375 377
191 8 374 373 376 378
192 6 85 88 90 94
193 6 85 88 90 95
194 6 85 88 90 96
195 8 552 551 553 556
196 8 552 551 554 555
197 5 551 553 556 555
198 6 85 87 89 91
199 6 85 87 89 92
200 6 85 87 89 93
201 7 551 554 555 556
202 6 349 352 354 358
203 6 349 352 354 359
204 6 349 352 354 360
205 8 350 349 351 353
206 8 350 349 352 354
207 6 349 351 353 355
208 6 349 351 353 356
209 6 349 351 353 357
210 5 561 563 566 565
211 8 2 1 3 5
212 8 2 1 4 6
213 6 1 3 5 7
214 6 1 3 5 8
215 6 1 3 5 9
216 5 581 583 586 585
217 8 582 581 583 586
218 8 582 581 584 585
219 7 581 584 585 586
220 7 583 586 585 584
221 5 631 633 636 635
222 5 681 683 686 685
223 6 493 496 498 502
224 6 493 496 498 503
225 6 493 496 498 504
226 8 494 493 495 497
227 8 494 493 496 498
228 6 493 495 497 499
229 6 493 495 497 500
230 6 493 495 497 501
231 8 86 85 87 89
232 8 86 85 88 90
233 8 530 529 531 533
234 8 530 529 532 534
235 6 301 304 306 310
236 6 301 304 306 311
237 6 301 304 306 312
238 8 302 301 303 305
239 8 302 301 304 306
240 6 301 303 305 307
241 6 301 303 305 308
242 6 301 303 305 309
243 6 409 412 414 418
244 6 409 412 414 419
245 6 409 412 414 420
246 6 409 411 413 415
247 6 409 411 413 416
248 6 409 411 413 417
249 8 542 541 543 546
250 8 542 541 544 545
251 5 541 543 546 545
252 6 217 220 222 226
253 6 217 220 222 227
254 6 217 220 222 228
255 8 218 217 219 221
256 8 218 217 220 222
257 6 217 219 221 223
258 6 217 219 221 224
259 6 217 219 221 225
260 8 562 561 563 566
261 8 562 561 564 565
262 7 561 564 565 566
263 7 541 544 545 546
264 7 543 546 545 544
265 6 421 423 425 427
266 6 421 423 425 428
267 6 421 423 425 429
268 7 563 566 565 564
269 6 337 340 342 346
270 6 337 340 342 347
271 6 337 340 342 348
272 6 145 148 150 154
273 6 145 148 150 155
274 6 145 148 150 156
275 6 145 147 149 151
276 6 145 147 149 152
277 6 145 147 149 153
278 6 1 4 6 10
279 6 1 4 6 11
280 6 1 4 6 12
281 6 421 424 426 430
282 6 421 424 426 431
283 6 421 424 426 432
284 8 146 145 147 149
285 8 146 145 148 150
286 6 337 339 341 343
287 6 337 339 341 344
288 6 337 339 341 345
289 8 422 421 423 425
290 8 422 421 424 426
291 8 314 313 315 317
292 8 314 313 316 318
293 6 313 315 317 319
294 6 313 315 317 320
295 6 313 315 317 321
296 8 682 681 683 686
297 8 682 681 684 685
298 7 681 684 685 686
299 6 517 520 522 526
300 6 517 520 522 527
301 6 517 520 522 528
302 8 518 517 519 521
303 8 518 517 520 522
304 6 517 519 521 523
305 6 517 519 521 524
306 6 517 519 521 525
307 7 683 686 685 684
308 5 701 703 706 705
309 7 703 706 705 704
310 8 702 701 703 706
311 8 702 701 704 705
312 7 701 704 705 706
313 6 529 532 534 538
314 6 529 532 534 539
315 6 529 532 534 540
316 6 529 531 533 535
317 6 529 531 533 536
318 6 529 531 533 537
319 8 410 409 411 413
320 8 410 409 412 414
321 6 157 160 162 166
322 6 157 160 162 167
323 6 157 160 162 168
324 8 158 157 159 161
325 8 158 157 160 162
326 6 157 159 161 163
327 6 157 159 161 164
328 6 157 159 161 165
329 5 621 623 626 625
330 8 622 621 623 626
331 8 622 621 624 625
332 7 623 626 625 624
333 7 621 624 625 626
334 8 338 337 339 341
335 8 338 337 340 342
336 6 445 447 449 451
337 6 445 447 449 452
338 6 445 447 449 453
339 6 25 28 30 34
340 6 25 28 30 35
341 6 25 28 30 36
342 6 313 316 318 322
343 6 313 316 318 323
344 6 313 316 318 324
345 8 26 25 27 29
346 8 26 25 28 30
347 6 25 27 29 31
348 6 25 27 29 32
349 6 25 27 29 33
350 6 397 400 402 406
351 6 397 400 402 407
352 6 397 400 402 408
353 6 433 436 438 442
354 6 433 436 438 443
355 6 433 436 438 444
356 8 398 397 399 401
357 8 398 397 400 402
358 6 253 256 258 262
359 6 253 256 258 263
360 6 253 256 258 264
361 8 254 253 255 257
362 8 254 253 256 258
363 8 434 433 435 437
364 8 434 433 436 438
365 6 433 435 437 439
366 6 433 435 437 440
367 6 433 435 437 441
368 8 290 289 291 293
369 8 290 289 292 294
370 6 289 291 293 295
371 6 289 291 293 296
372 6 289 291 293 297
373 6 265 268 270 274
374 6 265 268 270 275
375 6 265 268 270 276
376 8 266 265 267 269
377 8 266 265 268 270
378 6 289 292 294 298
379 6 289 292 294 299
380 6 289 292 294 300
381 6 193 196 198 202
382 6 193 196 198 203
383 6 193 196 198 204
384 6 265 267 269 271
385 6 265 267 269 272
386 6 265 267 269 273
387 5 601 603 606 605
388 7 603 606 605 604
389 8 602 601 603 606
390 8 602 601 604 605
391 7 601 604 605 606
392 6 385 388 390 394
393 6 385 388 390 395
394 6 385 388 390 396
395 8 386 385 387 389
396 8 386 385 388 390
397 6 445 448 450 454
398 6 445 448 450 455
399 6 445 448 450 456
400 6 385 387 389 391
401 6 385 387 389 392
402 6 385 387 389 393
403 8 446 445 447 449
404 8 446 445 448 450
405 8 14 13 15 17
406 8 14 13 16 18
407 6 13 16 18 22
408 6 13 16 18 23
409 6 13 16 18 24
410 6 13 15 17 19
411 6 13 15 17 20
412 6 13 15 17 21
413 6 397 399 401 403
414 6 397 399 401 404
415 6 397 399 401 405
416 6 457 460 462 466
417 6 457 460 462 467
418 6 457 460 462 468
419 8 458 457 459 461
420 8 458 457 460 462
421 6 457 459 461 463
422 6 457 459 461 464
423 6 457 459 461 465
424 6 253 255 257 259
425 6 253 255 257 260
426 6 253 255 257 261
427 6 97 100 102 106
428 6 97 100 102 107
429 6 97 100 102 108
430 8 98 97 99 101
431 8 98 97 100 102
432 6 97 99 101 103
433 6 97 99 101 104
434 6 97 99 101 105
435 6 193 195 197 199
436 6 193 195 197 200
437 6 193 195 197 201
438 5 641 643 646 645
439 8 712 711 713 716
440 8 712 711 714 715
441 8 194 193 195 197
442 8 194 193 196 198
443 5 711 713 716 715
444 7 711 714 715 716
445 7 713 716 715 714
446 8 592 591 593 596
447 8 592 591 594 595
448 7 593 596 595 594
449 5 591 593 596 595
450 7 591 594 595 596
451 5 661 663 666 665
452 7 663 666 665 664
453 8 662 661 663 666
454 8 662 661 664 665
455 7 661 664 665 666
