LAMMPS data file via write_data, version 23 Jun 2022, timestep = 209

770 atoms
31 atom types
715 bonds
17 bond types
1087 angles
18 angle types
455 dihedrals
9 dihedral types
0 impropers
2 improper types

0 20 xlo xhi
0 20 ylo yhi
0 20 zlo zhi

Masses

1 12.011
2 12.011
3 12.011
4 12.011
5 12.011
6 12.011
7 12.011
8 12.011
9 12.011
10 12.011
11 1.008
12 1.008
13 1.008
14 1.008
15 1.008
16 1.008
17 1.008
18 15.999
19 15.999
20 15.999
21 15.999
22 14.007
23 14.007
24 14.007
25 14.007
26 18.998
27 30.974
28 6.941
29 32.065
30 32.065
31 6.941

Atoms # full

755 72 26 -0.39 15.433571 1.125857 0.48828562412205184 0 0 1
178 15 11 0.06 10.90402465327509 3.548080639474552 1.7502679757455053 0 0 0
180 15 11 0.06 10.881044563528244 2.353856304197138 0.7552653718874396 0 0 0
172 15 19 -0.35 12.746671277586374 3.790243954648642 1.0162539286974774 0 0 0
174 15 1 0.22 11.331449762649829 3.3450208116851563 0.756726296376469 0 0 0
169 15 9 0.52 14.125347492850603 3.413240983006719 0.5549190952655149 0 0 0
170 15 20 -0.5 14.696238047756863 2.439746163585798 1.0132024921079419 0 0 0
171 15 19 -0.35 15.208827198262075 4.323467455718689 0.6547686587190965 0 0 0
173 15 1 0.22 16.413181061673676 3.5109634795670313 0.9707704135092292 0 0 0
175 15 11 0.06 16.867501575208365 3.1525675387019 1.8914060944595725 0 0 0
143 12 11 0.06 3.2147858561128184 4.054094288731284 1.3542366546609867 0 0 0
641 56 9 0.52 6.1712138228630184 4.757885162940108 0.35017488174122086 0 0 0
642 56 20 -0.5 7.276804340242916 4.450960251974925 19.902914148784998 0 0 -1
140 12 11 0.06 9.414026165060442 3.8364891072837897 1.2047479699715986 0 0 0
177 15 11 0.06 17.07021914277818 4.189095205867762 1.42440409526195 0 0 0
748 71 26 -0.39 17.4623184025478 5.194970424291364 0.37029019443302735 0 0 1
647 56 11 0.06 4.422609668247706 6.412413550611249 1.029994739559877 0 0 0
643 56 19 -0.35 4.970889495845572 5.303990720744299 19.840771833094223 0 0 -1
646 56 2 0.22 5.14849673068411 6.7600256183709 0.24419756508591128 0 0 0
644 56 19 -0.35 6.149634246840947 5.972115479418859 0.7056523768279148 0 0 0
645 56 2 0.22 6.858287711387947 6.939060862795377 0.24201568812572716 0 0 0
649 56 11 0.06 7.5151999560265965 6.41703701910101 1.0116597193882213 0 0 0
591 51 9 0.52 13.775121965368202 7.87147267716604 19.967474047868095 0 0 0
721 64 9 0.52 13.387110296430318 8.894898423328872 1.3151414744609629 0 0 0
592 51 20 -0.5 14.958855925418026 7.548914548614393 19.851454667801395 0 0 0
722 64 20 -0.5 14.372780648027053 8.162260724639438 1.5103260656815751 0 0 0
596 51 2 0.22 12.940013607604278 9.765530992685276 19.742571227292036 0 0 0
597 51 11 0.06 12.19975218475196 9.26372016632232 0.4323505532742146 0 0 1
726 64 2 0.22 12.641614161468556 10.90567487228619 1.5787514798434812 0 0 0
728 64 11 0.06 11.890550904594338 10.732709086469596 0.7246432979648524 0 0 0
593 51 19 -0.35 12.676119755654852 8.35709615408384 19.230553343567145 0 0 0
594 51 19 -0.35 13.880804451074226 9.024323584575669 19.481048946518193 0 0 0
723 64 19 -0.35 12.395987392253346 9.545219015502155 2.0614804536061553 0 0 0
724 64 19 -0.35 13.807445458731738 10.044038806028174 0.9338762764366557 0 0 0
595 51 2 0.22 14.734727300265138 9.874751251082557 19.70294056603637 0 0 0
599 51 11 0.06 15.298203530022144 9.268912867083156 0.4885203470012819 0 0 1
725 64 2 0.22 14.363705682138011 10.982149871182376 1.6948424879867274 0 0 0
730 64 11 0.06 15.159456922321516 10.760851849507885 0.8997996328432721 0 0 0
769 74 26 -0.39 18.66349957725175 9.403714220797402 0.14951910833775464 0 0 1
733 67 31 1 15.879782777483133 12.040186995188337 1.3612133055998563 0 0 0
741 70 26 -0.39 12.34646638005161 13.458268927801733 0.3562534383620676 0 0 1
234 20 1 0.22 2.917622616912394 15.407842731273128 1.325641750286299 0 0 0
239 20 11 0.06 2.3908011475256994 15.737945755270417 0.4194565783178214 0 0 0
240 20 11 0.06 2.557688609228292 14.369249841258052 1.367647498437256 0 0 0
232 20 19 -0.35 4.295198407521526 15.98615604890719 1.5839982250345082 0 0 0
229 20 9 0.52 5.629448688162097 15.64399104120059 1.032057582833774 0 0 0
230 20 20 -0.5 5.751013799936943 14.507006759064755 1.3904814654709428 0 0 0
231 20 19 -0.35 6.900538418548429 16.48835222874617 1.1836817955849006 0 0 0
83 7 11 0.06 7.752683670965183 14.56047628528094 0.6868896202349253 0 0 0
233 20 1 0.22 8.381240947116241 16.078496302167434 1.1289913368487245 0 0 0
236 20 11 0.06 8.798702661417034 15.561497232055391 0.251028308426799 0 0 0
80 7 11 0.06 14.265674387498343 14.694594361151998 0.9624584878862609 0 0 0
237 20 11 0.06 8.91757833667909 17.016810291343745 1.2573243215095051 0 0 0
762 73 26 -0.39 9.638571 18.892286 0.34714262412205227 0 0 1
515 43 11 0.06 6.617679326954066 1.7148601380853243 3.1774741228400236 0 0 0
512 43 11 0.06 12.588044142957283 1.5932250891559356 3.2549646154508474 0 0 0
59 5 11 0.06 1.3005945258553875 3.3788240777612564 3.220439054340504 0 0 0
144 12 11 0.06 3.421057965074691 2.703357835915395 2.230201245451508 0 0 0
56 5 11 0.06 7.670645209467173 2.8863262214976877 3.37910299778351 0 0 0
142 12 11 0.06 3.2784106829476145 4.138872299855526 3.1141848114860773 0 0 0
136 12 19 -0.35 5.207620431943588 4.195990941865552 2.0924991241213107 0 0 0
138 12 1 0.22 3.7929352283125164 3.7239755605268305 2.235313489017291 0 0 0
133 12 9 0.52 6.601616745957882 3.695675627322466 2.3264053650826013 0 0 0
134 12 20 -0.5 7.077520146987093 3.780921162737948 1.238453459977597 0 0 0
135 12 19 -0.35 7.796714632938303 4.38741174786143 2.7792186042383813 0 0 0
137 12 1 0.22 9.130199424714972 3.970735925147814 2.2782056622654383 0 0 0
139 12 11 0.06 9.802460535294147 3.673337760175406 3.0987755972092 0 0 0
141 12 11 0.06 9.687193791061869 4.880191301790694 2.2395704156462037 0 0 0
116 10 11 0.06 0.9050643388427428 5.288271568091535 2.7915157649283575 1 0 0
216 18 11 0.06 8.061460395442028 6.6585909264183485 3.6432455933575283 0 0 0
119 10 11 0.06 14.350436832156362 5.725501122395451 2.6133682318258917 0 0 0
329 28 1 0.22 19.809217198764706 8.961962528099708 3.0329917678885 0 0 0
332 28 11 0.06 0.09805286031765316 8.500676161067272 2.081729271207776 1 0 0
671 59 9 0.52 3.379406032551497 8.275565068937036 2.839844202856054 0 0 0
672 59 20 -0.5 4.317768543264191 7.779575679795386 3.4585601965317347 0 0 0
210 18 1 0.22 8.482546666451759 7.663088268542313 3.6262267736327467 0 0 0
215 18 11 0.06 7.972092488325464 8.02601593046992 2.7091014223691077 0 0 0
208 18 19 -0.35 9.939980585589204 8.02068312027528 3.967132070040989 0 0 0
205 18 9 0.52 11.370254883056203 7.60091575140124 3.5486231390065983 0 0 0
206 18 20 -0.5 11.850673397178928 8.132833079519687 2.574793830777108 0 0 0
207 18 19 -0.35 12.555178446802095 7.715579223100357 4.409048130503122 0 0 0
209 18 1 0.22 13.992671256333997 7.4438810992010636 3.98685523932305 0 0 0
212 18 11 0.06 14.508610123071216 7.165598808414844 3.027899395129583 0 0 0
213 18 11 0.06 14.73262100693071 8.207920927621668 4.130292005923339 0 0 0
330 28 1 0.22 14.541328467298188 9.379001775958567 3.1606280822162667 0 0 0
335 28 11 0.06 13.861821801375823 8.555923584290086 2.889436668829141 0 0 0
336 28 11 0.06 13.584326505273975 9.014262149527822 2.8230514975478584 0 0 0
328 28 19 -0.35 15.950975707818724 8.72837220643481 3.3294306890411693 0 0 0
325 28 9 0.52 17.39710948072986 8.93366532548535 2.7734085101071257 0 0 0
326 28 20 -0.5 18.054191645757935 7.991840199637883 2.3449717336082982 0 0 0
327 28 19 -0.35 18.539085357626995 9.416757136927272 3.465906491974496 0 0 0
333 28 11 0.06 0.15624639933592258 9.943498337356132 2.7721476721781557 1 0 0
676 59 2 0.22 2.5296926777858757 10.180197844159322 3.013437862039082 0 0 0
678 59 11 0.06 1.89703164564062 9.902530076396934 2.1396420535832688 0 0 0
673 59 19 -0.35 2.265474479914927 8.8626949095745 3.4781467251796263 0 0 0
674 59 19 -0.35 3.862687000935154 9.190547862225454 1.9418782953376805 0 0 0
675 59 2 0.22 4.205567209346704 10.113749087032204 2.921365881456846 0 0 0
680 59 11 0.06 4.840090393073194 9.629813371541857 2.1731631487561027 0 0 0
727 64 11 0.06 11.931396880406089 10.334841796372656 2.1583332702806155 0 0 0
729 64 11 0.06 15.13561051238471 10.353708101333977 2.1829443620140934 0 0 0
578 49 11 0.06 4.2358719250467995 13.343049492120679 2.9792260881095936 0 0 0
84 7 11 0.06 7.645890720293253 13.705047504382012 1.7034046875596855 0 0 0
580 49 11 0.06 7.347876615169538 13.207882858447398 3.087739371274281 0 0 0
238 20 11 0.06 2.3090166566344874 15.710629060932728 2.1907624694048424 0 0 0
658 57 11 0.06 7.0521684854308795 15.289114880002764 3.9696794600049343 0 0 0
78 7 1 0.22 8.438580431837721 14.454995610500632 1.5173908946829073 0 0 0
82 7 11 0.06 8.323875678100638 14.548762743847725 2.5141651968340852 0 0 0
186 16 1 0.22 8.497848933229456 17.045496494204777 3.416599167191635 0 0 0
191 16 11 0.06 7.716721705100374 17.0365936775666 2.6410943293010556 0 0 0
192 16 11 0.06 8.147283363200193 16.121680995673987 3.033779358922751 0 0 0
235 20 11 0.06 9.122649292214758 15.827395818087645 1.9133166669284416 0 0 0
73 7 9 0.52 11.066849492871992 15.044527001726482 1.713798559449564 0 0 0
76 7 19 -0.35 9.867880445092567 14.189337561899602 1.5020651682386117 0 0 0
184 16 19 -0.35 9.822157336048502 16.452711767151584 3.2636451146549206 0 0 0
74 7 20 -0.5 11.631291465288843 14.753875841810336 2.7292176231964653 0 0 0
75 7 19 -0.35 12.264236714945302 14.876700660288606 0.9622372956467322 0 0 0
181 16 9 0.52 11.213548574831034 16.939592749192645 3.402794876747604 0 0 0
182 16 20 -0.5 11.42154565565808 15.915827515523205 3.955594986322844 0 0 0
183 16 19 -0.35 12.557354919510738 16.548607073675157 2.989327996831913 0 0 0
660 57 11 0.06 10.086059926675661 15.06756138153613 3.7823836028411284 0 0 0
77 7 1 0.22 13.572232967279092 15.143334476827151 1.6423256663827344 0 0 0
79 7 11 0.06 13.972579050678872 14.90692351212078 2.677725490086572 0 0 0
81 7 11 0.06 14.011386225453986 16.074641942031683 1.3406448807064766 0 0 0
185 16 1 0.22 13.892535090404266 16.66682076679148 3.5237963692018686 0 0 0
188 16 11 0.06 14.558476270625814 16.490715224260928 2.6744167381850015 0 0 0
189 16 11 0.06 14.1778763746016 17.619021062149198 3.3835947690251236 0 0 0
510 43 1 0.22 7.045874676539782 1.5602160899828903 4.202869556981984 0 0 0
514 43 11 0.06 6.466059716368058 1.8470811704850476 5.114635045196829 0 0 0
516 43 11 0.06 6.6103304685104805 0.5680342862302845 4.25743623322739 0 0 0
508 43 19 -0.35 8.478037427145388 2.058823018302702 4.337454022809386 0 0 0
505 43 9 0.52 9.90260595936167 1.5141685791054513 4.277838930561257 0 0 0
506 43 20 -0.5 10.486311128237002 1.2660574876057409 3.2361683201553366 0 0 0
507 43 19 -0.35 10.981153945444213 2.2177706101465247 4.8930113071290116 0 0 0
509 43 1 0.22 12.32656085670727 1.947118136350024 4.271745722469636 0 0 0
511 43 11 0.06 13.022966253821654 1.483619514273661 4.964380494533784 0 0 0
54 5 1 0.22 1.75747133463825 3.0928506129001505 4.184249919369182 0 0 0
58 5 11 0.06 1.1440655473144186 3.401796606157463 5.048862103576146 0 0 0
60 5 11 0.06 1.2639825810287264 2.125112991418788 4.170667562008842 0 0 0
52 5 19 -0.35 3.223732987575884 2.920168357964577 4.511730337978217 0 0 0
49 5 9 0.52 4.5674607880377565 3.397959999760423 3.991130103056768 0 0 0
50 5 20 -0.5 5.158330065537005 4.342817936066646 4.482074378362859 0 0 0
51 5 19 -0.35 5.666500005092697 2.563132952186364 4.057494180439933 0 0 0
53 5 1 0.22 7.034467021129285 3.210406443844207 4.199344248756 0 0 0
55 5 11 0.06 7.5812613111040585 3.0049507115335294 5.12659899604719 0 0 0
287 24 11 0.06 12.40154026310422 3.1723754794658254 5.442274338279142 0 0 0
513 43 11 0.06 12.8840672118711 2.8383356696471935 4.04630182056708 0 0 0
284 24 11 0.06 19.082129387881185 2.6603736406983187 5.233383675235667 0 0 0
57 5 11 0.06 7.293294334818028 4.282544403844177 4.192251566272342 0 0 0
372 31 11 0.06 9.800806377261766 4.355754760404651 5.097492259773121 0 0 0
120 10 11 0.06 14.626982043058963 4.388220171019967 3.4753648992208337 0 0 0
113 10 1 0.22 0.2081627932665012 5.654230397794218 3.5325147329571807 1 0 0
115 10 11 0.06 0.5145127777263835 5.2971945870654995 4.551980133555195 1 0 0
117 10 11 0.06 0.6590839877943707 6.617154057800114 3.672637023352157 1 0 0
491 41 11 0.06 6.936885857559979 6.2531208318999445 4.567477705602453 0 0 0
366 31 1 0.22 10.511034084568768 5.195391658601598 5.15053936033669 0 0 0
371 31 11 0.06 9.96019741733149 5.7261120472509885 4.324856786634188 0 0 0
364 31 19 -0.35 12.01864823418617 5.03253614765032 4.8221792060936846 0 0 0
118 10 11 0.06 14.107370380986394 4.940817073209708 3.9955700889125905 0 0 0
361 31 9 0.52 13.503217984668085 4.968688815957611 5.401570851873517 0 0 0
362 31 20 -0.5 14.245062515636107 5.949820293117214 5.177347250429023 0 0 0
363 31 19 -0.35 14.488834064756135 5.389828524427662 6.339985428268483 0 0 0
488 41 11 0.06 12.884622588463554 6.234783394360341 4.511438544925431 0 0 0
112 10 19 -0.35 16.417335188198475 5.074060795447242 3.2182309202668558 0 0 0
114 10 1 0.22 14.949139603836556 5.41518587134429 3.4770600094946773 0 0 0
365 31 1 0.22 15.82624800398833 5.7045166968319965 5.608098870035087 0 0 0
109 10 9 0.52 17.769785173874684 5.620212194235448 3.7109065299812487 0 0 0
368 31 11 0.06 16.167657652705184 5.805580177811468 4.535532955510281 0 0 0
369 31 11 0.06 16.130694030085138 6.731595285475796 5.476802835102626 0 0 0
110 10 20 -0.5 18.4132244948883 5.1524998578835435 4.6421698549201755 0 0 0
111 10 19 -0.35 18.879060193655715 5.740576229142421 2.848003108024557 0 0 0
331 28 11 0.06 0.4924148097932667 8.407407679722631 3.699989922802756 1 0 0
214 18 11 0.06 7.8474740148946385 8.003028406197 4.468558876474187 0 0 0
211 18 11 0.06 14.604644308437676 7.54258598518523 4.863930418412774 0 0 0
334 28 11 0.06 14.019236310425384 9.586486347986865 4.096589947051093 0 0 0
48 4 11 0.06 17.656884401007336 8.276429418648206 4.982881970884826 -1 0 0
37 4 9 0.52 1.155035951313483 9.073063429620513 5.509663539738546 0 0 0
677 59 11 0.06 1.7464092511188896 9.71000225460546 3.617653122901187 0 0 0
38 4 20 -0.5 1.9318547869420797 9.995916201611893 5.585705403693449 0 0 0
39 4 19 -0.35 2.3715630814782114 8.543598545588358 5.004346619454727 0 0 0
41 4 1 0.22 3.5410273095620197 9.494335589096396 5.3127928308253605 0 0 0
44 4 11 0.06 3.9771086239693645 9.080743888085207 4.430982499855348 0 0 0
45 4 11 0.06 4.23074217873634 10.237172013926973 4.8404266172177275 0 0 0
679 59 11 0.06 5.045531921471179 9.711564236436544 3.5713004738078418 0 0 0
72 6 11 0.06 15.571161259374643 10.225870780163465 5.426943274096671 0 0 0
42 4 1 0.22 18.22336828615847 9.190361278015411 5.173053908683623 -1 0 0
47 4 11 0.06 17.476540224856695 9.843229476469155 4.609376491980222 -1 0 0
40 4 19 -0.35 19.738109358297997 9.086242335929178 4.8369647661744795 -1 0 0
63 6 19 -0.35 0.08170883890718517 10.496560012972225 5.584226310974748 1 0 0
65 6 1 0.22 1.3335841762507625 11.340970889522863 5.324846638223256 1 0 0
68 6 11 0.06 1.896722164475971 11.02118798311494 4.430649278322428 1 0 0
69 6 11 0.06 1.8392754938655653 12.15472735012903 4.707717295011663 1 0 0
248 21 11 0.06 6.0453260075202655 11.81244100701531 4.75749830481895 0 0 0
571 49 9 0.52 5.66929717813288 11.846062254655784 3.298541970837003 0 0 0
572 49 20 -0.5 6.786392992420788 11.350419904559445 3.466319792805767 0 0 0
479 40 11 0.06 7.8529185231848455 11.928231584886577 4.472246655456423 0 0 0
384 32 11 0.06 12.922223300650879 12.298295276618054 4.65826364974352 0 0 0
476 40 11 0.06 14.201600791863225 11.475358505081635 4.6012812820694275 0 0 0
66 6 1 0.22 16.243814250577817 11.086672880502288 5.418438280219487 0 0 0
71 6 11 0.06 15.981905148097905 10.892882666655817 4.377836510196985 0 0 0
64 6 19 -0.35 17.713867850737774 11.193740134570666 5.66124049601898 0 0 0
61 6 9 0.52 18.869142327475732 10.529123461602081 4.935256516315399 0 0 0
62 6 20 -0.5 19.68689583986521 10.765853315304701 4.047623649480563 0 0 0
251 21 11 0.06 19.650797875330536 12.12755940107921 4.688933865592264 -1 0 0
577 49 11 0.06 4.073657388768228 13.66513144061122 4.406247589440325 0 0 0
573 49 19 -0.35 4.70520095325087 12.320162130510838 4.177442568636272 0 0 0
576 49 2 0.22 4.936259912783102 13.713429771330716 3.7710444094870317 0 0 0
574 49 19 -0.35 5.848869157260237 13.085575298776725 2.8774130323087026 0 0 0
575 49 2 0.22 6.622312620523367 13.73564855721264 3.793517818497774 0 0 0
579 49 11 0.06 7.310707490264428 13.422424987551851 4.607662988977894 0 0 0
651 57 9 0.52 9.30933217541686 13.751782922850705 3.6741231656051476 0 0 0
652 57 20 -0.5 10.251870312440008 13.296906832630938 4.273624983333395 0 0 0
378 32 1 0.22 13.77171176822666 12.980968036778526 4.942070600357292 0 0 0
383 32 11 0.06 13.257232435664516 13.038581345132416 3.9801029236687504 0 0 0
376 32 19 -0.35 15.330791978871662 13.133459757784104 4.6565579794266405 0 0 0
373 32 9 0.52 16.746276452140158 12.767627366100697 5.292055214059167 0 0 0
374 32 20 -0.5 17.166199114441167 13.416869002878 6.220627164129554 0 0 0
375 32 19 -0.35 18.124356279666415 12.656569579450695 4.7101814274276 0 0 0
377 32 1 0.22 19.173764077608823 13.632053695574077 5.309049515751395 0 0 0
380 32 11 0.06 19.820580135101796 13.835341317999712 4.464548510347516 0 0 0
381 32 11 0.06 0.2736289212823524 13.608803617595797 5.409643201017465 1 0 0
656 57 2 0.22 7.718828017554803 15.115037923900884 4.882462769394764 0 0 0
657 57 11 0.06 6.842806176589407 14.940746828450134 5.552313897883509 0 0 0
190 16 11 0.06 8.019731799935109 16.86449336007682 4.388844871490345 0 0 0
653 57 19 -0.35 8.443815754872924 14.672001570710627 4.028530796509417 0 0 0
654 57 19 -0.35 9.741959368018087 14.934026081617473 3.2472292136487853 0 0 0
655 57 2 0.22 9.442099163664778 15.43398835435592 4.63102650302572 0 0 0
659 57 11 0.06 10.367392436549567 15.025379725194403 5.1480922508693885 0 0 0
187 16 11 0.06 14.270228468333011 16.17971196366374 4.434085874450018 0 0 0
132 11 11 0.06 9.702517106760695 18.029335502573396 4.280626684112902 0 0 0
558 47 11 0.06 8.077969662293198 19.64615328065166 5.094426946557229 0 0 0
126 11 1 0.22 10.221018375519892 18.96218933547006 4.167800312339486 0 0 0
130 11 11 0.06 9.455412872656144 19.051741022180952 4.919119853588309 0 0 0
131 11 11 0.06 9.688988373642685 19.18002825948158 3.2393805713867962 0 0 0
124 11 19 -0.35 11.637755124926043 18.406115584473195 4.258263092786151 0 0 0
560 47 11 0.06 11.382649235125248 19.678189885317995 5.21352248233562 0 0 0
121 11 9 0.52 12.995366616577531 19.09494428387124 4.223766747669562 0 0 0
122 11 20 -0.5 13.093209237406166 19.773206532534054 5.188153191577654 0 0 0
123 11 19 -0.35 14.297372660883353 18.56598025972692 4.607687625620021 0 0 0
125 11 1 0.22 15.639039223402907 19.129573096241522 4.4477891991673015 0 0 0
127 11 11 0.06 16.15729454743525 18.821727555083505 5.36575459645883 0 0 0
128 11 11 0.06 16.159396538137507 18.825611469042215 3.527259421931139 0 0 0
129 11 11 0.06 15.926939352811436 0.17269630113482476 4.523316328276204 0 1 0
286 24 11 0.06 12.64614904342218 3.0842546094820875 7.20349565367011 0 0 0
288 24 11 0.06 12.512552632422926 1.8631099578702326 6.325337198714985 0 0 0
280 24 19 -0.35 14.558375542762423 2.4679547102729726 5.998840886089234 0 0 0
282 24 1 0.22 13.075369653527753 2.797563772041818 6.240456818486382 0 0 0
277 24 9 0.52 15.953851241334906 3.103604347713752 6.187424782889419 0 0 0
278 24 20 -0.5 16.61773938745815 3.0560976314020913 7.214802038416376 0 0 0
279 24 19 -0.35 17.043052874635723 2.71050654840554 5.371110449268525 0 0 0
281 24 1 0.22 18.384805894587146 2.9658746604054946 5.997003387581784 0 0 0
283 24 11 0.06 18.77410728790026 2.6197374892567487 6.9857250124623755 0 0 0
698 61 11 0.06 2.284009742018211 5.428696721315311 6.504539006005075 0 0 0
693 61 19 -0.35 2.7488616756703856 4.311840388199659 6.953878968093078 0 0 0
691 61 9 0.52 4.02997213237597 3.9760090196551845 7.4125285752280785 0 0 0
692 61 20 -0.5 5.014788339392492 3.27384696413783 7.190462344727867 0 0 0
694 61 19 -0.35 4.4424176620921845 4.900797645025061 6.580396325165262 0 0 0
492 41 11 0.06 7.158420915209757 5.038803857199248 5.543635884032035 0 0 0
700 61 11 0.06 5.225071730556066 5.403702805909768 6.611624773505132 0 0 0
285 24 11 0.06 18.762979622780346 3.978674081556926 6.080844070930118 0 0 0
696 61 2 0.22 2.930283622469109 5.721348940854629 7.3350141772895086 0 0 0
490 41 11 0.06 6.873845346178124 6.46634296910645 6.341630524000147 0 0 0
695 61 2 0.22 4.59690225827215 5.902303299965083 7.401427440645556 0 0 0
734 68 31 1 7.400155128272404 5.5891932363162224 7.43953875457732 0 0 0
484 41 19 -0.35 9.000553804911165 6.060171220293339 5.434061320978906 0 0 0
486 41 1 0.22 7.489024785234064 6.084753760973683 5.510435127901079 0 0 0
370 31 11 0.06 10.100788064951205 5.3151435906043325 6.167802316673783 0 0 0
481 41 9 0.52 10.279506436754044 6.807354536295679 5.864538672055981 0 0 0
482 41 20 -0.5 10.882704973291291 6.597438506977889 6.920143622057031 0 0 0
483 41 19 -0.35 11.357863390042302 6.54296730919734 5.0268232297561 0 0 0
485 41 1 0.22 12.702688758952917 6.536456477329765 5.56814880708858 0 0 0
487 41 11 0.06 13.03826543843995 6.020643151150488 6.51244476105676 0 0 0
489 41 11 0.06 13.301757494074463 7.435312852752056 5.711002630108662 0 0 0
367 31 11 0.06 16.590851313409114 5.565032309231754 6.352711648182659 0 0 0
359 30 11 0.06 0.5330725657819598 8.485781490331751 6.74710819545723 0 0 0
356 30 11 0.06 7.087020044676826 8.1896435096797 6.74065160861635 0 0 0
43 4 11 0.06 4.2094643425965685 9.303038786098075 6.159593704725097 0 0 0
46 4 11 0.06 17.845669544970765 9.575800257885657 6.123128360587211 -1 0 0
244 21 19 -0.35 1.426537662431908 12.80532255126643 6.034742359328066 0 0 0
67 6 11 0.06 1.7382404562654203 11.31122831432335 6.337127108168112 1 0 0
241 21 9 0.52 2.8863828754188163 12.20992509147491 5.913323552299946 0 0 0
242 21 20 -0.5 3.2078087900110375 11.305584051068445 5.225567210058941 0 0 0
243 21 19 -0.35 4.13138182303526 12.941923159652363 5.7548611005088155 0 0 0
245 21 1 0.22 5.443775752970924 12.212237502390078 5.602323079489773 0 0 0
247 21 11 0.06 5.757673161328672 11.5347222391333 6.412324345901997 0 0 0
611 53 9 0.52 7.284911148877975 12.555846806955161 7.373956745367226 0 0 0
474 40 1 0.22 8.207542422829135 11.741427776474493 5.494793006615828 0 0 0
478 40 11 0.06 7.440174543395173 11.495246212260493 6.239717633932376 0 0 0
480 40 11 0.06 7.860602749766331 10.751552399511574 5.372909909793894 0 0 0
612 53 20 -0.5 8.380614096729861 11.980133251616692 7.320457554408682 0 0 0
469 40 9 0.52 11.01365059433842 11.77918394417659 5.392309174520417 0 0 0
472 40 19 -0.35 9.623821066011008 11.807957557113971 6.011001650158848 0 0 0
470 40 20 -0.5 11.555787227938476 12.856634371806019 5.412589229040138 0 0 0
471 40 19 -0.35 12.148772474908803 10.921100147824319 5.7816119208768475 0 0 0
473 40 1 0.22 13.621199822810572 11.303270596650403 5.541399405740333 0 0 0
475 40 11 0.06 14.014954957789493 11.347222158027945 6.565251162653039 0 0 0
631 55 9 0.52 14.649838610618891 12.696652630510883 7.446172461980623 0 0 0
70 6 11 0.06 15.660009355479954 11.070240769730278 6.360340908537101 0 0 0
632 55 20 -0.5 15.696332315845023 12.144382207664263 7.770196067863597 0 0 0
246 21 1 0.22 0.08657227314859961 12.09841757118786 5.727713267821402 0 0 0
250 21 11 0.06 19.094565876017782 12.191771160401894 6.208716832123799 -1 0 0
252 21 11 0.06 19.72864337604322 11.558286032974154 6.614991225213446 -1 0 0
616 53 2 0.22 6.121512632937172 14.35210308591519 7.167710932027007 0 0 0
618 53 11 0.06 5.4181456777843255 14.037333563299585 6.395541138216204 0 0 0
249 21 11 0.06 6.065939020134328 13.084980817051592 5.422064490929425 0 0 0
613 53 19 -0.35 5.974663139173042 12.93767560458931 6.941077106893113 0 0 0
614 53 19 -0.35 7.693492573185677 13.216581036460383 6.277429457951574 0 0 0
615 53 2 0.22 7.7948234497199484 14.293455501112366 7.078724494334684 0 0 0
620 53 11 0.06 8.408043459142995 13.814996722181752 6.282734731886944 0 0 0
636 55 2 0.22 13.420911031155836 14.368882760012426 6.994615124097846 0 0 0
638 55 11 0.06 12.638792445785798 14.268974473720496 6.172310266547699 0 0 0
382 32 11 0.06 13.294095365838514 12.931735651548308 5.952035793704202 0 0 0
477 40 11 0.06 14.453122749655742 11.945370951008803 5.805403598529909 0 0 0
633 55 19 -0.35 13.876382728256697 13.673179424577175 8.160847053868572 0 0 0
634 55 19 -0.35 14.922454237953128 13.290814381469296 6.274542519593238 0 0 0
635 55 2 0.22 15.063422412862995 14.509025294830113 6.854321534002724 0 0 0
640 55 11 0.06 15.78571571721778 14.045996943360143 6.17212384761929 0 0 0
379 32 11 0.06 19.464923149237624 13.716301077688723 6.3866479101348625 0 0 0
551 47 9 0.52 9.76440865835475 18.11759502588694 6.123465997717335 0 0 0
552 47 20 -0.5 10.720020299935335 17.779107323739687 5.401821768341389 0 0 0
95 8 11 0.06 4.0500053641113505 18.53790726189562 6.734962651140325 0 0 0
553 47 19 -0.35 8.50876448900922 18.80798161560188 6.063189869560147 0 0 0
556 47 2 0.22 8.829709877104628 0.17637580887872928 5.711639672770192 0 1 0
557 47 11 0.06 8.18725815854939 19.7917166169326 6.51762676247032 0 0 0
92 8 11 0.06 10.876658401874723 17.86191767279967 7.22618517965026 0 0 0
554 47 19 -0.35 10.298665544223677 19.21236246779071 6.600527025406787 0 0 0
555 47 2 0.22 10.518382955325338 0.18830899428957518 5.728425465389434 0 1 0
559 47 11 0.06 11.089793106389884 19.718145387951235 6.575820638438098 0 0 0
697 61 11 0.06 2.204973256179513 5.352725750745625 8.055896170179656 0 0 0
699 61 11 0.06 5.358086728285437 5.37588853874482 8.046681616013714 0 0 0
354 30 1 0.22 1.11011396952103 8.29764640614093 7.6510497450746975 0 0 0
358 30 11 0.06 0.5900010492127025 8.529786261533197 8.583501855325439 0 0 0
360 30 11 0.06 0.6500235197939558 7.310928907535817 7.645461036731176 0 0 0
352 30 19 -0.35 2.5539046608142764 8.010834813793323 7.618794524782867 0 0 0
349 30 9 0.52 3.890741389913697 8.668716549102252 7.635975159165834 0 0 0
350 30 20 -0.5 4.208255653599503 7.498645953388413 7.633327649156051 0 0 0
351 30 19 -0.35 5.280717012512747 8.314911590954429 7.62489891168883 0 0 0
353 30 1 0.22 6.64856554217307 8.666648297604361 7.631106252101897 0 0 0
355 30 11 0.06 7.086849630576585 8.189281217500145 8.520461482908079 0 0 0
357 30 11 0.06 7.01327683058581 9.666396970697452 7.630149968290364 0 0 0
588 50 11 0.06 2.6398682095271604 12.695792131134253 8.389961877985304 0 0 0
583 50 19 -0.35 3.020516217433803 11.63451667486133 8.86283009729654 0 0 0
581 50 9 0.52 4.323555280909226 11.315217147869951 9.209519685786335 0 0 0
582 50 20 -0.5 5.442385132032143 11.028846774318591 8.84020418938166 0 0 0
584 50 19 -0.35 4.6084189364486825 12.335336922413335 8.411834066264879 0 0 0
590 50 11 0.06 5.7218639110199145 12.707414295195482 8.662022544133075 0 0 0
586 50 2 0.22 3.2624864221739855 13.022583361495547 9.239846493528079 0 0 0
617 53 11 0.06 5.315835233924378 13.808941860119813 7.706868859808152 0 0 0
585 50 2 0.22 4.9542326778499755 13.177985332055249 9.352552509346303 0 0 0
619 53 11 0.06 8.496638525693301 13.736925325360518 7.761946880549577 0 0 0
637 55 11 0.06 12.738295416723139 13.814147755359961 7.6563780058812325 0 0 0
639 55 11 0.06 15.744877631043646 13.986303320779145 7.59250713831305 0 0 0
504 42 11 0.06 5.433882353190087 15.695159173194314 8.777771364458404 0 0 0
96 8 11 0.06 4.003828432398934 17.244383154549293 7.526686447202961 0 0 0
503 42 11 0.06 5.552991721667607 16.8217467017679 7.8031968554232485 0 0 0
496 42 19 -0.35 7.382078785882225 16.33920310311043 8.67610518570835 0 0 0
498 42 1 0.22 5.960133732482231 16.64813788011878 8.795478312022558 0 0 0
493 42 9 0.52 8.74122569275869 16.835101142354706 8.985672046364972 0 0 0
494 42 20 -0.5 9.15871219245475 15.739277964987748 9.155064441097212 0 0 0
495 42 19 -0.35 9.965273011823722 16.888402519038312 8.221722838242526 0 0 0
497 42 1 0.22 11.362649242340987 16.946690658723785 8.759385719619143 0 0 0
500 42 11 0.06 11.90226604540315 16.535944705961413 7.9075840510842 0 0 0
501 42 11 0.06 11.86216060744913 17.914228136634037 8.76440460059553 0 0 0
90 8 1 0.22 4.600613336885627 18.160141930126606 7.6139947081533785 0 0 0
94 8 11 0.06 4.125835959126635 18.53698083306645 8.534749711336469 0 0 0
88 8 19 -0.35 6.084839540340898 18.37477369143839 7.283626617449237 0 0 0
85 8 9 0.52 7.457758857309667 18.084027983306118 7.91451456468349 0 0 0
86 8 20 -0.5 7.9472367546662674 19.031010086131708 8.469521710047596 0 0 0
87 8 19 -0.35 8.725441238873636 17.70058362154736 7.272723086287611 0 0 0
89 8 1 0.22 10.057018665933777 18.355739067812806 7.803264149922523 0 0 0
91 8 11 0.06 10.411800789561415 18.323730384846712 8.832030093074787 0 0 0
93 8 11 0.06 10.354632701182537 19.38249143161797 8.093665687704139 0 0 0
304 26 19 -0.35 0.9385423404612107 2.6784376904404814 10.733480408087836 0 0 0
301 26 9 0.52 2.303274537454815 3.095955459140028 10.263794984304166 0 0 0
302 26 20 -0.5 2.836183899651162 2.0779508413868677 9.939720839502488 0 0 0
303 26 19 -0.35 3.4630036951610994 3.5450581553964895 11.018072485615217 0 0 0
305 26 1 0.22 4.858013021978192 3.226712526909521 10.528300099463202 0 0 0
308 26 11 0.06 5.23624222427856 2.811263357827904 9.550569518465206 0 0 0
306 26 1 0.22 19.488014596574086 2.924843438990183 10.45932531233144 -1 0 0
311 26 11 0.06 18.974559890063954 3.1669438167581023 9.51341897279839 -1 0 0
312 26 11 0.06 18.98522090378788 1.96212231835514 10.503037050595799 -1 0 0
309 26 11 0.06 5.3786891426474535 4.171394900250497 10.493979184347955 0 0 0
548 46 11 0.06 12.270746443543503 5.62742964565541 9.554300687162378 0 0 0
541 46 9 0.52 14.09583410970174 4.25835883650246 10.200328612359538 0 0 0
543 46 19 -0.35 12.812308752893719 4.585375649549925 10.653324322951534 0 0 0
544 46 19 -0.35 14.52816895618881 5.187593255315366 11.01675304828099 0 0 0
542 46 20 -0.5 15.06232788914129 3.531472837825753 10.416794918825396 0 0 0
550 46 11 0.06 15.418610867251337 5.620124345172895 9.52292103841289 0 0 0
227 19 11 0.06 1.3514517745767929 6.21320148723939 10.115530674817949 0 0 0
224 19 11 0.06 7.600195409618921 5.624944024828574 10.05429561221242 0 0 0
546 46 2 0.22 13.006093284219322 5.991388341038188 10.269198026759188 0 0 0
545 46 2 0.22 14.682241614036295 6.172302063232768 10.172465873198592 0 0 0
568 48 11 0.06 6.562680343098347 7.811632154493828 10.277284732617758 0 0 0
570 48 11 0.06 9.610444829967761 7.878500590016921 10.338717491334775 0 0 0
12 1 11 0.06 12.954731657487406 8.593182729632302 10.416862016954312 0 0 0
428 36 11 0.06 2.042933017410012 9.698802745320052 10.159535058604979 1 0 0
155 13 11 0.06 5.591945257090724 9.633561498336334 9.403101291665747 0 0 0
156 13 11 0.06 5.7352718789456265 9.158254599015457 10.37042221641884 0 0 0
150 13 1 0.22 6.166573321679904 10.129208653932507 10.201836329103454 0 0 0
145 13 9 0.52 8.936714749885372 10.611993101100182 10.227431889791285 0 0 0
148 13 19 -0.35 7.62456265089325 9.838984897247478 10.34610999863692 0 0 0
146 13 20 -0.5 9.750338837095155 10.890309805041207 9.33727826807275 0 0 0
147 13 19 -0.35 9.968316906160336 9.853275229474777 10.650894884440309 0 0 0
149 13 1 0.22 11.290662926572857 10.382458485186064 10.15341036584801 0 0 0
152 13 11 0.06 11.635896235403317 10.276752383306835 9.105010942466 0 0 0
6 1 1 0.22 13.298073945737388 9.60276199141059 10.3655424782056 0 0 0
11 1 11 0.06 13.019500235345332 9.484536261705918 9.32053548519134 0 0 0
1 1 9 0.52 16.2424822317751 9.210620266616061 9.896544761457168 0 0 0
4 1 19 -0.35 14.693093788896974 9.643561489368487 10.396214698312397 0 0 0
431 36 11 0.06 15.905081969714521 10.668666112312549 10.321806064028474 0 0 0
2 1 20 -0.5 17.163344042920905 9.632355045013593 10.510744362832947 0 0 0
3 1 19 -0.35 17.538295582509193 9.755087360489195 9.25564845579592 0 0 0
5 1 1 0.22 19.008399120527432 9.973697737473977 10.082320154349294 0 0 0
8 1 11 0.06 19.70512000428055 9.644736629713053 9.255147528349376 0 0 0
9 1 11 0.06 19.292306099343236 11.027013876333585 9.977988862501324 0 0 0
587 50 11 0.06 2.525440654383098 12.61624133994367 9.93015268094513 0 0 0
589 50 11 0.06 5.670110607606916 12.593408410354554 9.987056969874027 0 0 0
153 13 11 0.06 11.635990745002657 11.412088211385024 10.160968428546633 0 0 0
681 60 9 0.52 14.899201049739844 13.951348478652772 10.3677146628276 0 0 0
682 60 20 -0.5 15.98211237419475 13.402388614152857 10.122482808023006 0 0 0
688 60 11 0.06 13.108670666974355 15.383394680219592 9.612863130790481 0 0 0
683 60 19 -0.35 14.005090606868901 14.587363650321182 9.482704386071237 0 0 0
686 60 2 0.22 13.843450300360432 15.772305405776217 10.296165659198776 0 0 0
684 60 19 -0.35 15.071102660980873 14.975152660011997 11.232213982184035 0 0 0
685 60 2 0.22 15.489898797921436 15.909712669353453 10.320746126144467 0 0 0
690 60 11 0.06 16.188778645745245 15.379799560209024 9.61580262161544 0 0 0
502 42 11 0.06 5.380848025331876 16.909644271064025 9.69465136824425 0 0 0
499 42 11 0.06 11.786081712022334 16.501160654474567 9.6924926309127 0 0 0
534 45 1 0.22 12.089692954358632 1.5589474691785776 12.536564601222272 0 0 0
539 45 11 0.06 11.512180465382489 1.62903916594081 11.594562611117544 0 0 0
540 45 11 0.06 11.454779065065203 0.7043173553834723 12.673675105341628 0 0 0
532 45 19 -0.35 13.492154877080875 1.1497382930315456 12.798609725865873 0 0 0
529 45 9 0.52 14.850866474382375 1.6093420993526557 12.382516023950414 0 0 0
530 45 20 -0.5 15.436939775915612 0.7723245837105979 11.744874932770065 0 0 0
531 45 19 -0.35 15.946233025797824 1.9383290622664937 13.247555709575588 0 0 0
533 45 1 0.22 17.345667076399288 1.6535931592765338 12.694615935532111 0 0 0
536 45 11 0.06 17.638959459120542 1.2777322979241046 11.684247548000533 0 0 0
419 35 11 0.06 1.6502180574482654 3.6493049692787 11.779052140141834 0 0 0
420 35 11 0.06 1.7500896596121638 2.5706982467986057 12.68228315146871 0 0 0
412 35 19 -0.35 3.6865473031024902 3.2643189815191254 12.48212237530511 0 0 0
414 35 1 0.22 2.233790446246372 3.541244465854466 12.686541079991224 0 0 0
307 26 11 0.06 5.434881458511226 2.7499952907341902 11.322952250194078 0 0 0
409 35 9 0.52 5.047203599810892 3.790162993779869 12.833857643373346 0 0 0
410 35 20 -0.5 5.538652143634738 2.8434671481830085 13.359521256004026 0 0 0
411 35 19 -0.35 6.254541734625063 3.9874763419217727 12.022864919047997 0 0 0
413 35 1 0.22 7.646420158650807 3.7812499096785417 12.609894316892483 0 0 0
416 35 11 0.06 8.220603651210501 3.4058593668059403 11.767555215196047 0 0 0
537 45 11 0.06 18.09736626357576 2.426949948966872 12.509906090060442 0 0 0
310 26 11 0.06 18.94997518177369 3.26644368850152 11.354277210767899 -1 0 0
228 19 11 0.06 1.4652390075388235 4.9001840764141 10.965853260169123 0 0 0
630 54 11 0.06 19.588502950789866 5.61802323733405 12.617783738669354 0 0 0
417 35 11 0.06 8.248981843289709 4.662769703918742 12.77292549948632 0 0 0
547 46 11 0.06 12.357822897306768 5.697161688051552 11.099871728733987 0 0 0
549 46 11 0.06 15.379272734089886 5.731989449090666 10.944625515355721 0 0 0
628 54 11 0.06 16.599088752395595 5.624520792714495 12.588912845090764 0 0 0
222 19 1 0.22 1.880380271692482 5.87229068788393 11.011465759027626 0 0 0
226 19 11 0.06 1.3916794135093364 6.2633289739404985 11.909045464268624 0 0 0
220 19 19 -0.35 3.293863439877662 6.2128242519253725 10.99972169414427 0 0 0
217 19 9 0.52 4.565754276143472 5.508324462859945 11.069753282672464 0 0 0
218 19 20 -0.5 4.977749986789826 6.650829609114316 10.986094798936191 0 0 0
219 19 19 -0.35 5.907452245390414 5.65529643403181 10.758041193369943 0 0 0
221 19 1 0.22 7.1749441620255805 5.281395262756818 11.023930109246871 0 0 0
223 19 11 0.06 7.726114700610466 5.713171061118064 11.831935848964 0 0 0
225 19 11 0.06 6.954314111190619 6.26322525428765 11.361076481334134 0 0 0
561 48 9 0.52 8.793296036636557 6.656579267285245 10.774310280073536 0 0 0
562 48 20 -0.5 9.82179910061227 6.045599467141211 10.493645889643105 0 0 0
348 29 11 0.06 4.940924566661881 8.129914048752237 12.073089357945914 0 0 0
566 48 2 0.22 7.314344093881871 8.144098555723366 11.043168376304829 0 0 0
567 48 11 0.06 6.597336831956788 7.772443809909367 11.835569902212773 0 0 0
563 48 19 -0.35 8.160026906345166 7.70982799125809 9.996874884770264 0 0 0
564 48 19 -0.35 8.844292112622584 7.11318564603521 12.002713012162573 0 0 0
565 48 2 0.22 8.962421085223786 8.268841096591572 11.206818995752126 0 0 0
569 48 11 0.06 9.80190705309754 7.747965386378161 11.731348301272813 0 0 0
432 36 11 0.06 15.697850254887147 8.958341741767526 11.330787036149538 0 0 0
425 36 1 0.22 1.6235508260998563 10.123781284908544 11.073586405708797 1 0 0
427 36 11 0.06 1.9851220724469203 9.669864197477217 12.00663887226161 1 0 0
429 36 11 0.06 1.802787919905728 11.191243664182924 11.011325530297892 1 0 0
154 13 11 0.06 5.583131640938991 10.52431270828119 11.062330063675736 0 0 0
342 29 1 0.22 5.277644617466189 9.157814595311276 12.104682082326107 0 0 0
347 29 11 0.06 4.556385520244236 9.414762873470256 11.306135208974565 0 0 0
340 29 19 -0.35 6.721909776396939 9.477236806644013 11.782201647756528 0 0 0
337 29 9 0.52 8.048370151513701 9.346266413761747 12.55884201898449 0 0 0
338 29 20 -0.5 8.867277775507047 8.496998083260218 12.73054654895325 0 0 0
339 29 19 -0.35 9.126196368780137 10.054405468346607 12.034958141929797 0 0 0
341 29 1 0.22 10.526158245746998 9.44497068074323 12.121282179142064 0 0 0
151 13 11 0.06 11.99363396247765 10.50188076567829 10.947696650164854 0 0 0
344 29 11 0.06 11.140151715441993 9.109076179571328 11.24651299940106 0 0 0
345 29 11 0.06 11.028780098649365 10.358255876794306 12.348131021995378 0 0 0
10 1 11 0.06 12.937180642633495 9.414520324643014 11.42591232722241 0 0 0
426 36 1 0.22 15.933258319116911 10.015699378842177 11.357784350209336 0 0 0
430 36 11 0.06 15.183283899833135 10.104142741273922 12.047033078115865 0 0 0
424 36 19 -0.35 17.15819509808494 9.653952992746092 12.081436652580006 0 0 0
7 1 11 0.06 19.728123785026007 9.89962258517953 11.998510640314766 0 0 0
421 36 9 0.52 18.306668557908907 10.03791862180928 11.414168859961643 0 0 0
422 36 20 -0.5 18.607731760625946 8.858518337493853 11.199367700520288 0 0 0
423 36 19 -0.35 0.3870067910704601 9.651969492488272 10.579465431595507 1 0 0
324 27 11 0.06 0.9248894617129306 11.948760770833259 12.456983575589348 0 0 0
35 3 11 0.06 11.979526492477921 12.780231097137506 11.993330264548002 0 0 0
32 3 11 0.06 18.007881395333587 12.250934061383296 12.169516005128024 0 0 0
318 27 1 0.22 1.2996360437619792 12.9502012632386 12.406893877447251 0 0 0
323 27 11 0.06 0.823772483413378 12.807703368439247 11.426292461465456 0 0 0
521 44 1 0.22 0.08590656404536987 14.19497185425301 12.193750106870905 1 0 0
524 44 11 0.06 0.5694397795204431 14.399132358345103 11.236161607689713 1 0 0
316 27 19 -0.35 2.7283430880958406 13.436225273876865 12.620753992163692 0 0 0
313 27 9 0.52 4.144911707034481 13.133596356769752 12.125578626902682 0 0 0
314 27 20 -0.5 4.8825771363799255 12.227518740020928 12.496619133991304 0 0 0
315 27 19 -0.35 5.136007540538533 14.10919476973286 12.32422095904857 0 0 0
317 27 1 0.22 6.5063386014859 13.52227275684368 12.375567532004714 0 0 0
320 27 11 0.06 6.993006726549331 13.13111486866298 11.470381371056435 0 0 0
321 27 11 0.06 7.121539477129457 14.387549039107896 12.380015040187583 0 0 0
522 44 1 0.22 14.61578558160236 13.889956909923074 12.237786376056286 0 0 0
527 44 11 0.06 13.847852250970178 14.136989116097334 11.474433305128262 0 0 0
528 44 11 0.06 14.184465198344933 12.937915136715388 11.935404832612209 0 0 0
520 44 19 -0.35 16.092050100841895 13.891668214051881 11.872640367762793 0 0 0
517 44 9 0.52 17.497190813758365 14.170464197338422 12.353552174183255 0 0 0
518 44 20 -0.5 17.784247601579676 15.084317830302611 11.653896835904314 0 0 0
519 44 19 -0.35 18.750962745987295 13.544467665520312 11.94340136561203 0 0 0
525 44 11 0.06 0.4215368810402998 15.221950629042539 12.140434062635507 1 0 0
687 60 11 0.06 13.154498586687815 15.425940688758079 11.12869782296847 0 0 0
689 60 11 0.06 16.213773249324927 15.498847468923278 11.067702109243983 0 0 0
438 37 1 0.22 3.1470541514661985 17.713589762518456 12.628033961799256 0 0 0
443 37 11 0.06 2.623391285226944 17.945175992844273 11.69298639301903 0 0 0
444 37 11 0.06 2.6741297612753385 16.730932467262736 12.6372780827179 0 0 0
436 37 19 -0.35 4.5952797593558925 17.434977412966358 12.680427252950455 0 0 0
433 37 9 0.52 5.9272943053731275 18.1051297610583 12.565484622685956 0 0 0
434 37 20 -0.5 6.291015955476705 16.972723179927094 12.38770807337276 0 0 0
435 37 19 -0.35 7.3053322502423965 17.764777052967098 12.792019780566553 0 0 0
437 37 1 0.22 8.678700861699587 18.07600529882309 12.61595571857952 0 0 0
440 37 11 0.06 9.113407488902203 17.596494001136204 11.735145498081408 0 0 0
701 62 9 0.52 13.285983527856457 18.011927721572274 11.677157480626912 0 0 0
702 62 20 -0.5 14.279695147568937 17.31809411287125 11.86905937958057 0 0 0
441 37 11 0.06 9.0475806728869 19.07673276026748 12.63330661903351 0 0 0
708 62 11 0.06 11.488449760935124 19.37087409285207 10.915413846807937 0 0 0
703 62 19 -0.35 12.035373456402338 18.32824646264223 12.18929603945861 0 0 0
706 62 2 0.22 12.206234761411604 19.695616277926742 11.669834694041391 0 0 0
704 62 19 -0.35 13.698056789325575 18.985577057337586 12.453642737743564 0 0 0
705 62 2 0.22 13.886803445558277 19.919203485501416 11.57641650154423 0 0 0
710 62 11 0.06 14.666695900734462 19.36737845519765 10.971105551888222 0 0 0
538 45 11 0.06 11.566509891594519 1.4970620450104988 13.468083630847435 0 0 0
535 45 11 0.06 17.950631381884303 1.2625766582619782 13.507831971120272 0 0 0
418 35 11 0.06 1.7025877889488024 3.7914467714337747 13.61498066933313 0 0 0
415 35 11 0.06 8.019000499189232 3.3526365521361083 13.578936903214395 0 0 0
162 14 1 0.22 11.012720724121015 2.873963117192997 14.173188506783097 0 0 0
167 14 11 0.06 10.468962696527552 3.1049843127293024 13.240551361832148 0 0 0
168 14 11 0.06 10.26194069503474 2.076385420022072 14.342277506411422 0 0 0
160 14 19 -0.35 12.498663779867556 2.5761073458904087 13.944891267155711 0 0 0
157 14 9 0.52 13.872801640296915 3.0874337094142 14.348615400238982 0 0 0
158 14 20 -0.5 14.491861611083259 2.388991241578245 15.12471251591601 0 0 0
159 14 19 -0.35 14.953889858790552 3.3255918480920297 13.44597116393228 0 0 0
161 14 1 0.22 16.301723687941553 3.1778895536625553 14.082914476829167 0 0 0
164 14 11 0.06 16.95965284706133 3.0504760913881994 13.275197762175905 0 0 0
629 54 11 0.06 19.741734202479538 5.590785344601546 14.057927152019683 0 0 0
627 54 11 0.06 16.581151138503415 5.581622397304612 14.109583674112399 0 0 0
165 14 11 0.06 16.822440402962513 4.085399650289637 14.27898872049756 0 0 0
621 54 9 0.52 18.31685590865283 4.141882549824217 13.410445681661342 0 0 0
623 54 19 -0.35 17.103925996488808 4.562117193441058 12.865600682032168 0 0 0
622 54 20 -0.5 19.36617140868073 3.5475119666993686 13.155834983248516 0 0 0
624 54 19 -0.35 18.65811511308742 5.153622717958268 12.657287311968311 0 0 0
626 54 2 0.22 17.295346796110938 5.9440119223299455 13.372691362700255 0 0 0
625 54 2 0.22 18.976127357234887 6.12703150910535 13.431283490165065 0 0 0
735 69 31 1 6.037 7.407 14.135 0 0 0
346 29 11 0.06 4.823313648523967 9.47847123709636 13.049201077047998 0 0 0
343 29 11 0.06 11.09886966147411 9.052414862979257 12.984267078765322 0 0 0
30 3 1 0.22 12.440482506523232 12.498221092289489 12.95777328094308 0 0 0
34 3 11 0.06 11.814573079749396 12.826887039964301 13.811557530809264 0 0 0
36 3 11 0.06 11.887297628648817 11.558613367627359 12.931435906189078 0 0 0
28 3 19 -0.35 13.909260409806507 12.147642330826587 13.199488380279206 0 0 0
25 3 9 0.52 15.308587837076578 12.721703116158475 12.913759086267286 0 0 0
26 3 20 -0.5 15.937075673707298 12.393217552134393 11.914655916180275 0 0 0
27 3 19 -0.35 16.382810834786422 12.598318139200135 13.838469281586608 0 0 0
29 3 1 0.22 17.739506759479468 12.611050264169767 13.202667545466637 0 0 0
31 3 11 0.06 18.401658747782037 12.17346855429516 13.922211455403719 0 0 0
322 27 11 0.06 0.7283678829373271 12.955723450260026 13.354177155166832 0 0 0
523 44 11 0.06 0.4362574560033272 14.424876043832947 13.21619607585906 1 0 0
319 27 11 0.06 7.004325050676013 13.127640643173791 13.283976977582979 0 0 0
526 44 11 0.06 14.165010200076242 14.075491816207698 13.22408933180439 0 0 0
33 3 11 0.06 18.430617804087195 13.4116986887758 13.430723165869107 0 0 0
404 34 11 0.06 5.822802349305076 16.011648764412094 13.788563061680303 0 0 0
258 22 1 0.22 12.278562077792794 15.721147814573708 14.36628734615907 0 0 0
263 22 11 0.06 11.7663845356056 15.974259356315732 13.418757052216568 0 0 0
264 22 11 0.06 11.769039980739336 14.762653227397992 14.358871863106735 0 0 0
256 22 19 -0.35 13.737527628914993 15.41123308517164 14.600301620241583 0 0 0
253 22 9 0.52 15.097335265533932 15.935190100022472 14.188664298370323 0 0 0
254 22 20 -0.5 15.694008704349306 15.206668910835987 13.430755382654606 0 0 0
255 22 19 -0.35 16.209365225582253 16.2072932848725 15.067909678969693 0 0 0
257 22 1 0.22 17.578564152128962 16.00533845848219 14.46929827418759 0 0 0
260 22 11 0.06 17.903714281420797 15.601500310318375 13.470754330127669 0 0 0
407 34 11 0.06 19.773544370873957 16.45195983244492 13.60794565069291 -1 0 0
442 37 11 0.06 2.6135002462945334 17.97090775975518 13.551775868945453 0 0 0
439 37 11 0.06 9.122175529477069 17.604308356919457 13.515203287616007 0 0 0
261 22 11 0.06 18.118733118366272 16.93754899376803 14.395826807144234 0 0 0
707 62 11 0.06 11.573444948474583 19.22252172608544 12.431006942040902 0 0 0
709 62 11 0.06 14.549058623884877 19.519545229090866 12.404451140155125 0 0 0
166 14 11 0.06 10.570359587862164 3.133514463576694 15.134508173905335 0 0 0
163 14 11 0.06 16.672864742706924 2.7111951802858356 15.03623301642489 0 0 0
294 25 1 0.22 7.292992043445458 4.721005966471079 15.603048185485958 0 0 0
299 25 11 0.06 6.796375234148621 5.092253032809134 14.686026036799062 0 0 0
300 25 11 0.06 6.89973970900621 3.724958185836024 15.54790413544536 0 0 0
292 25 19 -0.35 8.779504273960056 5.074836186719936 15.813584261329382 0 0 0
289 25 9 0.52 10.153538112443822 4.567977158794726 15.25479101606256 0 0 0
290 25 20 -0.5 10.986205873506606 4.889933273547742 14.394260611643825 0 0 0
291 25 19 -0.35 11.224744721892305 4.830187420696301 16.044890066549005 0 0 0
293 25 1 0.22 12.582664699944994 4.967175845646269 15.47939405932149 0 0 0
296 25 11 0.06 12.978434791583384 4.748132965863255 14.469222767670123 0 0 0
275 23 11 0.06 2.8135375910557974 7.386866764648585 15.913290057628785 0 0 0
272 23 11 0.06 8.943276425620763 7.062497729467095 15.826223243645236 0 0 0
297 25 11 0.06 13.031387781692901 5.89449808645846 15.604033593951693 0 0 0
608 52 11 0.06 10.630887181861212 9.016567828095791 14.99717165075229 0 0 0
601 52 9 0.52 12.643168618308463 7.69067930558427 15.979139396548629 0 0 0
603 52 19 -0.35 11.430432673876595 7.901772268703513 16.594896961883475 0 0 0
602 52 20 -0.5 13.751590929510495 7.1833789994794195 16.094119993892363 0 0 0
604 52 19 -0.35 13.017698715095523 8.748009867703743 16.66792050653358 0 0 0
610 52 11 0.06 13.930838846132986 9.088264161711832 15.15214499720858 0 0 0
395 33 11 0.06 3.0973552085114746 10.759058611014602 16.10539853610419 0 0 0
456 38 11 0.06 7.390588884786514 10.62344810847669 15.380545530980799 0 0 0
392 33 11 0.06 9.543236210382634 10.28829274514523 16.201290874796214 0 0 0
606 52 2 0.22 11.403860015730595 9.098737517512491 15.76950894809815 0 0 0
605 52 2 0.22 13.048303691180273 9.583728654148869 15.68086373816254 0 0 0
455 38 11 0.06 7.307617829470793 11.844501770746794 14.606106548590644 0 0 0
450 38 1 0.22 7.935905677167698 11.583162650116448 15.46927598071313 0 0 0
445 38 9 0.52 10.829790730306277 12.12961035377768 15.610553678918679 0 0 0
448 38 19 -0.35 9.437218372083633 11.601041405290887 15.125785950689812 0 0 0
23 2 11 0.06 11.11052411460141 10.656096287304296 15.94959550640636 0 0 0
446 38 20 -0.5 11.482151801984362 13.172165663862073 15.429859869176086 0 0 0
447 38 19 -0.35 11.899891481900799 11.50536347710788 14.958353291795396 0 0 0
449 38 1 0.22 13.249984722243994 11.804991715169745 15.442425128339929 0 0 0
452 38 11 0.06 13.966378031478369 11.389925311643594 14.733566114202139 0 0 0
453 38 11 0.06 13.686954535719293 12.770057677978834 15.305485940464756 0 0 0
20 2 11 0.06 17.690327176657227 10.979988984338553 15.529433191408499 0 0 0
400 34 19 -0.35 1.669767835893693 16.093068216789536 14.993727396525538 0 0 0
402 34 1 0.22 0.2060651229172566 16.160349278293012 14.582166492792448 0 0 0
397 34 9 0.52 3.0436539098788526 16.323290325106463 14.382081130347583 0 0 0
398 34 20 -0.5 3.6744909479318353 15.364820639015345 13.97375488185316 0 0 0
399 34 19 -0.35 4.103474727463324 17.00606216886382 15.065957169902273 0 0 0
401 34 1 0.22 5.470155468846141 16.51601452860312 14.71661470537293 0 0 0
403 34 11 0.06 6.035873555256189 16.115067005696183 15.552530868942727 0 0 0
467 39 11 0.06 7.519652706221528 16.000028617107752 15.972021809593864 0 0 0
262 22 11 0.06 11.70135404666704 15.99070471612952 15.266467007137328 0 0 0
464 39 11 0.06 13.493062883498707 15.460821880699259 16.11114801762914 0 0 0
259 22 11 0.06 18.186749583862717 15.512769709860777 15.220941415577476 0 0 0
406 34 11 0.06 19.543401590824548 16.507287950842386 15.399127029985776 -1 0 0
408 34 11 0.06 19.732859162414595 15.184851372178434 14.601125821791026 -1 0 0
104 9 11 0.06 0.6995463386129056 16.179232802160247 16.296901420369046 1 0 0
405 34 11 0.06 6.075344150852113 17.385231961164777 14.5825608556251 0 0 0
107 9 11 0.06 14.346205085555566 16.69233073750802 16.187793220829445 0 0 0
756 72 26 -0.39 15.433571 1.125857 17.368286375877943 0 0 0
731 65 31 1 13.151 2.946 16.72 0 0 0
298 25 11 0.06 6.604480700695213 4.645874142047707 16.48065657839111 0 0 0
202 17 11 0.06 10.640601978349864 5.223200119496014 18.516558388583828 0 0 0
203 17 11 0.06 10.256599205263651 5.569223127660021 16.95979215387411 0 0 0
204 17 11 0.06 10.70872918338917 4.010118822236808 17.249546011281055 0 0 0
196 17 19 -0.35 12.47624732325705 5.264240452620162 17.10714057350718 0 0 0
198 17 1 0.22 11.042179424412687 5.017771997569548 17.558794316347804 0 0 0
193 17 9 0.52 13.925425797185246 5.3323904351815 17.594246365986464 0 0 0
295 25 11 0.06 13.211419141574346 4.342565325565664 16.093496628013522 0 0 0
194 17 20 -0.5 14.443723269074836 5.452640297965951 16.518196187510664 0 0 0
195 17 19 -0.35 15.183546539719655 4.612652350541532 17.66918147051876 0 0 0
197 17 1 0.22 16.280409194989563 5.414496703149974 16.944784633291256 0 0 0
199 17 11 0.06 16.681499956731578 5.671445866309318 17.900059947394755 0 0 0
200 17 11 0.06 16.907074380855125 5.060246964144617 16.07852236490115 0 0 0
749 71 26 -0.39 17.693514665104804 4.704538481512292 17.31251617992448 0 0 0
270 23 1 0.22 3.2702059367969007 7.054271066711419 16.86308466531543 0 0 0
274 23 11 0.06 2.6518444459098087 7.388811942499929 17.714826815456522 0 0 0
276 23 11 0.06 2.81032064769169 6.072264954323182 16.864288838449678 0 0 0
268 23 19 -0.35 4.745567361090877 7.027741517863593 17.202122375897112 0 0 0
265 23 9 0.52 6.039561759621775 7.318828961428241 16.437196315302838 0 0 0
266 23 20 -0.5 6.904811554867374 6.551230631474648 16.04111110737893 0 0 0
267 23 19 -0.35 7.107208335725577 7.777042320881057 17.120016783255736 0 0 0
269 23 1 0.22 8.501401173745979 7.303399122397789 16.818688227015567 0 0 0
271 23 11 0.06 9.1823827224004 6.889880015124339 17.585435153479903 0 0 0
201 17 11 0.06 16.9234608239121 6.304651568758479 17.111887497402243 0 0 0
718 63 11 0.06 7.3224773501857685 8.765081990599171 18.313117628842885 0 0 0
273 23 11 0.06 9.005447047750142 8.23922627556659 16.852505814687213 0 0 0
607 52 11 0.06 10.6642113328805 8.917797611116551 16.572306841845418 0 0 0
720 63 11 0.06 10.422747414355069 8.892002103130608 18.119260813681514 0 0 0
609 52 11 0.06 13.747500844108579 9.264020470811326 16.519476574628094 0 0 0
390 33 1 0.22 3.587945041974734 10.517869601841864 17.05306869369081 0 0 0
394 33 11 0.06 3.0322901904460875 10.779758070812347 17.96506146894592 0 0 0
396 33 11 0.06 3.1087271783887003 9.539206083168176 17.055260340312138 0 0 0
388 33 19 -0.35 5.033722538638537 10.242123346570269 17.13513582436695 0 0 0
385 33 9 0.52 6.362493626698172 10.906402465962485 16.98360508748333 0 0 0
386 33 20 -0.5 6.726564330790994 9.946359397311094 17.592597968249652 0 0 0
387 33 19 -0.35 7.734539275591269 10.505557623582952 16.989034026200233 0 0 0
389 33 1 0.22 9.088981278771712 10.887115815738753 16.999807238433057 0 0 0
391 33 11 0.06 9.529021393855755 10.547567557185484 17.935467869982926 0 0 0
24 2 11 0.06 11.460557706444602 10.239058211586237 17.000638074039905 0 0 0
770 74 26 -0.39 18.69170202688206 9.423515760580468 17.029711107796743 0 0 0
454 38 11 0.06 7.477244946940605 12.05330780221008 16.36057173187053 0 0 0
393 33 11 0.06 9.461637584468974 11.882910900355458 16.982292359862253 0 0 0
18 2 1 0.22 11.859704918568305 11.131297652630408 16.627816897349472 0 0 0
22 2 11 0.06 11.237650126672632 11.503093447036758 17.45921377281134 0 0 0
13 2 9 0.52 14.663946424140613 10.96354725125234 16.37999925371462 0 0 0
16 2 19 -0.35 13.273391846125934 10.671484825921693 16.97872582078578 0 0 0
451 38 11 0.06 13.532767898645924 12.070210685832254 16.47198638215228 0 0 0
14 2 20 -0.5 14.94997363243786 12.051395745755256 15.950598176268075 0 0 0
15 2 19 -0.35 15.918239204213355 10.698282589020849 17.05129455572985 0 0 0
17 2 1 0.22 17.225751508387276 11.22870082408522 16.51470515039658 0 0 0
19 2 11 0.06 17.87037418824152 11.01602268703698 17.36263536980883 0 0 0
21 2 11 0.06 17.547537657927023 12.267647803038901 16.500181379357613 0 0 0
668 58 11 0.06 4.147018022776369 14.571554882715999 17.665417123961348 0 0 0
670 58 11 0.06 7.3129702193000234 14.102687824395817 18.17610252255407 0 0 0
742 70 26 -0.39 12.331889393748199 13.657012960003303 17.246563345592815 0 0 0
466 39 11 0.06 7.268628962544464 16.20019137113304 17.895907486651172 0 0 0
468 39 11 0.06 6.927513839771368 15.22240657636802 16.65773481092215 0 0 0
462 39 1 0.22 7.78619462853063 15.8347818926058 16.994522815573465 0 0 0
457 39 9 0.52 10.52895899159162 15.959385524506212 16.929619756379505 0 0 0
460 39 19 -0.35 9.17792387402436 15.4036530290719 17.20178057094004 0 0 0
458 39 20 -0.5 10.880342342922884 14.826948238786452 16.888682606427153 0 0 0
459 39 19 -0.35 11.825752872526017 15.748686338074958 17.466807344841715 0 0 0
108 9 11 0.06 14.756180647989051 15.2452920104585 17.0286160051084 0 0 0
461 39 1 0.22 13.142299251251613 15.911561913693244 17.046501455496767 0 0 0
463 39 11 0.06 13.542441256476176 15.34096113448754 17.906973113122323 0 0 0
101 9 1 0.22 19.947958267908472 16.39282059986098 17.045653211072644 0 0 0
103 9 11 0.06 0.3626016058813548 16.166800776797665 18.03962093058877 1 0 0
105 9 11 0.06 0.16180513450126413 17.47179470918914 17.041566576345684 1 0 0
102 9 1 0.22 14.92968628589167 16.32620404901547 17.050253273613784 0 0 0
106 9 11 0.06 14.528053549858466 16.841471390404468 17.949182513189463 0 0 0
465 39 11 0.06 13.246317129560369 16.985234866007097 17.168845451835814 0 0 0
100 9 19 -0.35 16.28695744610505 16.64115332339438 16.659369757671854 0 0 0
97 9 9 0.52 17.572131450142546 16.344141625863777 17.308905217720206 0 0 0
98 9 20 -0.5 18.157495977020837 17.310335352205957 17.742371805758616 0 0 0
99 9 19 -0.35 18.66186289088202 15.733191315934949 16.640288815715504 0 0 0
763 73 26 -0.39 9.638571 18.892286 17.227143375877944 0 0 0
732 66 31 1 13.086072269090467 18.449808247002988 16.840650909569227 0 0 0
760 73 26 -0.39 9.638571 0.4522856241220505 18.787143 0 1 0
752 72 26 -0.39 13.873571375877951 1.125857 18.928286 0 0 0
750 72 27 1.34 15.433571000000006 1.1258569999999943 18.928286 0 0 0
751 72 26 -0.39 16.99357062412206 1.125857 18.928286 0 0 0
179 15 11 0.06 10.72991729506528 3.759231386763885 19.91703518177806 0 0 -1
753 72 26 -0.39 15.433571 2.685856624122049 18.928286 0 0 0
176 15 11 0.06 17.20418500135989 3.592040522157779 0.32018600681897513 0 0 0
747 71 26 -0.39 17.52661356049401 3.308843177295563 18.607125636161477 0 0 0
745 71 26 -0.39 15.983105264741292 4.818131356123645 18.92624078661779 0 0 0
743 71 27 1.34 17.545597489892906 4.8775015189627675 18.834655139479658 0 0 0
744 71 26 -0.39 19.099526016507873 4.864843879903958 18.93546447225471 0 0 0
648 56 11 0.06 4.415329799431814 6.434588990262264 19.521507935409666 0 0 -1
650 56 11 0.06 7.504450876747749 6.414032640523072 19.52582884787151 0 0 -1
746 71 26 -0.39 17.56036054313045 6.433051297641786 18.854012836034496 0 0 0
717 63 11 0.06 7.340369667990567 8.84383831733848 19.59438664652475 0 0 0
711 63 9 0.52 9.117632026201607 7.3678084654760765 19.230791065212383 0 0 0
713 63 19 -0.35 7.852373951281965 7.740438636056317 18.76404646541285 0 0 0
712 63 20 -0.5 10.154312050256381 6.815941632361475 18.847555739210787 0 0 0
714 63 19 -0.35 9.224186585736549 8.344226914571426 18.409225758862963 0 0 0
719 63 11 0.06 10.407045231123972 8.630986849291943 19.569669871555128 0 0 0
768 74 26 -0.39 18.66559667380274 7.853888978666691 18.578783515575168 0 0 0
765 74 26 -0.39 0.2394394834488167 9.401513649880927 18.602783790896286 1 0 0
716 63 2 0.22 8.069830728770787 9.227829753147104 18.889551224787173 0 0 0
715 63 2 0.22 9.776004068060725 9.32956154548423 18.958811894558078 0 0 0
598 51 11 0.06 12.11868855055263 9.70947431805467 18.969756397349116 0 0 0
600 51 11 0.06 15.357122728957634 9.341811224338668 19.00415770249225 0 0 0
766 74 26 -0.39 17.119719909240864 9.427401987177088 18.569734227874665 0 0 0
764 74 27 1.34 18.679704752320426 9.413838314396338 18.59001644540037 0 0 0
740 70 26 -0.39 12.431825745106915 12.023980643166365 18.733176592294434 0 0 0
767 74 26 -0.39 18.699453069705402 10.973454185297829 18.612121301753618 0 0 0
667 58 11 0.06 4.039634000956517 14.464904569200318 19.188121942063702 0 0 0
663 58 19 -0.35 4.5351940234382555 13.473459585812922 18.004987700557802 0 0 0
661 58 9 0.52 5.831450137446801 13.174895708602602 18.41662984946385 0 0 0
662 58 20 -0.5 6.770320537231861 12.3975887650927 18.30588178058872 0 0 0
664 58 19 -0.35 6.313596053217859 14.036558191673022 17.557968429991885 0 0 0
669 58 11 0.06 7.229984590779043 14.442796156969516 19.275349507678953 0 0 0
738 70 26 -0.39 10.766811347441388 13.491772451018635 18.800651658754077 0 0 0
736 70 27 1.34 12.323650011954685 13.57607145487591 18.805657379407624 0 0 0
737 70 26 -0.39 13.88104887349347 13.681204412642725 18.805824133498238 0 0 0
666 58 2 0.22 4.81980888823498 14.812523496598379 18.49801254001093 0 0 0
665 58 2 0.22 6.540262140098559 14.873788334135046 18.53804531975396 0 0 0
739 70 26 -0.39 12.178975118669701 15.128539251390414 18.90830128092511 0 0 0
761 73 26 -0.39 9.638571 17.332286375877942 18.787143 0 0 0
759 73 26 -0.39 8.078571375877951 18.892286 18.787143 0 0 0
757 73 27 1.34 9.638571 18.892286 18.787143 0 0 0
758 73 26 -0.39 11.19857062412205 18.892286 18.787143 0 0 0
754 72 26 -0.39 15.433571 19.56585737587794 18.928286 0 -1 0

Velocities

755 0 0 0
178 0 0 0
180 0 0 0
172 0 0 0
174 0 0 0
169 0 0 0
170 0 0 0
171 0 0 0
173 0 0 0
175 0 0 0
143 0 0 0
641 0 0 0
642 0 0 0
140 0 0 0
177 0 0 0
748 0 0 0
647 0 0 0
643 0 0 0
646 0 0 0
644 0 0 0
645 0 0 0
649 0 0 0
591 0 0 0
721 0 0 0
592 0 0 0
722 0 0 0
596 0 0 0
597 0 0 0
726 0 0 0
728 0 0 0
593 0 0 0
594 0 0 0
723 0 0 0
724 0 0 0
595 0 0 0
599 0 0 0
725 0 0 0
730 0 0 0
769 0 0 0
733 0 0 0
741 0 0 0
234 0 0 0
239 0 0 0
240 0 0 0
232 0 0 0
229 0 0 0
230 0 0 0
231 0 0 0
83 0 0 0
233 0 0 0
236 0 0 0
80 0 0 0
237 0 0 0
762 0 0 0
515 0 0 0
512 0 0 0
59 0 0 0
144 0 0 0
56 0 0 0
142 0 0 0
136 0 0 0
138 0 0 0
133 0 0 0
134 0 0 0
135 0 0 0
137 0 0 0
139 0 0 0
141 0 0 0
116 0 0 0
216 0 0 0
119 0 0 0
329 0 0 0
332 0 0 0
671 0 0 0
672 0 0 0
210 0 0 0
215 0 0 0
208 0 0 0
205 0 0 0
206 0 0 0
207 0 0 0
209 0 0 0
212 0 0 0
213 0 0 0
330 0 0 0
335 0 0 0
336 0 0 0
328 0 0 0
325 0 0 0
326 0 0 0
327 0 0 0
333 0 0 0
676 0 0 0
678 0 0 0
673 0 0 0
674 0 0 0
675 0 0 0
680 0 0 0
727 0 0 0
729 0 0 0
578 0 0 0
84 0 0 0
580 0 0 0
238 0 0 0
658 0 0 0
78 0 0 0
82 0 0 0
186 0 0 0
191 0 0 0
192 0 0 0
235 0 0 0
73 0 0 0
76 0 0 0
184 0 0 0
74 0 0 0
75 0 0 0
181 0 0 0
182 0 0 0
183 0 0 0
660 0 0 0
77 0 0 0
79 0 0 0
81 0 0 0
185 0 0 0
188 0 0 0
189 0 0 0
510 0 0 0
514 0 0 0
516 0 0 0
508 0 0 0
505 0 0 0
506 0 0 0
507 0 0 0
509 0 0 0
511 0 0 0
54 0 0 0
58 0 0 0
60 0 0 0
52 0 0 0
49 0 0 0
50 0 0 0
51 0 0 0
53 0 0 0
55 0 0 0
287 0 0 0
513 0 0 0
284 0 0 0
57 0 0 0
372 0 0 0
120 0 0 0
113 0 0 0
115 0 0 0
117 0 0 0
491 0 0 0
366 0 0 0
371 0 0 0
364 0 0 0
118 0 0 0
361 0 0 0
362 0 0 0
363 0 0 0
488 0 0 0
112 0 0 0
114 0 0 0
365 0 0 0
109 0 0 0
368 0 0 0
369 0 0 0
110 0 0 0
111 0 0 0
331 0 0 0
214 0 0 0
211 0 0 0
334 0 0 0
48 0 0 0
37 0 0 0
677 0 0 0
38 0 0 0
39 0 0 0
41 0 0 0
44 0 0 0
45 0 0 0
679 0 0 0
72 0 0 0
42 0 0 0
47 0 0 0
40 0 0 0
63 0 0 0
65 0 0 0
68 0 0 0
69 0 0 0
248 0 0 0
571 0 0 0
572 0 0 0
479 0 0 0
384 0 0 0
476 0 0 0
66 0 0 0
71 0 0 0
64 0 0 0
61 0 0 0
62 0 0 0
251 0 0 0
577 0 0 0
573 0 0 0
576 0 0 0
574 0 0 0
575 0 0 0
579 0 0 0
651 0 0 0
652 0 0 0
378 0 0 0
383 0 0 0
376 0 0 0
373 0 0 0
374 0 0 0
375 0 0 0
377 0 0 0
380 0 0 0
381 0 0 0
656 0 0 0
657 0 0 0
190 0 0 0
653 0 0 0
654 0 0 0
655 0 0 0
659 0 0 0
187 0 0 0
132 0 0 0
558 0 0 0
126 0 0 0
130 0 0 0
131 0 0 0
124 0 0 0
560 0 0 0
121 0 0 0
122 0 0 0
123 0 0 0
125 0 0 0
127 0 0 0
128 0 0 0
129 0 0 0
286 0 0 0
288 0 0 0
280 0 0 0
282 0 0 0
277 0 0 0
278 0 0 0
279 0 0 0
281 0 0 0
283 0 0 0
698 0 0 0
693 0 0 0
691 0 0 0
692 0 0 0
694 0 0 0
492 0 0 0
700 0 0 0
285 0 0 0
696 0 0 0
490 0 0 0
695 0 0 0
734 0 0 0
484 0 0 0
486 0 0 0
370 0 0 0
481 0 0 0
482 0 0 0
483 0 0 0
485 0 0 0
487 0 0 0
489 0 0 0
367 0 0 0
359 0 0 0
356 0 0 0
43 0 0 0
46 0 0 0
244 0 0 0
67 0 0 0
241 0 0 0
242 0 0 0
243 0 0 0
245 0 0 0
247 0 0 0
611 0 0 0
474 0 0 0
478 0 0 0
480 0 0 0
612 0 0 0
469 0 0 0
472 0 0 0
470 0 0 0
471 0 0 0
473 0 0 0
475 0 0 0
631 0 0 0
70 0 0 0
632 0 0 0
246 0 0 0
250 0 0 0
252 0 0 0
616 0 0 0
618 0 0 0
249 0 0 0
613 0 0 0
614 0 0 0
615 0 0 0
620 0 0 0
636 0 0 0
638 0 0 0
382 0 0 0
477 0 0 0
633 0 0 0
634 0 0 0
635 0 0 0
640 0 0 0
379 0 0 0
551 0 0 0
552 0 0 0
95 0 0 0
553 0 0 0
556 0 0 0
557 0 0 0
92 0 0 0
554 0 0 0
555 0 0 0
559 0 0 0
697 0 0 0
699 0 0 0
354 0 0 0
358 0 0 0
360 0 0 0
352 0 0 0
349 0 0 0
350 0 0 0
351 0 0 0
353 0 0 0
355 0 0 0
357 0 0 0
588 0 0 0
583 0 0 0
581 0 0 0
582 0 0 0
584 0 0 0
590 0 0 0
586 0 0 0
617 0 0 0
585 0 0 0
619 0 0 0
637 0 0 0
639 0 0 0
504 0 0 0
96 0 0 0
503 0 0 0
496 0 0 0
498 0 0 0
493 0 0 0
494 0 0 0
495 0 0 0
497 0 0 0
500 0 0 0
501 0 0 0
90 0 0 0
94 0 0 0
88 0 0 0
85 0 0 0
86 0 0 0
87 0 0 0
89 0 0 0
91 0 0 0
93 0 0 0
304 0 0 0
301 0 0 0
302 0 0 0
303 0 0 0
305 0 0 0
308 0 0 0
306 0 0 0
311 0 0 0
312 0 0 0
309 0 0 0
548 0 0 0
541 0 0 0
543 0 0 0
544 0 0 0
542 0 0 0
550 0 0 0
227 0 0 0
224 0 0 0
546 0 0 0
545 0 0 0
568 0 0 0
570 0 0 0
12 0 0 0
428 0 0 0
155 0 0 0
156 0 0 0
150 0 0 0
145 0 0 0
148 0 0 0
146 0 0 0
147 0 0 0
149 0 0 0
152 0 0 0
6 0 0 0
11 0 0 0
1 0 0 0
4 0 0 0
431 0 0 0
2 0 0 0
3 0 0 0
5 0 0 0
8 0 0 0
9 0 0 0
587 0 0 0
589 0 0 0
153 0 0 0
681 0 0 0
682 0 0 0
688 0 0 0
683 0 0 0
686 0 0 0
684 0 0 0
685 0 0 0
690 0 0 0
502 0 0 0
499 0 0 0
534 0 0 0
539 0 0 0
540 0 0 0
532 0 0 0
529 0 0 0
530 0 0 0
531 0 0 0
533 0 0 0
536 0 0 0
419 0 0 0
420 0 0 0
412 0 0 0
414 0 0 0
307 0 0 0
409 0 0 0
410 0 0 0
411 0 0 0
413 0 0 0
416 0 0 0
537 0 0 0
310 0 0 0
228 0 0 0
630 0 0 0
417 0 0 0
547 0 0 0
549 0 0 0
628 0 0 0
222 0 0 0
226 0 0 0
220 0 0 0
217 0 0 0
218 0 0 0
219 0 0 0
221 0 0 0
223 0 0 0
225 0 0 0
561 0 0 0
562 0 0 0
348 0 0 0
566 0 0 0
567 0 0 0
563 0 0 0
564 0 0 0
565 0 0 0
569 0 0 0
432 0 0 0
425 0 0 0
427 0 0 0
429 0 0 0
154 0 0 0
342 0 0 0
347 0 0 0
340 0 0 0
337 0 0 0
338 0 0 0
339 0 0 0
341 0 0 0
151 0 0 0
344 0 0 0
345 0 0 0
10 0 0 0
426 0 0 0
430 0 0 0
424 0 0 0
7 0 0 0
421 0 0 0
422 0 0 0
423 0 0 0
324 0 0 0
35 0 0 0
32 0 0 0
318 0 0 0
323 0 0 0
521 0 0 0
524 0 0 0
316 0 0 0
313 0 0 0
314 0 0 0
315 0 0 0
317 0 0 0
320 0 0 0
321 0 0 0
522 0 0 0
527 0 0 0
528 0 0 0
520 0 0 0
517 0 0 0
518 0 0 0
519 0 0 0
525 0 0 0
687 0 0 0
689 0 0 0
438 0 0 0
443 0 0 0
444 0 0 0
436 0 0 0
433 0 0 0
434 0 0 0
435 0 0 0
437 0 0 0
440 0 0 0
701 0 0 0
702 0 0 0
441 0 0 0
708 0 0 0
703 0 0 0
706 0 0 0
704 0 0 0
705 0 0 0
710 0 0 0
538 0 0 0
535 0 0 0
418 0 0 0
415 0 0 0
162 0 0 0
167 0 0 0
168 0 0 0
160 0 0 0
157 0 0 0
158 0 0 0
159 0 0 0
161 0 0 0
164 0 0 0
629 0 0 0
627 0 0 0
165 0 0 0
621 0 0 0
623 0 0 0
622 0 0 0
624 0 0 0
626 0 0 0
625 0 0 0
735 0 0 0
346 0 0 0
343 0 0 0
30 0 0 0
34 0 0 0
36 0 0 0
28 0 0 0
25 0 0 0
26 0 0 0
27 0 0 0
29 0 0 0
31 0 0 0
322 0 0 0
523 0 0 0
319 0 0 0
526 0 0 0
33 0 0 0
404 0 0 0
258 0 0 0
263 0 0 0
264 0 0 0
256 0 0 0
253 0 0 0
254 0 0 0
255 0 0 0
257 0 0 0
260 0 0 0
407 0 0 0
442 0 0 0
439 0 0 0
261 0 0 0
707 0 0 0
709 0 0 0
166 0 0 0
163 0 0 0
294 0 0 0
299 0 0 0
300 0 0 0
292 0 0 0
289 0 0 0
290 0 0 0
291 0 0 0
293 0 0 0
296 0 0 0
275 0 0 0
272 0 0 0
297 0 0 0
608 0 0 0
601 0 0 0
603 0 0 0
602 0 0 0
604 0 0 0
610 0 0 0
395 0 0 0
456 0 0 0
392 0 0 0
606 0 0 0
605 0 0 0
455 0 0 0
450 0 0 0
445 0 0 0
448 0 0 0
23 0 0 0
446 0 0 0
447 0 0 0
449 0 0 0
452 0 0 0
453 0 0 0
20 0 0 0
400 0 0 0
402 0 0 0
397 0 0 0
398 0 0 0
399 0 0 0
401 0 0 0
403 0 0 0
467 0 0 0
262 0 0 0
464 0 0 0
259 0 0 0
406 0 0 0
408 0 0 0
104 0 0 0
405 0 0 0
107 0 0 0
756 0 0 0
731 0 0 0
298 0 0 0
202 0 0 0
203 0 0 0
204 0 0 0
196 0 0 0
198 0 0 0
193 0 0 0
295 0 0 0
194 0 0 0
195 0 0 0
197 0 0 0
199 0 0 0
200 0 0 0
749 0 0 0
270 0 0 0
274 0 0 0
276 0 0 0
268 0 0 0
265 0 0 0
266 0 0 0
267 0 0 0
269 0 0 0
271 0 0 0
201 0 0 0
718 0 0 0
273 0 0 0
607 0 0 0
720 0 0 0
609 0 0 0
390 0 0 0
394 0 0 0
396 0 0 0
388 0 0 0
385 0 0 0
386 0 0 0
387 0 0 0
389 0 0 0
391 0 0 0
24 0 0 0
770 0 0 0
454 0 0 0
393 0 0 0
18 0 0 0
22 0 0 0
13 0 0 0
16 0 0 0
451 0 0 0
14 0 0 0
15 0 0 0
17 0 0 0
19 0 0 0
21 0 0 0
668 0 0 0
670 0 0 0
742 0 0 0
466 0 0 0
468 0 0 0
462 0 0 0
457 0 0 0
460 0 0 0
458 0 0 0
459 0 0 0
108 0 0 0
461 0 0 0
463 0 0 0
101 0 0 0
103 0 0 0
105 0 0 0
102 0 0 0
106 0 0 0
465 0 0 0
100 0 0 0
97 0 0 0
98 0 0 0
99 0 0 0
763 0 0 0
732 0 0 0
760 0 0 0
752 0 0 0
750 0 0 0
751 0 0 0
179 0 0 0
753 0 0 0
176 0 0 0
747 0 0 0
745 0 0 0
743 0 0 0
744 0 0 0
648 0 0 0
650 0 0 0
746 0 0 0
717 0 0 0
711 0 0 0
713 0 0 0
712 0 0 0
714 0 0 0
719 0 0 0
768 0 0 0
765 0 0 0
716 0 0 0
715 0 0 0
598 0 0 0
600 0 0 0
766 0 0 0
764 0 0 0
740 0 0 0
767 0 0 0
667 0 0 0
663 0 0 0
661 0 0 0
662 0 0 0
664 0 0 0
669 0 0 0
738 0 0 0
736 0 0 0
737 0 0 0
666 0 0 0
665 0 0 0
739 0 0 0
761 0 0 0
759 0 0 0
757 0 0 0
758 0 0 0
754 0 0 0

Bonds

1 7 172 174
2 4 174 178
3 4 174 179
4 4 174 180
5 8 169 170
6 7 169 171
7 7 169 172
8 7 171 173
9 4 173 175
10 4 173 176
11 4 173 177
12 8 641 642
13 7 641 643
14 7 641 644
15 7 643 646
16 4 646 647
17 4 646 648
18 7 644 645
19 1 645 646
20 4 645 649
21 4 645 650
22 8 591 592
23 7 591 593
24 7 591 594
25 8 721 722
26 7 721 723
27 7 721 724
28 4 596 597
29 4 596 598
30 4 726 727
31 4 726 728
32 7 593 596
33 7 594 595
34 7 723 726
35 7 724 725
36 1 595 596
37 4 595 599
38 4 595 600
39 1 725 726
40 4 725 729
41 4 725 730
42 4 234 238
43 4 234 239
44 4 234 240
45 7 232 234
46 8 229 230
47 7 229 231
48 7 229 232
49 7 231 233
50 4 233 235
51 4 233 236
52 4 233 237
53 7 136 138
54 4 138 142
55 4 138 143
56 4 138 144
57 8 133 134
58 7 133 135
59 7 133 136
60 7 135 137
61 4 137 139
62 4 137 140
63 4 137 141
64 4 329 331
65 4 329 332
66 4 329 333
67 8 671 672
68 7 671 673
69 7 671 674
70 4 210 214
71 4 210 215
72 4 210 216
73 7 208 210
74 8 205 206
75 7 205 207
76 7 205 208
77 7 207 209
78 4 209 211
79 4 209 212
80 4 209 213
81 4 330 334
82 4 330 335
83 4 330 336
84 7 328 330
85 8 325 326
86 7 325 327
87 7 325 328
88 7 327 329
89 4 676 677
90 4 676 678
91 7 673 676
92 7 674 675
93 1 675 676
94 4 675 679
95 4 675 680
96 4 78 82
97 4 78 83
98 4 78 84
99 4 186 190
100 4 186 191
101 4 186 192
102 8 73 74
103 7 73 75
104 7 73 76
105 7 76 78
106 7 184 186
107 7 75 77
108 8 181 182
109 7 181 183
110 7 181 184
111 7 183 185
112 4 77 79
113 4 77 80
114 4 77 81
115 4 185 187
116 4 185 188
117 4 185 189
118 4 510 514
119 4 510 515
120 4 510 516
121 7 508 510
122 8 505 506
123 7 505 507
124 7 505 508
125 7 507 509
126 4 509 511
127 4 509 512
128 4 509 513
129 4 54 58
130 4 54 59
131 4 54 60
132 7 52 54
133 8 49 50
134 7 49 51
135 7 49 52
136 7 51 53
137 4 53 55
138 4 53 56
139 4 53 57
140 4 113 115
141 4 113 116
142 4 113 117
143 4 366 370
144 4 366 371
145 4 366 372
146 7 364 366
147 8 361 362
148 7 361 363
149 7 361 364
150 7 363 365
151 7 112 114
152 4 114 118
153 4 114 119
154 4 114 120
155 4 365 367
156 4 365 368
157 4 365 369
158 8 109 110
159 7 109 111
160 7 109 112
161 7 111 113
162 8 37 38
163 7 37 39
164 7 37 40
165 7 39 41
166 4 41 43
167 4 41 44
168 4 41 45
169 4 42 46
170 4 42 47
171 4 42 48
172 7 40 42
173 7 63 65
174 4 65 67
175 4 65 68
176 4 65 69
177 8 571 572
178 7 571 573
179 7 571 574
180 4 66 70
181 4 66 71
182 4 66 72
183 7 64 66
184 8 61 62
185 7 61 63
186 7 61 64
187 7 573 576
188 4 576 577
189 4 576 578
190 7 574 575
191 1 575 576
192 4 575 579
193 4 575 580
194 8 651 652
195 7 651 653
196 7 651 654
197 4 378 382
198 4 378 383
199 4 378 384
200 7 376 378
201 8 373 374
202 7 373 375
203 7 373 376
204 7 375 377
205 4 377 379
206 4 377 380
207 4 377 381
208 4 656 657
209 4 656 658
210 7 653 656
211 7 654 655
212 1 655 656
213 4 655 659
214 4 655 660
215 4 126 130
216 4 126 131
217 4 126 132
218 7 124 126
219 8 121 122
220 7 121 123
221 7 121 124
222 7 123 125
223 4 125 127
224 4 125 128
225 4 125 129
226 7 280 282
227 4 282 286
228 4 282 287
229 4 282 288
230 8 277 278
231 7 277 279
232 7 277 280
233 7 279 281
234 4 281 283
235 4 281 284
236 4 281 285
237 7 693 696
238 8 691 692
239 7 691 693
240 7 691 694
241 7 694 695
242 4 696 697
243 4 696 698
244 1 695 696
245 4 695 699
246 4 695 700
247 7 484 486
248 4 486 490
249 4 486 491
250 4 486 492
251 8 481 482
252 7 481 483
253 7 481 484
254 7 483 485
255 4 485 487
256 4 485 488
257 4 485 489
258 7 244 246
259 8 241 242
260 7 241 243
261 7 241 244
262 7 243 245
263 4 245 247
264 4 245 248
265 4 245 249
266 8 611 612
267 7 611 613
268 7 611 614
269 4 474 478
270 4 474 479
271 4 474 480
272 8 469 470
273 7 469 471
274 7 469 472
275 7 472 474
276 7 471 473
277 4 473 475
278 4 473 476
279 4 473 477
280 8 631 632
281 7 631 633
282 7 631 634
283 4 246 250
284 4 246 251
285 4 246 252
286 4 616 617
287 4 616 618
288 7 613 616
289 7 614 615
290 1 615 616
291 4 615 619
292 4 615 620
293 4 636 637
294 4 636 638
295 7 633 636
296 7 634 635
297 1 635 636
298 4 635 639
299 4 635 640
300 8 551 552
301 7 551 553
302 7 551 554
303 7 553 556
304 4 556 557
305 4 556 558
306 7 554 555
307 1 555 556
308 4 555 559
309 4 555 560
310 4 354 358
311 4 354 359
312 4 354 360
313 7 352 354
314 8 349 350
315 7 349 351
316 7 349 352
317 7 351 353
318 4 353 355
319 4 353 356
320 4 353 357
321 7 583 586
322 8 581 582
323 7 581 583
324 7 581 584
325 7 584 585
326 4 586 587
327 4 586 588
328 1 585 586
329 4 585 589
330 4 585 590
331 7 496 498
332 4 498 502
333 4 498 503
334 4 498 504
335 8 493 494
336 7 493 495
337 7 493 496
338 7 495 497
339 4 497 499
340 4 497 500
341 4 497 501
342 4 90 94
343 4 90 95
344 4 90 96
345 7 88 90
346 8 85 86
347 7 85 87
348 7 85 88
349 7 87 89
350 4 89 91
351 4 89 92
352 4 89 93
353 7 304 306
354 8 301 302
355 7 301 303
356 7 301 304
357 7 303 305
358 4 305 307
359 4 305 308
360 4 305 309
361 4 306 310
362 4 306 311
363 4 306 312
364 8 541 542
365 7 541 543
366 7 541 544
367 7 543 546
368 7 544 545
369 4 546 547
370 4 546 548
371 1 545 546
372 4 545 549
373 4 545 550
374 4 150 154
375 4 150 155
376 4 150 156
377 8 145 146
378 7 145 147
379 7 145 148
380 7 148 150
381 7 147 149
382 4 149 151
383 4 149 152
384 4 149 153
385 4 6 10
386 4 6 11
387 4 6 12
388 8 1 2
389 7 1 3
390 7 1 4
391 7 4 6
392 7 3 5
393 4 5 7
394 4 5 8
395 4 5 9
396 8 681 682
397 7 681 683
398 7 681 684
399 7 683 686
400 4 686 687
401 4 686 688
402 7 684 685
403 1 685 686
404 4 685 689
405 4 685 690
406 4 534 538
407 4 534 539
408 4 534 540
409 7 532 534
410 8 529 530
411 7 529 531
412 7 529 532
413 7 531 533
414 4 533 535
415 4 533 536
416 4 533 537
417 7 412 414
418 4 414 418
419 4 414 419
420 4 414 420
421 8 409 410
422 7 409 411
423 7 409 412
424 7 411 413
425 4 413 415
426 4 413 416
427 4 413 417
428 4 222 226
429 4 222 227
430 4 222 228
431 7 220 222
432 8 217 218
433 7 217 219
434 7 217 220
435 7 219 221
436 4 221 223
437 4 221 224
438 4 221 225
439 8 561 562
440 7 561 563
441 7 561 564
442 4 566 567
443 4 566 568
444 7 563 566
445 7 564 565
446 1 565 566
447 4 565 569
448 4 565 570
449 4 425 427
450 4 425 428
451 4 425 429
452 4 342 346
453 4 342 347
454 4 342 348
455 7 340 342
456 8 337 338
457 7 337 339
458 7 337 340
459 7 339 341
460 4 341 343
461 4 341 344
462 4 341 345
463 4 426 430
464 4 426 431
465 4 426 432
466 7 424 426
467 8 421 422
468 7 421 423
469 7 421 424
470 7 423 425
471 4 318 322
472 4 318 323
473 4 318 324
474 4 521 523
475 4 521 524
476 4 521 525
477 7 316 318
478 8 313 314
479 7 313 315
480 7 313 316
481 7 315 317
482 4 317 319
483 4 317 320
484 4 317 321
485 4 522 526
486 4 522 527
487 4 522 528
488 7 520 522
489 8 517 518
490 7 517 519
491 7 517 520
492 7 519 521
493 4 438 442
494 4 438 443
495 4 438 444
496 7 436 438
497 8 433 434
498 7 433 435
499 7 433 436
500 7 435 437
501 4 437 439
502 4 437 440
503 4 437 441
504 8 701 702
505 7 701 703
506 7 701 704
507 7 703 706
508 4 706 707
509 4 706 708
510 7 704 705
511 1 705 706
512 4 705 709
513 4 705 710
514 4 162 166
515 4 162 167
516 4 162 168
517 7 160 162
518 8 157 158
519 7 157 159
520 7 157 160
521 7 159 161
522 4 161 163
523 4 161 164
524 4 161 165
525 8 621 622
526 7 621 623
527 7 621 624
528 7 623 626
529 7 624 625
530 4 626 627
531 4 626 628
532 1 625 626
533 4 625 629
534 4 625 630
535 4 30 34
536 4 30 35
537 4 30 36
538 7 28 30
539 8 25 26
540 7 25 27
541 7 25 28
542 7 27 29
543 4 29 31
544 4 29 32
545 4 29 33
546 4 258 262
547 4 258 263
548 4 258 264
549 7 256 258
550 8 253 254
551 7 253 255
552 7 253 256
553 7 255 257
554 4 257 259
555 4 257 260
556 4 257 261
557 4 294 298
558 4 294 299
559 4 294 300
560 7 292 294
561 8 289 290
562 7 289 291
563 7 289 292
564 7 291 293
565 4 293 295
566 4 293 296
567 4 293 297
568 8 601 602
569 7 601 603
570 7 601 604
571 7 603 606
572 7 604 605
573 4 606 607
574 4 606 608
575 1 605 606
576 4 605 609
577 4 605 610
578 4 450 454
579 4 450 455
580 4 450 456
581 8 445 446
582 7 445 447
583 7 445 448
584 7 448 450
585 7 447 449
586 4 449 451
587 4 449 452
588 4 449 453
589 7 400 402
590 4 402 406
591 4 402 407
592 4 402 408
593 8 397 398
594 7 397 399
595 7 397 400
596 7 399 401
597 4 401 403
598 4 401 404
599 4 401 405
600 7 196 198
601 4 198 202
602 4 198 203
603 4 198 204
604 8 193 194
605 7 193 195
606 7 193 196
607 7 195 197
608 4 197 199
609 4 197 200
610 4 197 201
611 4 270 274
612 4 270 275
613 4 270 276
614 7 268 270
615 8 265 266
616 7 265 267
617 7 265 268
618 7 267 269
619 4 269 271
620 4 269 272
621 4 269 273
622 4 390 394
623 4 390 395
624 4 390 396
625 7 388 390
626 8 385 386
627 7 385 387
628 7 385 388
629 7 387 389
630 4 389 391
631 4 389 392
632 4 389 393
633 4 18 22
634 4 18 23
635 4 18 24
636 8 13 14
637 7 13 15
638 7 13 16
639 7 16 18
640 7 15 17
641 4 17 19
642 4 17 20
643 4 17 21
644 4 462 466
645 4 462 467
646 4 462 468
647 8 457 458
648 7 457 459
649 7 457 460
650 7 460 462
651 7 459 461
652 4 461 463
653 4 461 464
654 4 461 465
655 4 101 103
656 4 101 104
657 4 101 105
658 4 102 106
659 4 102 107
660 4 102 108
661 7 100 102
662 8 97 98
663 7 97 99
664 7 97 100
665 7 99 101
666 15 750 751
667 15 750 752
668 15 750 753
669 15 750 754
670 15 750 755
671 15 750 756
672 15 743 744
673 15 743 745
674 15 743 746
675 15 743 747
676 15 743 748
677 15 743 749
678 8 711 712
679 7 711 713
680 7 711 714
681 7 713 716
682 7 714 715
683 4 716 717
684 4 716 718
685 1 715 716
686 4 715 719
687 4 715 720
688 15 764 765
689 15 764 766
690 15 764 767
691 15 764 768
692 15 764 769
693 15 764 770
694 7 663 666
695 8 661 662
696 7 661 663
697 7 661 664
698 7 664 665
699 15 736 737
700 15 736 738
701 15 736 739
702 15 736 740
703 15 736 741
704 15 736 742
705 4 666 667
706 4 666 668
707 1 665 666
708 4 665 669
709 4 665 670
710 15 757 758
711 15 757 759
712 15 757 760
713 15 757 761
714 15 757 762
715 15 757 763

Angles

1 9 169 172 174
2 4 172 174 178
3 4 172 174 179
4 4 172 174 180
5 7 178 174 179
6 7 178 174 180
7 7 179 174 180
8 11 170 169 171
9 11 170 169 172
10 12 171 169 172
11 9 169 171 173
12 4 171 173 175
13 4 171 173 176
14 4 171 173 177
15 7 175 173 176
16 7 175 173 177
17 7 176 173 177
18 11 642 641 643
19 11 642 641 644
20 12 643 641 644
21 9 641 643 646
22 13 643 646 645
23 4 645 646 647
24 4 645 646 648
25 6 647 646 648
26 9 641 644 645
27 13 644 645 646
28 4 646 645 649
29 4 646 645 650
30 6 649 645 650
31 11 592 591 593
32 11 592 591 594
33 12 593 591 594
34 11 722 721 723
35 11 722 721 724
36 12 723 721 724
37 13 593 596 595
38 4 595 596 597
39 4 595 596 598
40 6 597 596 598
41 13 723 726 725
42 4 725 726 727
43 4 725 726 728
44 6 727 726 728
45 9 591 593 596
46 9 591 594 595
47 9 721 723 726
48 9 721 724 725
49 13 594 595 596
50 4 596 595 599
51 4 596 595 600
52 6 599 595 600
53 13 724 725 726
54 4 726 725 729
55 4 726 725 730
56 6 729 725 730
57 4 232 234 238
58 4 232 234 239
59 4 232 234 240
60 7 238 234 239
61 7 238 234 240
62 7 239 234 240
63 9 229 232 234
64 11 230 229 231
65 11 230 229 232
66 12 231 229 232
67 9 229 231 233
68 4 231 233 235
69 4 231 233 236
70 4 231 233 237
71 7 235 233 236
72 7 235 233 237
73 7 236 233 237
74 9 133 136 138
75 4 136 138 142
76 4 136 138 143
77 4 136 138 144
78 7 142 138 143
79 7 142 138 144
80 7 143 138 144
81 11 134 133 135
82 11 134 133 136
83 12 135 133 136
84 9 133 135 137
85 4 135 137 139
86 4 135 137 140
87 4 135 137 141
88 7 139 137 140
89 7 139 137 141
90 7 140 137 141
91 4 327 329 331
92 4 327 329 332
93 4 327 329 333
94 7 331 329 332
95 7 331 329 333
96 7 332 329 333
97 11 672 671 673
98 11 672 671 674
99 12 673 671 674
100 4 208 210 214
101 4 208 210 215
102 4 208 210 216
103 7 214 210 215
104 7 214 210 216
105 7 215 210 216
106 9 205 208 210
107 11 206 205 207
108 11 206 205 208
109 12 207 205 208
110 9 205 207 209
111 4 207 209 211
112 4 207 209 212
113 4 207 209 213
114 7 211 209 212
115 7 211 209 213
116 7 212 209 213
117 4 328 330 334
118 4 328 330 335
119 4 328 330 336
120 7 334 330 335
121 7 334 330 336
122 7 335 330 336
123 9 325 328 330
124 11 326 325 327
125 11 326 325 328
126 12 327 325 328
127 9 325 327 329
128 13 673 676 675
129 4 675 676 677
130 4 675 676 678
131 6 677 676 678
132 9 671 673 676
133 9 671 674 675
134 13 674 675 676
135 4 676 675 679
136 4 676 675 680
137 6 679 675 680
138 4 76 78 82
139 4 76 78 83
140 4 76 78 84
141 7 82 78 83
142 7 82 78 84
143 7 83 78 84
144 4 184 186 190
145 4 184 186 191
146 4 184 186 192
147 7 190 186 191
148 7 190 186 192
149 7 191 186 192
150 11 74 73 75
151 11 74 73 76
152 12 75 73 76
153 9 73 76 78
154 9 181 184 186
155 9 73 75 77
156 11 182 181 183
157 11 182 181 184
158 12 183 181 184
159 9 181 183 185
160 4 75 77 79
161 4 75 77 80
162 4 75 77 81
163 7 79 77 80
164 7 79 77 81
165 7 80 77 81
166 4 183 185 187
167 4 183 185 188
168 4 183 185 189
169 7 187 185 188
170 7 187 185 189
171 7 188 185 189
172 4 508 510 514
173 4 508 510 515
174 4 508 510 516
175 7 514 510 515
176 7 514 510 516
177 7 515 510 516
178 9 505 508 510
179 11 506 505 507
180 11 506 505 508
181 12 507 505 508
182 9 505 507 509
183 4 507 509 511
184 4 507 509 512
185 4 507 509 513
186 7 511 509 512
187 7 511 509 513
188 7 512 509 513
189 4 52 54 58
190 4 52 54 59
191 4 52 54 60
192 7 58 54 59
193 7 58 54 60
194 7 59 54 60
195 9 49 52 54
196 11 50 49 51
197 11 50 49 52
198 12 51 49 52
199 9 49 51 53
200 4 51 53 55
201 4 51 53 56
202 4 51 53 57
203 7 55 53 56
204 7 55 53 57
205 7 56 53 57
206 4 111 113 115
207 4 111 113 116
208 4 111 113 117
209 7 115 113 116
210 7 115 113 117
211 7 116 113 117
212 4 364 366 370
213 4 364 366 371
214 4 364 366 372
215 7 370 366 371
216 7 370 366 372
217 7 371 366 372
218 9 361 364 366
219 11 362 361 363
220 11 362 361 364
221 12 363 361 364
222 9 361 363 365
223 9 109 112 114
224 4 112 114 118
225 4 112 114 119
226 4 112 114 120
227 7 118 114 119
228 7 118 114 120
229 7 119 114 120
230 4 363 365 367
231 4 363 365 368
232 4 363 365 369
233 7 367 365 368
234 7 367 365 369
235 7 368 365 369
236 11 110 109 111
237 11 110 109 112
238 12 111 109 112
239 9 109 111 113
240 11 38 37 39
241 11 38 37 40
242 12 39 37 40
243 9 37 39 41
244 4 39 41 43
245 4 39 41 44
246 4 39 41 45
247 7 43 41 44
248 7 43 41 45
249 7 44 41 45
250 4 40 42 46
251 4 40 42 47
252 4 40 42 48
253 7 46 42 47
254 7 46 42 48
255 7 47 42 48
256 9 37 40 42
257 9 61 63 65
258 4 63 65 67
259 4 63 65 68
260 4 63 65 69
261 7 67 65 68
262 7 67 65 69
263 7 68 65 69
264 11 572 571 573
265 11 572 571 574
266 12 573 571 574
267 4 64 66 70
268 4 64 66 71
269 4 64 66 72
270 7 70 66 71
271 7 70 66 72
272 7 71 66 72
273 9 61 64 66
274 11 62 61 63
275 11 62 61 64
276 12 63 61 64
277 9 571 573 576
278 13 573 576 575
279 4 575 576 577
280 4 575 576 578
281 6 577 576 578
282 9 571 574 575
283 13 574 575 576
284 4 576 575 579
285 4 576 575 580
286 6 579 575 580
287 11 652 651 653
288 11 652 651 654
289 12 653 651 654
290 4 376 378 382
291 4 376 378 383
292 4 376 378 384
293 7 382 378 383
294 7 382 378 384
295 7 383 378 384
296 9 373 376 378
297 11 374 373 375
298 11 374 373 376
299 12 375 373 376
300 9 373 375 377
301 4 375 377 379
302 4 375 377 380
303 4 375 377 381
304 7 379 377 380
305 7 379 377 381
306 7 380 377 381
307 13 653 656 655
308 4 655 656 657
309 4 655 656 658
310 6 657 656 658
311 9 651 653 656
312 9 651 654 655
313 13 654 655 656
314 4 656 655 659
315 4 656 655 660
316 6 659 655 660
317 4 124 126 130
318 4 124 126 131
319 4 124 126 132
320 7 130 126 131
321 7 130 126 132
322 7 131 126 132
323 9 121 124 126
324 11 122 121 123
325 11 122 121 124
326 12 123 121 124
327 9 121 123 125
328 4 123 125 127
329 4 123 125 128
330 4 123 125 129
331 7 127 125 128
332 7 127 125 129
333 7 128 125 129
334 9 277 280 282
335 4 280 282 286
336 4 280 282 287
337 4 280 282 288
338 7 286 282 287
339 7 286 282 288
340 7 287 282 288
341 11 278 277 279
342 11 278 277 280
343 12 279 277 280
344 9 277 279 281
345 4 279 281 283
346 4 279 281 284
347 4 279 281 285
348 7 283 281 284
349 7 283 281 285
350 7 284 281 285
351 9 691 693 696
352 11 692 691 693
353 11 692 691 694
354 12 693 691 694
355 9 691 694 695
356 13 693 696 695
357 4 695 696 697
358 4 695 696 698
359 6 697 696 698
360 13 694 695 696
361 4 696 695 699
362 4 696 695 700
363 6 699 695 700
364 9 481 484 486
365 4 484 486 490
366 4 484 486 491
367 4 484 486 492
368 7 490 486 491
369 7 490 486 492
370 7 491 486 492
371 11 482 481 483
372 11 482 481 484
373 12 483 481 484
374 9 481 483 485
375 4 483 485 487
376 4 483 485 488
377 4 483 485 489
378 7 487 485 488
379 7 487 485 489
380 7 488 485 489
381 9 241 244 246
382 11 242 241 243
383 11 242 241 244
384 12 243 241 244
385 9 241 243 245
386 4 243 245 247
387 4 243 245 248
388 4 243 245 249
389 7 247 245 248
390 7 247 245 249
391 7 248 245 249
392 11 612 611 613
393 11 612 611 614
394 12 613 611 614
395 4 472 474 478
396 4 472 474 479
397 4 472 474 480
398 7 478 474 479
399 7 478 474 480
400 7 479 474 480
401 11 470 469 471
402 11 470 469 472
403 12 471 469 472
404 9 469 472 474
405 9 469 471 473
406 4 471 473 475
407 4 471 473 476
408 4 471 473 477
409 7 475 473 476
410 7 475 473 477
411 7 476 473 477
412 11 632 631 633
413 11 632 631 634
414 12 633 631 634
415 4 244 246 250
416 4 244 246 251
417 4 244 246 252
418 7 250 246 251
419 7 250 246 252
420 7 251 246 252
421 13 613 616 615
422 4 615 616 617
423 4 615 616 618
424 6 617 616 618
425 9 611 613 616
426 9 611 614 615
427 13 614 615 616
428 4 616 615 619
429 4 616 615 620
430 6 619 615 620
431 13 633 636 635
432 4 635 636 637
433 4 635 636 638
434 6 637 636 638
435 9 631 633 636
436 9 631 634 635
437 13 634 635 636
438 4 636 635 639
439 4 636 635 640
440 6 639 635 640
441 11 552 551 553
442 11 552 551 554
443 12 553 551 554
444 9 551 553 556
445 13 553 556 555
446 4 555 556 557
447 4 555 556 558
448 6 557 556 558
449 9 551 554 555
450 13 554 555 556
451 4 556 555 559
452 4 556 555 560
453 6 559 555 560
454 4 352 354 358
455 4 352 354 359
456 4 352 354 360
457 7 358 354 359
458 7 358 354 360
459 7 359 354 360
460 9 349 352 354
461 11 350 349 351
462 11 350 349 352
463 12 351 349 352
464 9 349 351 353
465 4 351 353 355
466 4 351 353 356
467 4 351 353 357
468 7 355 353 356
469 7 355 353 357
470 7 356 353 357
471 9 581 583 586
472 11 582 581 583
473 11 582 581 584
474 12 583 581 584
475 9 581 584 585
476 13 583 586 585
477 4 585 586 587
478 4 585 586 588
479 6 587 586 588
480 13 584 585 586
481 4 586 585 589
482 4 586 585 590
483 6 589 585 590
484 9 493 496 498
485 4 496 498 502
486 4 496 498 503
487 4 496 498 504
488 7 502 498 503
489 7 502 498 504
490 7 503 498 504
491 11 494 493 495
492 11 494 493 496
493 12 495 493 496
494 9 493 495 497
495 4 495 497 499
496 4 495 497 500
497 4 495 497 501
498 7 499 497 500
499 7 499 497 501
500 7 500 497 501
501 4 88 90 94
502 4 88 90 95
503 4 88 90 96
504 7 94 90 95
505 7 94 90 96
506 7 95 90 96
507 9 85 88 90
508 11 86 85 87
509 11 86 85 88
510 12 87 85 88
511 9 85 87 89
512 4 87 89 91
513 4 87 89 92
514 4 87 89 93
515 7 91 89 92
516 7 91 89 93
517 7 92 89 93
518 9 301 304 306
519 11 302 301 303
520 11 302 301 304
521 12 303 301 304
522 9 301 303 305
523 4 303 305 307
524 4 303 305 308
525 4 303 305 309
526 7 307 305 308
527 7 307 305 309
528 7 308 305 309
529 4 304 306 310
530 4 304 306 311
531 4 304 306 312
532 7 310 306 311
533 7 310 306 312
534 7 311 306 312
535 11 542 541 543
536 11 542 541 544
537 12 543 541 544
538 9 541 543 546
539 9 541 544 545
540 13 543 546 545
541 4 545 546 547
542 4 545 546 548
543 6 547 546 548
544 13 544 545 546
545 4 546 545 549
546 4 546 545 550
547 6 549 545 550
548 4 148 150 154
549 4 148 150 155
550 4 148 150 156
551 7 154 150 155
552 7 154 150 156
553 7 155 150 156
554 11 146 145 147
555 11 146 145 148
556 12 147 145 148
557 9 145 148 150
558 9 145 147 149
559 4 147 149 151
560 4 147 149 152
561 4 147 149 153
562 7 151 149 152
563 7 151 149 153
564 7 152 149 153
565 4 4 6 10
566 4 4 6 11
567 4 4 6 12
568 7 10 6 11
569 7 10 6 12
570 7 11 6 12
571 11 2 1 3
572 11 2 1 4
573 12 3 1 4
574 9 1 4 6
575 9 1 3 5
576 4 3 5 7
577 4 3 5 8
578 4 3 5 9
579 7 7 5 8
580 7 7 5 9
581 7 8 5 9
582 11 682 681 683
583 11 682 681 684
584 12 683 681 684
585 9 681 683 686
586 13 683 686 685
587 4 685 686 687
588 4 685 686 688
589 6 687 686 688
590 9 681 684 685
591 13 684 685 686
592 4 686 685 689
593 4 686 685 690
594 6 689 685 690
595 4 532 534 538
596 4 532 534 539
597 4 532 534 540
598 7 538 534 539
599 7 538 534 540
600 7 539 534 540
601 9 529 532 534
602 11 530 529 531
603 11 530 529 532
604 12 531 529 532
605 9 529 531 533
606 4 531 533 535
607 4 531 533 536
608 4 531 533 537
609 7 535 533 536
610 7 535 533 537
611 7 536 533 537
612 9 409 412 414
613 4 412 414 418
614 4 412 414 419
615 4 412 414 420
616 7 418 414 419
617 7 418 414 420
618 7 419 414 420
619 11 410 409 411
620 11 410 409 412
621 12 411 409 412
622 9 409 411 413
623 4 411 413 415
624 4 411 413 416
625 4 411 413 417
626 7 415 413 416
627 7 415 413 417
628 7 416 413 417
629 4 220 222 226
630 4 220 222 227
631 4 220 222 228
632 7 226 222 227
633 7 226 222 228
634 7 227 222 228
635 9 217 220 222
636 11 218 217 219
637 11 218 217 220
638 12 219 217 220
639 9 217 219 221
640 4 219 221 223
641 4 219 221 224
642 4 219 221 225
643 7 223 221 224
644 7 223 221 225
645 7 224 221 225
646 11 562 561 563
647 11 562 561 564
648 12 563 561 564
649 13 563 566 565
650 4 565 566 567
651 4 565 566 568
652 6 567 566 568
653 9 561 563 566
654 9 561 564 565
655 13 564 565 566
656 4 566 565 569
657 4 566 565 570
658 6 569 565 570
659 4 423 425 427
660 4 423 425 428
661 4 423 425 429
662 7 427 425 428
663 7 427 425 429
664 7 428 425 429
665 4 340 342 346
666 4 340 342 347
667 4 340 342 348
668 7 346 342 347
669 7 346 342 348
670 7 347 342 348
671 9 337 340 342
672 11 338 337 339
673 11 338 337 340
674 12 339 337 340
675 9 337 339 341
676 4 339 341 343
677 4 339 341 344
678 4 339 341 345
679 7 343 341 344
680 7 343 341 345
681 7 344 341 345
682 4 424 426 430
683 4 424 426 431
684 4 424 426 432
685 7 430 426 431
686 7 430 426 432
687 7 431 426 432
688 9 421 424 426
689 11 422 421 423
690 11 422 421 424
691 12 423 421 424
692 9 421 423 425
693 4 316 318 322
694 4 316 318 323
695 4 316 318 324
696 7 322 318 323
697 7 322 318 324
698 7 323 318 324
699 4 519 521 523
700 4 519 521 524
701 4 519 521 525
702 7 523 521 524
703 7 523 521 525
704 7 524 521 525
705 9 313 316 318
706 11 314 313 315
707 11 314 313 316
708 12 315 313 316
709 9 313 315 317
710 4 315 317 319
711 4 315 317 320
712 4 315 317 321
713 7 319 317 320
714 7 319 317 321
715 7 320 317 321
716 4 520 522 526
717 4 520 522 527
718 4 520 522 528
719 7 526 522 527
720 7 526 522 528
721 7 527 522 528
722 9 517 520 522
723 11 518 517 519
724 11 518 517 520
725 12 519 517 520
726 9 517 519 521
727 4 436 438 442
728 4 436 438 443
729 4 436 438 444
730 7 442 438 443
731 7 442 438 444
732 7 443 438 444
733 9 433 436 438
734 11 434 433 435
735 11 434 433 436
736 12 435 433 436
737 9 433 435 437
738 4 435 437 439
739 4 435 437 440
740 4 435 437 441
741 7 439 437 440
742 7 439 437 441
743 7 440 437 441
744 11 702 701 703
745 11 702 701 704
746 12 703 701 704
747 9 701 703 706
748 13 703 706 705
749 4 705 706 707
750 4 705 706 708
751 6 707 706 708
752 9 701 704 705
753 13 704 705 706
754 4 706 705 709
755 4 706 705 710
756 6 709 705 710
757 4 160 162 166
758 4 160 162 167
759 4 160 162 168
760 7 166 162 167
761 7 166 162 168
762 7 167 162 168
763 9 157 160 162
764 11 158 157 159
765 11 158 157 160
766 12 159 157 160
767 9 157 159 161
768 4 159 161 163
769 4 159 161 164
770 4 159 161 165
771 7 163 161 164
772 7 163 161 165
773 7 164 161 165
774 11 622 621 623
775 11 622 621 624
776 12 623 621 624
777 9 621 623 626
778 9 621 624 625
779 13 623 626 625
780 4 625 626 627
781 4 625 626 628
782 6 627 626 628
783 13 624 625 626
784 4 626 625 629
785 4 626 625 630
786 6 629 625 630
787 4 28 30 34
788 4 28 30 35
789 4 28 30 36
790 7 34 30 35
791 7 34 30 36
792 7 35 30 36
793 9 25 28 30
794 11 26 25 27
795 11 26 25 28
796 12 27 25 28
797 9 25 27 29
798 4 27 29 31
799 4 27 29 32
800 4 27 29 33
801 7 31 29 32
802 7 31 29 33
803 7 32 29 33
804 4 256 258 262
805 4 256 258 263
806 4 256 258 264
807 7 262 258 263
808 7 262 258 264
809 7 263 258 264
810 9 253 256 258
811 11 254 253 255
812 11 254 253 256
813 12 255 253 256
814 9 253 255 257
815 4 255 257 259
816 4 255 257 260
817 4 255 257 261
818 7 259 257 260
819 7 259 257 261
820 7 260 257 261
821 4 292 294 298
822 4 292 294 299
823 4 292 294 300
824 7 298 294 299
825 7 298 294 300
826 7 299 294 300
827 9 289 292 294
828 11 290 289 291
829 11 290 289 292
830 12 291 289 292
831 9 289 291 293
832 4 291 293 295
833 4 291 293 296
834 4 291 293 297
835 7 295 293 296
836 7 295 293 297
837 7 296 293 297
838 11 602 601 603
839 11 602 601 604
840 12 603 601 604
841 9 601 603 606
842 9 601 604 605
843 13 603 606 605
844 4 605 606 607
845 4 605 606 608
846 6 607 606 608
847 13 604 605 606
848 4 606 605 609
849 4 606 605 610
850 6 609 605 610
851 4 448 450 454
852 4 448 450 455
853 4 448 450 456
854 7 454 450 455
855 7 454 450 456
856 7 455 450 456
857 11 446 445 447
858 11 446 445 448
859 12 447 445 448
860 9 445 448 450
861 9 445 447 449
862 4 447 449 451
863 4 447 449 452
864 4 447 449 453
865 7 451 449 452
866 7 451 449 453
867 7 452 449 453
868 9 397 400 402
869 4 400 402 406
870 4 400 402 407
871 4 400 402 408
872 7 406 402 407
873 7 406 402 408
874 7 407 402 408
875 11 398 397 399
876 11 398 397 400
877 12 399 397 400
878 9 397 399 401
879 4 399 401 403
880 4 399 401 404
881 4 399 401 405
882 7 403 401 404
883 7 403 401 405
884 7 404 401 405
885 9 193 196 198
886 4 196 198 202
887 4 196 198 203
888 4 196 198 204
889 7 202 198 203
890 7 202 198 204
891 7 203 198 204
892 11 194 193 195
893 11 194 193 196
894 12 195 193 196
895 9 193 195 197
896 4 195 197 199
897 4 195 197 200
898 4 195 197 201
899 7 199 197 200
900 7 199 197 201
901 7 200 197 201
902 4 268 270 274
903 4 268 270 275
904 4 268 270 276
905 7 274 270 275
906 7 274 270 276
907 7 275 270 276
908 9 265 268 270
909 11 266 265 267
910 11 266 265 268
911 12 267 265 268
912 9 265 267 269
913 4 267 269 271
914 4 267 269 272
915 4 267 269 273
916 7 271 269 272
917 7 271 269 273
918 7 272 269 273
919 4 388 390 394
920 4 388 390 395
921 4 388 390 396
922 7 394 390 395
923 7 394 390 396
924 7 395 390 396
925 9 385 388 390
926 11 386 385 387
927 11 386 385 388
928 12 387 385 388
929 9 385 387 389
930 4 387 389 391
931 4 387 389 392
932 4 387 389 393
933 7 391 389 392
934 7 391 389 393
935 7 392 389 393
936 4 16 18 22
937 4 16 18 23
938 4 16 18 24
939 7 22 18 23
940 7 22 18 24
941 7 23 18 24
942 11 14 13 15
943 11 14 13 16
944 12 15 13 16
945 9 13 16 18
946 9 13 15 17
947 4 15 17 19
948 4 15 17 20
949 4 15 17 21
950 7 19 17 20
951 7 19 17 21
952 7 20 17 21
953 4 460 462 466
954 4 460 462 467
955 4 460 462 468
956 7 466 462 467
957 7 466 462 468
958 7 467 462 468
959 11 458 457 459
960 11 458 457 460
961 12 459 457 460
962 9 457 460 462
963 9 457 459 461
964 4 459 461 463
965 4 459 461 464
966 4 459 461 465
967 7 463 461 464
968 7 463 461 465
969 7 464 461 465
970 4 99 101 103
971 4 99 101 104
972 4 99 101 105
973 7 103 101 104
974 7 103 101 105
975 7 104 101 105
976 4 100 102 106
977 4 100 102 107
978 4 100 102 108
979 7 106 102 107
980 7 106 102 108
981 7 107 102 108
982 9 97 100 102
983 11 98 97 99
984 11 98 97 100
985 12 99 97 100
986 9 97 99 101
987 18 751 750 752
988 18 753 750 754
989 18 755 750 756
990 17 751 750 753
991 17 751 750 754
992 17 751 750 755
993 17 751 750 756
994 17 752 750 753
995 17 752 750 754
996 17 752 750 755
997 17 752 750 756
998 17 753 750 755
999 17 753 750 756
1000 17 754 750 755
1001 17 754 750 756
1002 18 744 743 745
1003 18 746 743 747
1004 18 748 743 749
1005 17 744 743 746
1006 17 744 743 747
1007 17 744 743 748
1008 17 744 743 749
1009 17 745 743 746
1010 17 745 743 747
1011 17 745 743 748
1012 17 745 743 749
1013 17 746 743 748
1014 17 746 743 749
1015 17 747 743 748
1016 17 747 743 749
1017 11 712 711 713
1018 11 712 711 714
1019 12 713 711 714
1020 9 711 713 716
1021 9 711 714 715
1022 13 713 716 715
1023 4 715 716 717
1024 4 715 716 718
1025 6 717 716 718
1026 13 714 715 716
1027 4 716 715 719
1028 4 716 715 720
1029 6 719 715 720
1030 18 765 764 766
1031 18 767 764 768
1032 18 769 764 770
1033 17 765 764 767
1034 17 765 764 768
1035 17 765 764 769
1036 17 765 764 770
1037 17 766 764 767
1038 17 766 764 768
1039 17 766 764 769
1040 17 766 764 770
1041 17 767 764 769
1042 17 767 764 770
1043 17 768 764 769
1044 17 768 764 770
1045 9 661 663 666
1046 11 662 661 663
1047 11 662 661 664
1048 12 663 661 664
1049 9 661 664 665
1050 18 737 736 738
1051 18 739 736 740
1052 18 741 736 742
1053 17 737 736 739
1054 17 737 736 740
1055 17 737 736 741
1056 17 737 736 742
1057 17 738 736 739
1058 17 738 736 740
1059 17 738 736 741
1060 17 738 736 742
1061 17 739 736 741
1062 17 739 736 742
1063 17 740 736 741
1064 17 740 736 742
1065 13 663 666 665
1066 4 665 666 667
1067 4 665 666 668
1068 6 667 666 668
1069 13 664 665 666
1070 4 666 665 669
1071 4 666 665 670
1072 6 669 665 670
1073 18 758 757 759
1074 18 760 757 761
1075 18 762 757 763
1076 17 758 757 760
1077 17 758 757 761
1078 17 758 757 762
1079 17 758 757 763
1080 17 759 757 760
1081 17 759 757 761
1082 17 759 757 762
1083 17 759 757 763
1084 17 760 757 762
1085 17 760 757 763
1086 17 761 757 762
1087 17 761 757 763

Dihedrals

1 6 169 172 174 178
2 6 169 172 174 179
3 6 169 172 174 180
4 8 170 169 171 173
5 8 170 169 172 174
6 6 169 171 173 175
7 6 169 171 173 176
8 6 169 171 173 177
9 8 642 641 643 646
10 8 642 641 644 645
11 5 641 643 646 645
12 7 643 646 645 644
13 7 641 644 645 646
14 8 592 591 593 596
15 8 592 591 594 595
16 8 722 721 723 726
17 8 722 721 724 725
18 7 593 596 595 594
19 7 723 726 725 724
20 5 591 593 596 595
21 7 591 594 595 596
22 5 721 723 726 725
23 7 721 724 725 726
24 6 229 232 234 238
25 6 229 232 234 239
26 6 229 232 234 240
27 8 230 229 231 233
28 8 230 229 232 234
29 6 229 231 233 235
30 6 229 231 233 236
31 6 229 231 233 237
32 6 133 136 138 142
33 6 133 136 138 143
34 6 133 136 138 144
35 8 134 133 135 137
36 8 134 133 136 138
37 6 133 135 137 139
38 6 133 135 137 140
39 6 133 135 137 141
40 8 672 671 673 676
41 8 672 671 674 675
42 6 205 208 210 214
43 6 205 208 210 215
44 6 205 208 210 216
45 8 206 205 207 209
46 8 206 205 208 210
47 6 205 207 209 211
48 6 205 207 209 212
49 6 205 207 209 213
50 6 325 328 330 334
51 6 325 328 330 335
52 6 325 328 330 336
53 8 326 325 327 329
54 8 326 325 328 330
55 6 325 327 329 331
56 6 325 327 329 332
57 6 325 327 329 333
58 7 673 676 675 674
59 5 671 673 676 675
60 7 671 674 675 676
61 8 74 73 75 77
62 8 74 73 76 78
63 6 73 76 78 82
64 6 73 76 78 83
65 6 73 76 78 84
66 6 181 184 186 190
67 6 181 184 186 191
68 6 181 184 186 192
69 6 73 75 77 79
70 6 73 75 77 80
71 6 73 75 77 81
72 8 182 181 183 185
73 8 182 181 184 186
74 6 181 183 185 187
75 6 181 183 185 188
76 6 181 183 185 189
77 6 505 508 510 514
78 6 505 508 510 515
79 6 505 508 510 516
80 8 506 505 507 509
81 8 506 505 508 510
82 6 505 507 509 511
83 6 505 507 509 512
84 6 505 507 509 513
85 6 49 52 54 58
86 6 49 52 54 59
87 6 49 52 54 60
88 8 50 49 51 53
89 8 50 49 52 54
90 6 49 51 53 55
91 6 49 51 53 56
92 6 49 51 53 57
93 6 361 364 366 370
94 6 361 364 366 371
95 6 361 364 366 372
96 8 362 361 363 365
97 8 362 361 364 366
98 6 361 363 365 367
99 6 361 363 365 368
100 6 361 363 365 369
101 6 109 112 114 118
102 6 109 112 114 119
103 6 109 112 114 120
104 8 110 109 111 113
105 8 110 109 112 114
106 6 109 111 113 115
107 6 109 111 113 116
108 6 109 111 113 117
109 8 38 37 39 41
110 8 38 37 40 42
111 6 37 39 41 43
112 6 37 39 41 44
113 6 37 39 41 45
114 6 37 40 42 46
115 6 37 40 42 47
116 6 37 40 42 48
117 6 61 63 65 67
118 6 61 63 65 68
119 6 61 63 65 69
120 8 572 571 573 576
121 8 572 571 574 575
122 6 61 64 66 70
123 6 61 64 66 71
124 6 61 64 66 72
125 8 62 61 63 65
126 8 62 61 64 66
127 5 571 573 576 575
128 7 573 576 575 574
129 7 571 574 575 576
130 8 652 651 653 656
131 8 652 651 654 655
132 6 373 376 378 382
133 6 373 376 378 383
134 6 373 376 378 384
135 8 374 373 375 377
136 8 374 373 376 378
137 6 373 375 377 379
138 6 373 375 377 380
139 6 373 375 377 381
140 7 653 656 655 654
141 5 651 653 656 655
142 7 651 654 655 656
143 6 121 124 126 130
144 6 121 124 126 131
145 6 121 124 126 132
146 8 122 121 123 125
147 8 122 121 124 126
148 6 121 123 125 127
149 6 121 123 125 128
150 6 121 123 125 129
151 6 277 280 282 286
152 6 277 280 282 287
153 6 277 280 282 288
154 8 278 277 279 281
155 8 278 277 280 282
156 6 277 279 281 283
157 6 277 279 281 284
158 6 277 279 281 285
159 5 691 693 696 695
160 8 692 691 693 696
161 8 692 691 694 695
162 7 691 694 695 696
163 7 693 696 695 694
164 6 481 484 486 490
165 6 481 484 486 491
166 6 481 484 486 492
167 8 482 481 483 485
168 8 482 481 484 486
169 6 481 483 485 487
170 6 481 483 485 488
171 6 481 483 485 489
172 6 241 244 246 250
173 6 241 244 246 251
174 6 241 244 246 252
175 8 242 241 243 245
176 8 242 241 244 246
177 6 241 243 245 247
178 6 241 243 245 248
179 6 241 243 245 249
180 8 612 611 613 616
181 8 612 611 614 615
182 8 470 469 471 473
183 8 470 469 472 474
184 6 469 472 474 478
185 6 469 472 474 479
186 6 469 472 474 480
187 6 469 471 473 475
188 6 469 471 473 476
189 6 469 471 473 477
190 8 632 631 633 636
191 8 632 631 634 635
192 7 613 616 615 614
193 5 611 613 616 615
194 7 611 614 615 616
195 7 633 636 635 634
196 5 631 633 636 635
197 7 631 634 635 636
198 8 552 551 553 556
199 8 552 551 554 555
200 5 551 553 556 555
201 7 553 556 555 554
202 7 551 554 555 556
203 6 349 352 354 358
204 6 349 352 354 359
205 6 349 352 354 360
206 8 350 349 351 353
207 8 350 349 352 354
208 6 349 351 353 355
209 6 349 351 353 356
210 6 349 351 353 357
211 5 581 583 586 585
212 8 582 581 583 586
213 8 582 581 584 585
214 7 581 584 585 586
215 7 583 586 585 584
216 6 493 496 498 502
217 6 493 496 498 503
218 6 493 496 498 504
219 8 494 493 495 497
220 8 494 493 496 498
221 6 493 495 497 499
222 6 493 495 497 500
223 6 493 495 497 501
224 6 85 88 90 94
225 6 85 88 90 95
226 6 85 88 90 96
227 8 86 85 87 89
228 8 86 85 88 90
229 6 85 87 89 91
230 6 85 87 89 92
231 6 85 87 89 93
232 6 301 304 306 310
233 6 301 304 306 311
234 6 301 304 306 312
235 8 302 301 303 305
236 8 302 301 304 306
237 6 301 303 305 307
238 6 301 303 305 308
239 6 301 303 305 309
240 8 542 541 543 546
241 8 542 541 544 545
242 5 541 543 546 545
243 7 541 544 545 546
244 7 543 546 545 544
245 8 146 145 147 149
246 8 146 145 148 150
247 6 145 148 150 154
248 6 145 148 150 155
249 6 145 148 150 156
250 6 145 147 149 151
251 6 145 147 149 152
252 6 145 147 149 153
253 8 2 1 3 5
254 8 2 1 4 6
255 6 1 4 6 10
256 6 1 4 6 11
257 6 1 4 6 12
258 6 1 3 5 7
259 6 1 3 5 8
260 6 1 3 5 9
261 8 682 681 683 686
262 8 682 681 684 685
263 5 681 683 686 685
264 7 683 686 685 684
265 7 681 684 685 686
266 6 529 532 534 538
267 6 529 532 534 539
268 6 529 532 534 540
269 8 530 529 531 533
270 8 530 529 532 534
271 6 529 531 533 535
272 6 529 531 533 536
273 6 529 531 533 537
274 6 409 412 414 418
275 6 409 412 414 419
276 6 409 412 414 420
277 8 410 409 411 413
278 8 410 409 412 414
279 6 409 411 413 415
280 6 409 411 413 416
281 6 409 411 413 417
282 6 217 220 222 226
283 6 217 220 222 227
284 6 217 220 222 228
285 8 218 217 219 221
286 8 218 217 220 222
287 6 217 219 221 223
288 6 217 219 221 224
289 6 217 219 221 225
290 8 562 561 563 566
291 8 562 561 564 565
292 7 563 566 565 564
293 5 561 563 566 565
294 7 561 564 565 566
295 6 337 340 342 346
296 6 337 340 342 347
297 6 337 340 342 348
298 8 338 337 339 341
299 8 338 337 340 342
300 6 337 339 341 343
301 6 337 339 341 344
302 6 337 339 341 345
303 6 421 424 426 430
304 6 421 424 426 431
305 6 421 424 426 432
306 8 422 421 423 425
307 8 422 421 424 426
308 6 421 423 425 427
309 6 421 423 425 428
310 6 421 423 425 429
311 6 313 316 318 322
312 6 313 316 318 323
313 6 313 316 318 324
314 8 314 313 315 317
315 8 314 313 316 318
316 6 313 315 317 319
317 6 313 315 317 320
318 6 313 315 317 321
319 6 517 520 522 526
320 6 517 520 522 527
321 6 517 520 522 528
322 8 518 517 519 521
323 8 518 517 520 522
324 6 517 519 521 523
325 6 517 519 521 524
326 6 517 519 521 525
327 6 433 436 438 442
328 6 433 436 438 443
329 6 433 436 438 444
330 8 434 433 435 437
331 8 434 433 436 438
332 6 433 435 437 439
333 6 433 435 437 440
334 6 433 435 437 441
335 8 702 701 703 706
336 8 702 701 704 705
337 5 701 703 706 705
338 7 703 706 705 704
339 7 701 704 705 706
340 6 157 160 162 166
341 6 157 160 162 167
342 6 157 160 162 168
343 8 158 157 159 161
344 8 158 157 160 162
345 6 157 159 161 163
346 6 157 159 161 164
347 6 157 159 161 165
348 8 622 621 623 626
349 8 622 621 624 625
350 5 621 623 626 625
351 7 621 624 625 626
352 7 623 626 625 624
353 6 25 28 30 34
354 6 25 28 30 35
355 6 25 28 30 36
356 8 26 25 27 29
357 8 26 25 28 30
358 6 25 27 29 31
359 6 25 27 29 32
360 6 25 27 29 33
361 6 253 256 258 262
362 6 253 256 258 263
363 6 253 256 258 264
364 8 254 253 255 257
365 8 254 253 256 258
366 6 253 255 257 259
367 6 253 255 257 260
368 6 253 255 257 261
369 6 289 292 294 298
370 6 289 292 294 299
371 6 289 292 294 300
372 8 290 289 291 293
373 8 290 289 292 294
374 6 289 291 293 295
375 6 289 291 293 296
376 6 289 291 293 297
377 8 602 601 603 606
378 8 602 601 604 605
379 5 601 603 606 605
380 7 601 604 605 606
381 7 603 606 605 604
382 8 446 445 447 449
383 8 446 445 448 450
384 6 445 448 450 454
385 6 445 448 450 455
386 6 445 448 450 456
387 6 445 447 449 451
388 6 445 447 449 452
389 6 445 447 449 453
390 6 397 400 402 406
391 6 397 400 402 407
392 6 397 400 402 408
393 8 398 397 399 401
394 8 398 397 400 402
395 6 397 399 401 403
396 6 397 399 401 404
397 6 397 399 401 405
398 6 193 196 198 202
399 6 193 196 198 203
400 6 193 196 198 204
401 8 194 193 195 197
402 8 194 193 196 198
403 6 193 195 197 199
404 6 193 195 197 200
405 6 193 195 197 201
406 6 265 268 270 274
407 6 265 268 270 275
408 6 265 268 270 276
409 8 266 265 267 269
410 8 266 265 268 270
411 6 265 267 269 271
412 6 265 267 269 272
413 6 265 267 269 273
414 6 385 388 390 394
415 6 385 388 390 395
416 6 385 388 390 396
417 8 386 385 387 389
418 8 386 385 388 390
419 6 385 387 389 391
420 6 385 387 389 392
421 6 385 387 389 393
422 8 14 13 15 17
423 8 14 13 16 18
424 6 13 16 18 22
425 6 13 16 18 23
426 6 13 16 18 24
427 6 13 15 17 19
428 6 13 15 17 20
429 6 13 15 17 21
430 8 458 457 459 461
431 8 458 457 460 462
432 6 457 460 462 466
433 6 457 460 462 467
434 6 457 460 462 468
435 6 457 459 461 463
436 6 457 459 461 464
437 6 457 459 461 465
438 6 97 100 102 106
439 6 97 100 102 107
440 6 97 100 102 108
441 8 98 97 99 101
442 8 98 97 100 102
443 6 97 99 101 103
444 6 97 99 101 104
445 6 97 99 101 105
446 8 712 711 713 716
447 8 712 711 714 715
448 5 711 713 716 715
449 7 711 714 715 716
450 7 713 716 715 714
451 5 661 663 666 665
452 8 662 661 663 666
453 8 662 661 664 665
454 7 661 664 665 666
455 7 663 666 665 664
