LAMMPS data file via write_data, version 23 Jun 2022, timestep = 3000

770 atoms
31 atom types
715 bonds
17 bond types
1087 angles
18 angle types
455 dihedrals
9 dihedral types
0 impropers
2 improper types

-0.5469580115984183 20.546958011598406 xlo xhi
-0.5469580115984183 20.546958011598406 ylo yhi
-0.5469580115984183 20.546958011598406 zlo zhi

Masses

1 12.011
2 12.011
3 12.011
4 12.011
5 12.011
6 12.011
7 12.011
8 12.011
9 12.011
10 12.011
11 1.008
12 1.008
13 1.008
14 1.008
15 1.008
16 1.008
17 1.008
18 15.999
19 15.999
20 15.999
21 15.999
22 14.007
23 14.007
24 14.007
25 14.007
26 18.998
27 30.974
28 6.941
29 32.065
30 32.065
31 6.941

Pair Coeffs # lj/cut/coul/cut

1 0.066 3.5
2 0.066 3.5
3 0.066 3.5
4 0.066 3.5
5 0.07 3.55
6 0.07 3.55
7 0.07 3.55
8 0.07 3.55
9 0.105 3.75
10 0.105 3.75
11 0.03 2.5
12 0.03 2.5
13 0.03 2.5
14 0.03 2.42
15 0.03 2.5
16 0.03 2.5
17 0.03 2.5
18 0.17 3
19 0.17 3
20 0.17 2.96
21 0.17 3
22 0.17 3.25
23 0.17 3.25
24 0.17 3.25
25 0.17 3.25
26 0.255 2.95
27 0.2 3.7
28 0.0025 1.506
29 0.25 3.55
30 0.25 3.55
31 0.00034 2.126

Bond Coeffs # harmonic

1 268 1.529
2 414 1.33
3 320 1.4
4 340 1.09
5 340 1.08
6 340 1.08
7 320 1.41
8 570 1.229
9 320 1.36
10 300 1.47
11 440 1.27
12 350 1.34
13 340 0.96
14 340 1.01
15 420 1.56
16 200 1.81
17 300 1.43

Angle Coeffs # harmonic

1 50 109.5
2 80 120
3 60 120
4 37.5 110.7
5 40 120
6 33 106.4
7 33 107.8
8 35 120
9 60 109.5
10 60 124
11 80 123
12 80 120.4
13 50 109.5
14 50 109.5
15 50 109.5
16 50 120
17 80 90
18 80 180

Atoms # full

579 49 11 0.06 3.2128645876472572 0.26900219587168106 1.552621832467946 0 0 0
260 22 11 0.06 0.7612399672807351 3.5671058218193945 1.7610361230357476 0 0 0
255 22 19 -0.35 2.8923666748908032 3.805552775115995 2.1711084908873324 0 0 0
574 49 19 -0.35 4.775351066243464 -0.300423264943599 2.610875630553353 0 0 0
257 22 1 0.22 1.5705418283828934 3.267167941879429 2.4541346367050525 0 0 0
575 49 2 0.22 4.080806056199194 -0.3559817128588014 1.425812205436638 0 0 0
202 17 11 0.06 -0.37258305632581323 3.95567289119146 -0.23161996559693515 0 0 0
261 22 11 0.06 1.5959585049067013 2.1791551801678564 2.4012129513020457 0 0 0
253 22 9 0.52 3.9649963203198597 3.314791386741853 3.0293872861368834 0 0 0
259 22 11 0.06 1.2021884613080467 3.588958795934471 3.424532610724193 0 0 0
569 48 11 0.06 2.0596265526139943 0.061773898579866926 3.586080949596388 0 0 0
570 48 11 0.06 3.518420857086193 -0.12512817037412283 4.689218915694385 0 0 0
340 29 19 -0.35 0.9255299583489804 19.460052178980497 0.5943558369428645 0 0 1
565 48 2 0.22 2.4697457944462373 -0.4847284120036845 4.454696328338745 0 0 0
256 22 19 -0.35 3.7162416484843916 2.751137599018631 4.272144439515712 0 0 0
571 49 9 0.52 6.092765295981059 -0.2319405283392773 2.1577316399689397 0 0 0
254 22 20 -0.5 5.079879836190882 3.094293748350053 2.4764353398269803 0 0 0
550 46 11 0.06 8.757401632156375 0.968368297950045 3.405391261490307 0 0 0
545 46 2 0.22 9.009278167475758 1.9968528390285454 3.2739189506186683 0 0 0
547 46 11 0.06 9.551716802046327 3.3946962913548835 1.6030263976031764 0 0 0
227 19 11 0.06 7.3534081176105275 4.850763588732911 2.0019169969158117 0 0 0
572 49 20 -0.5 6.937518097347331 20.397671630895893 2.8473993841841456 0 -1 0
549 46 11 0.06 8.108172969254177 2.4085207807060356 3.6397717694601717 0 0 0
546 46 2 0.22 9.280948896618174 2.346326374570161 1.767077306266453 0 0 0
544 46 19 -0.35 10.201175337906404 1.5665153133522174 3.8476359902903443 0 0 0
541 46 9 0.52 11.166336063202618 1.6613600317886603 2.830053183890412 0 0 0
542 46 20 -0.5 12.319819561481687 1.3446826788355661 2.960628860804024 0 0 0
543 46 19 -0.35 10.67986003640581 2.1819702889248913 1.6380204876625033 0 0 0
34 3 11 0.06 12.441132622809251 4.220607542266647 0.6821854776902792 0 0 0
548 46 11 0.06 8.305899274936678 2.2212725801537583 1.2159256406653767 0 0 0
152 13 11 0.06 14.999432967550652 1.1276930186581953 0.644233707159346 0 1 1
153 13 11 0.06 14.544825622182326 1.0164455161548278 19.99837315996558 0 1 0
30 3 1 0.22 13.138524327283324 4.44914559126493 1.4669723437927171 0 0 0
28 3 19 -0.35 12.313752441682139 4.813421561987662 2.6009931697680195 0 0 0
36 3 11 0.06 13.762769965780473 3.588456113772419 1.7701881785801472 0 0 0
507 43 19 -0.35 14.557254893905522 3.7344178598550446 4.307223386537672 0 0 0
712 63 20 -0.5 -0.5274534315894538 0.7839612347731595 3.1549416363525253 1 0 0
720 63 11 0.06 17.057333035956148 1.9258787660296033 1.3824885363744 0 0 0
715 63 2 0.22 17.533877944321844 1.9590513530979172 2.3699330888977306 0 0 0
714 63 19 -0.35 18.455789256984005 0.8563667730367701 2.4362968898773003 0 0 0
295 25 11 0.06 18.20218056403023 0.3195491385437892 5.0110365994353305 0 1 0
719 63 11 0.06 16.71202945705072 2.1038058972952483 3.0576749063751 0 0 0
711 63 9 0.52 19.64295512474021 1.4954666556416907 2.8280639271072228 0 0 0
716 63 2 0.22 18.407234558708076 3.174218034400252 2.385345579888122 0 0 0
713 63 19 -0.35 19.510470954822296 2.7873903704058707 3.2343441664140005 0 0 0
717 63 11 0.06 17.978613516065153 4.026820293643253 2.883334672570656 0 0 0
147 13 19 -0.35 14.319186984847613 20.29135130442411 -0.010686390438883198 0 0 1
203 17 11 0.06 -0.2962954418301618 4.991987648895587 19.54812659573372 0 0 -1
194 17 20 -0.5 20.530304353125146 5.652037977105616 2.397579898450335 -1 0 0
47 4 11 0.06 3.791073610486377 7.63940651054512 0.49984243985805477 0 0 0
38 4 20 -0.5 1.4011606713313716 10.420880410075362 2.2899007007352017 0 0 0
37 4 9 0.52 1.8446398953189918 10.195787026812098 1.1424790078088822 0 0 0
40 4 19 -0.35 3.0305810172266026 9.510454549766024 0.9145043217919147 0 0 0
224 19 11 0.06 2.99102592438217 8.040709940429654 4.541597066428217 0 0 0
221 19 1 0.22 3.876344376326899 7.688384520547281 5.0428397952165716 0 0 0
42 4 1 0.22 2.896022672697004 8.125419683337757 0.9531236267720204 0 0 0
46 4 11 0.06 2.1020555935921608 7.7384514380260665 0.24446435908928665 0 0 0
198 17 1 0.22 -0.24352421497349636 5.037565235346513 -0.4472247505593212 0 0 0
48 4 11 0.06 2.696424166232894 7.72146876103492 1.9519109714784846 0 0 0
219 19 19 -0.35 4.643955043661833 6.765250593323303 4.284440961126222 0 0 0
226 19 11 0.06 8.024601320424773 6.446946797726735 2.036796286529566 0 0 0
222 19 1 0.22 7.150186599698967 5.87983454317652 2.3662479656873656 0 0 0
220 19 19 -0.35 6.899637994315632 5.851055750058493 3.770673014945725 0 0 0
218 19 20 -0.5 6.4066614476280765 8.129971888288257 4.20258147720481 0 0 0
217 19 9 0.52 6.049953221334044 6.975854159314771 4.202506774653296 0 0 0
228 19 11 0.06 6.298040285910487 6.207193055842243 1.7779952210903436 0 0 0
271 23 11 0.06 7.501229919672689 8.620166894228383 19.502735364333674 0 0 -1
730 64 11 0.06 8.239026320820566 8.99218716424861 2.6398171634354974 0 0 0
725 64 2 0.22 8.758735394829037 9.924480681922647 2.772235848554372 0 0 0
269 23 1 0.22 8.286912951615099 8.966263080795919 20.261074542650277 0 0 -1
267 23 19 -0.35 9.056675949318072 7.958068310774948 -0.1513817251943192 0 0 0
272 23 11 0.06 7.687372267284971 9.673800694956826 -0.2952339693267202 0 0 0
729 64 11 0.06 8.953047456971767 9.906104791107472 3.870193979317622 0 0 0
266 23 20 -0.5 8.530080637544094 5.915481178816147 20.04719248457014 0 0 -1
394 33 11 0.06 6.271959101524707 3.408596125037575 -0.0384916177075616 0 0 1
35 3 11 0.06 13.7660575507248 5.299790246745502 1.144988337999053 0 0 0
26 3 20 -0.5 11.858471476935847 6.923549767358928 1.8424120969464663 0 0 0
25 3 9 0.52 11.398445149006227 5.860035052627332 2.3285334317514392 0 0 0
515 43 11 0.06 14.874369164206827 6.570162431660541 2.840173141410348 0 0 0
27 3 19 -0.35 10.15307885029986 5.946842630954038 3.0512920925064506 0 0 0
206 18 20 -0.5 15.291304303499789 7.371480236706486 0.6756091315137001 0 0 0
510 43 1 0.22 15.677539880536544 6.771273323482568 3.5585397857832186 0 0 0
274 23 11 0.06 12.268077187594198 6.094854246335718 19.228223413506456 0 0 -1
214 18 11 0.06 13.769916676276575 9.47332406447896 1.538688991973487 0 0 0
193 17 9 0.52 20.165387045975194 6.394960876883692 1.4485309151329988 -1 0 0
197 17 1 0.22 19.417554223006576 8.344176578256114 2.8287994630197133 -1 0 0
199 17 11 0.06 18.51142433179306 8.94722657554933 2.7088809603406885 -1 0 0
200 17 11 0.06 19.236173446873522 7.562429161747033 3.5301893602569265 -1 0 0
195 17 19 -0.35 19.841530378591493 7.78157437318046 1.6126041423840087 -1 0 0
201 17 11 0.06 20.206368101772256 8.946955788250005 3.2575303781733225 -1 0 0
196 17 19 -0.35 19.815758524519453 5.842605096059381 0.15052192090095462 -1 0 0
205 18 9 0.52 15.297515283499758 8.300917957422866 -0.10912626432641248 0 0 0
209 18 1 0.22 17.55996076608816 8.156427081027381 -0.5467165119785681 0 0 0
213 18 11 0.06 17.77731914241224 7.401544341900116 0.17282326097337464 0 0 0
718 63 11 0.06 18.6100555349176 3.4290715653965558 1.3295206826948902 0 0 0
514 43 11 0.06 16.56968475814191 6.840129538158505 2.930651310925348 0 0 0
207 18 19 -0.35 16.463135237874575 8.96723554400987 -0.40392630255802364 0 0 0
508 43 19 -0.35 15.768820340237239 5.8165885526363095 4.595564649737603 0 0 0
39 4 19 -0.35 1.1466205232946574 10.502920619115546 -0.024974632187715118 0 0 0
45 4 11 0.06 -0.5248705498104643 11.277085683097921 0.9623245171589438 0 0 0
43 4 11 0.06 20.41249240019402 10.910750506547336 20.342782965261655 -1 0 -1
41 4 1 0.22 -0.22835500767845052 10.611043868148597 0.15051999829575669 0 0 0
44 4 11 0.06 20.46844388854111 9.667511575863525 0.4649220928709643 -1 0 0
278 24 20 -0.5 4.096116395266075 13.868150151003636 1.2144954495482068 0 0 1
288 24 11 0.06 3.5334798708195603 11.64750791495506 20.238042556766807 0 0 0
277 24 9 0.52 5.119344765125564 13.344337086613804 0.7561407845336647 0 0 1
20 2 11 0.06 17.730179372651108 11.902553606904517 4.89709686806024 0 0 0
17 2 1 0.22 18.81016750195186 11.840698681888073 4.666377288991413 0 0 0
15 2 19 -0.35 19.518260632198682 13.063234479275227 4.275853089654239 0 0 0
698 61 11 0.06 2.204333683700335 14.82776884761181 3.0494243910779892 0 0 0
287 24 11 0.06 4.919663278989058 10.712597890658305 19.847265931279374 0 0 0
726 64 2 0.22 7.828336394014263 11.122150455937227 2.408803823512744 0 0 0
728 64 11 0.06 7.136884898421434 10.973204626751858 1.5962435839560563 0 0 0
281 24 1 0.22 7.22219333603169 14.593566777196997 1.1611218268789107 0 0 1
284 24 11 0.06 7.134026196616292 14.234303346606113 2.1925303380917294 0 0 1
723 64 19 -0.35 8.63359054192037 12.031480333391299 1.6513676127666543 0 0 0
279 24 19 -0.35 6.244536629017345 14.096529287785339 0.26060188722791067 0 0 1
285 24 11 0.06 8.136497755350412 14.26563174137525 0.708341038569666 0 0 1
282 24 1 0.22 4.626277091679376 11.67418237854766 20.268303084893788 0 0 0
280 24 19 -0.35 5.2034552142492565 11.929245421430304 0.4331130941439735 0 0 1
727 64 11 0.06 7.1974955506149 11.377413845327354 3.247844214782857 0 0 0
286 24 11 0.06 4.9464546379547185 12.380283277915439 19.51392038831264 0 0 0
724 64 19 -0.35 10.044472444941132 10.289607435017732 2.400642422685667 0 0 0
215 18 11 0.06 13.580818276070445 10.593164053445905 0.22254167784612044 0 0 0
210 18 1 0.22 13.4381010217843 9.579683655458965 0.5474879243673243 0 0 0
684 60 19 -0.35 11.002849485065271 13.054695472573105 4.962671637505097 0 0 0
690 60 11 0.06 12.899198351807703 12.404325413499569 3.855653496384276 0 0 0
722 64 20 -0.5 10.748484069041378 11.917992361618666 0.8997197826370611 0 0 0
689 60 11 0.06 12.890288458927111 13.04456673440351 5.374051004805892 0 0 0
721 64 9 0.52 9.887612261958777 11.358680148661316 1.4960400500816018 0 0 0
685 60 2 0.22 12.232880453424832 12.53897003501962 4.705713062019679 0 0 0
600 51 11 0.06 14.169102606869348 14.298484342727491 1.8478557936999698 0 0 1
595 51 2 0.22 14.089553241388577 14.66822232844904 0.8664163359293708 0 0 1
688 60 11 0.06 12.046325084604941 10.341997565025986 4.600120470219426 0 0 0
598 51 11 0.06 11.905112523188352 14.384033401663789 0.4393281057561239 0 0 1
596 51 2 0.22 12.847783172759417 14.437000798035351 -0.11332852034098984 0 0 1
540 45 11 0.06 15.401677617512517 11.538468296664226 1.672323428231897 0 0 0
538 45 11 0.06 16.54434345024106 10.827339609542049 2.8767030075898754 0 0 0
534 45 1 0.22 16.01879992641858 11.764885151298685 2.5537948102966053 0 0 0
539 45 11 0.06 15.42476363200991 12.061030651136448 3.4101225382950964 0 0 0
532 45 19 -0.35 16.848182320957726 12.85638326843145 2.2968424990784553 0 0 0
529 45 9 0.52 17.87156012108261 12.544380765065082 1.41720165026116 0 0 0
531 45 19 -0.35 18.530273956285576 13.60912266428143 0.8988371420818206 0 0 0
530 45 20 -0.5 17.97180551989969 11.456646686155791 0.8144504483397002 0 0 0
535 45 11 0.06 18.4516322790477 15.12478248550872 2.4245091787926887 0 0 0
19 2 11 0.06 19.268059293896357 11.393661467934212 5.55844823826973 0 0 0
14 2 20 -0.5 18.04914850879073 14.588971635250132 5.040889429686934 0 0 0
640 55 11 0.06 1.9380489840689266 13.62913525465299 0.12707485188579237 0 0 1
694 61 19 -0.35 4.783615917483093 16.702019704095868 3.5052025052353013 0 0 0
695 61 2 0.22 3.8635111292287867 15.842765932323156 4.139922046247818 0 0 0
696 61 2 0.22 2.5054179429916537 15.828867465732541 3.399046715509127 0 0 0
693 61 19 -0.35 2.771271491249881 16.607861504378306 2.2399177698474446 0 0 0
697 61 11 0.06 1.7083644700916647 16.31073107585931 3.9277085593024186 0 0 0
691 61 9 0.52 4.14282542868411 16.89973078754216 2.273746054705026 0 0 0
580 49 11 0.06 3.804491744032977 19.69145982746705 1.3430642836526816 0 -1 0
638 55 11 0.06 0.029957529585162068 14.35612311571095 20.338952270337316 0 0 0
348 29 11 0.06 -0.14693644769976333 18.200294457164524 1.9242538015021289 0 0 1
564 48 19 -0.35 2.2168818312298497 19.230176248820314 4.190544852834749 0 -1 0
573 49 19 -0.35 6.308100228427839 0.16606814023788863 0.8332626339762337 0 0 0
283 24 11 0.06 7.24104245686669 15.679073051428736 1.267523119864797 0 0 1
692 61 20 -0.5 4.760575324027215 17.48636715634509 1.3959948343862192 0 0 0
140 12 11 0.06 10.090915040430218 17.300708913965487 0.492913465602999 0 0 1
141 12 11 0.06 9.529609301420047 15.727755406660327 -0.21643253354920844 0 0 1
137 12 1 0.22 9.656572939761755 16.80170607301131 -0.37921401106865726 0 0 1
139 12 11 0.06 10.403789824146843 16.940845337200564 19.9851759328034 0 0 0
557 47 11 0.06 8.555106243244053 17.27746223641784 4.218820584470308 0 0 0
558 47 11 0.06 9.065302294233028 15.65070643916467 4.431995114052195 0 0 0
556 47 2 0.22 8.548859298795422 16.468151014492562 4.931982790848019 0 0 0
415 35 11 0.06 7.092707246403863 19.938251980003727 5.424737003205824 0 -1 0
311 26 11 0.06 11.980508483928872 18.685512651341092 1.759451240002889 0 0 0
312 26 11 0.06 11.14801617491904 18.63202125291439 3.239240820389053 0 0 0
306 26 1 0.22 12.156809609013777 18.45781812925484 2.810220973249987 0 0 0
310 26 11 0.06 12.865024507840342 19.1425861569204 3.1728659370860948 0 0 0
304 26 19 -0.35 12.543948217791026 17.134182531471318 2.9915734275007586 0 0 0
301 26 9 0.52 13.06398433448709 16.686521874203308 4.235998229984072 0 0 0
303 26 19 -0.35 14.219743071864057 15.851012718690628 4.2446597977070715 0 0 0
599 51 11 0.06 14.41004520898422 15.657464894235071 0.8997619499745124 0 0 1
305 26 1 0.22 15.13875124507998 16.319307367459118 5.185029432721975 0 0 0
302 26 20 -0.5 12.263393242863735 16.58384291159755 5.16428086378255 0 0 0
307 26 11 0.06 15.420004630619186 17.322500351110705 4.93495042089757 0 0 0
597 51 11 0.06 12.876625651115162 15.220756534872491 20.212983101151053 0 0 0
296 25 11 0.06 16.469222704423863 -0.03634900128822138 4.802166717000272 0 1 0
536 45 11 0.06 18.920553861700583 15.662551390642749 0.8714290094316295 0 0 0
533 45 1 0.22 18.261081917331083 14.915691029373576 1.3756455843599864 0 0 0
537 45 11 0.06 17.31830461975209 15.229250844470737 0.975595882330353 0 0 0
346 29 11 0.06 0.45065219271591217 19.68664287781317 2.5886608562883047 0 0 1
342 29 1 0.22 0.05988689405188741 19.25334411791333 1.6998397527354165 0 0 1
156 13 11 0.06 15.345684048691007 19.976729760571395 2.7755372764516175 0 0 1
148 13 19 -0.35 15.726345581388783 18.760360606747746 1.1026515380765634 0 0 1
297 25 11 0.06 16.926370047791323 0.756424583740587 6.310329344486912 0 1 0
293 25 1 0.22 17.25258200820482 0.03942863439826794 5.532556824811569 0 1 0
291 25 19 -0.35 17.229081191152424 19.88576952527658 6.209499089892936 0 0 0
289 25 9 0.52 18.043913948870852 18.879871177743368 5.672474559213754 0 0 0
290 25 20 -0.5 17.69375643607392 17.895020968183175 5.0687699176581305 0 0 0
154 13 11 0.06 14.907966181699507 18.22954284784148 2.76704077513509 0 0 1
150 13 1 0.22 15.706553729560868 18.966987548925516 2.4928318385366213 0 0 1
309 26 11 0.06 16.0605753233623 15.713935005674434 5.131667720770798 0 0 0
145 13 9 0.52 15.647408601869467 19.859822106474915 0.22776644784156097 0 0 1
347 29 11 0.06 20.101893841411716 19.49007548931649 1.477878746275616 -1 0 1
155 13 11 0.06 16.72494942554357 18.796045302930146 2.861902945532864 0 0 1
566 48 2 0.22 1.525707011396173 -0.20050127727333622 5.650117825125854 0 0 0
567 48 11 0.06 0.9579520171066367 0.7026246002447247 5.493590658813442 0 0 0
568 48 11 0.06 2.1860900223510864 -0.01593276998174087 6.534065277426924 0 0 0
755 72 26 -0.39 2.1661148804366674 2.5307521506485755 6.814938116677537 0 0 0
753 72 26 -0.39 0.18166167387668897 2.463930704000196 7.343510775650627 0 0 0
412 35 19 -0.35 4.576724327842317 -0.22307153839561733 8.208604304430636 0 0 0
420 35 11 0.06 5.262043042395887 1.4040080127807528 9.193040143475363 0 0 0
417 35 11 0.06 5.747347569207106 -0.02056162835970743 5.3286105574804274 0 0 0
750 72 27 1.34 1.2692429978450768 3.4961755847606133 7.5188322871735505 0 0 0
751 72 26 -0.39 1.7855250018472892 2.7733600717144262 8.781074742752903 0 0 0
419 35 11 0.06 3.570389376789697 1.0576316877396017 9.404386718421716 0 0 0
414 35 1 0.22 4.410265517032813 1.054097396437712 8.697961537639397 0 0 0
418 35 11 0.06 4.112613108919092 1.7066780272307387 7.8565569604425445 0 0 0
264 22 11 0.06 4.7540967810824695 2.6786601727633164 6.006147505935579 0 0 0
409 35 9 0.52 5.932063372687191 20.479581038028243 8.285521524302665 0 -1 0
488 41 11 0.06 9.010271160611262 2.8570348968321815 6.646430160421791 0 0 0
487 41 11 0.06 10.023998978437955 1.4961973749820547 6.7440094307009755 0 0 0
262 22 11 0.06 5.511441579228526 3.580116008204423 4.796508778015532 0 0 0
258 22 1 0.22 4.542049211632378 3.3971061459226983 5.246562205037355 0 0 0
67 6 11 0.06 7.805299294165698 1.6633547495354963 9.056917390779365 0 0 0
62 6 20 -0.5 7.1205786355051055 3.876395788719697 8.724583004687604 0 0 0
263 22 11 0.06 4.089365490771701 4.246348120743755 5.664829252118958 0 0 0
411 35 19 -0.35 6.721522785120418 -0.32369392674029585 7.203058815946452 0 0 0
65 6 1 0.22 8.244131485463562 1.8500079703740044 10.036957123887223 0 0 0
61 6 9 0.52 7.671998338737787 4.081113679340008 9.801321508549538 0 0 0
64 6 19 -0.35 8.103674592229536 5.38400384050201 10.116239945322729 0 0 0
513 43 11 0.06 14.581451770285952 2.9417481975735233 6.316769648936437 0 0 0
512 43 11 0.06 14.66915082651574 1.762561858612937 4.996918244223925 0 0 0
489 41 11 0.06 10.63335858389384 3.0692792763218213 5.985503401323656 0 0 0
483 41 19 -0.35 10.638001837377933 2.9744632380706246 8.025703950571081 0 0 0
485 41 1 0.22 10.057806961157658 2.568165535759733 6.767447587560559 0 0 0
481 41 9 0.52 11.849002388632911 2.2250847626083194 8.256836267550486 0 0 0
482 41 20 -0.5 12.931199208474128 2.782162230471014 8.412717865788537 0 0 0
511 43 11 0.06 13.133461814660492 2.5591220500980545 5.341662335060265 0 0 0
509 43 1 0.22 14.211268120044142 2.738875330872525 5.281793223370119 0 0 0
484 41 19 -0.35 11.616380471455468 0.9089237602769831 8.686863874014705 0 0 0
486 41 1 0.22 12.189517509795358 0.49882535498517844 9.907922774635418 0 0 0
57 5 11 0.06 15.553054425475958 1.100743484623655 9.95593273932564 0 0 0
56 5 11 0.06 15.403434728523962 0.7284935530324859 8.354604710509951 0 0 0
53 5 1 0.22 16.162881968859317 1.0701624420862217 9.027566250637259 0 0 0
463 39 11 0.06 18.570086797230616 6.126112086260575 5.856766516365438 0 0 0
465 39 11 0.06 19.558512175531256 4.665336728770232 5.708233670375028 0 0 0
461 39 1 0.22 18.790625189282324 5.1896604674688405 6.330039973618674 0 0 0
464 39 11 0.06 19.359472773279094 5.454627338520624 7.261202267167262 0 0 0
459 39 19 -0.35 17.644594951072087 4.377115977397335 6.6972523304048 0 0 0
458 39 20 -0.5 15.702236677259124 4.429222040844083 7.958365696317854 0 0 0
59 5 11 0.06 18.11280181076244 3.057268571993947 9.49337272929427 0 0 0
55 5 11 0.06 16.40593357174459 2.0928143520723084 8.865472454492682 0 0 0
51 5 19 -0.35 17.324319851482308 0.2380308254021073 9.074109806277482 0 0 0
54 5 1 0.22 19.011792199908 2.8591442350657332 10.057722352729009 0 0 0
52 5 19 -0.35 19.2997714694694 1.5288424543644572 9.528179595660477 0 0 0
225 19 11 0.06 3.4837672139820244 7.232096965406318 5.927186175127343 0 0 0
752 72 26 -0.39 0.7622881199712239 4.173259177477862 6.1852507229298075 0 0 0
754 72 26 -0.39 2.4093854060492923 4.579075264217439 7.660412650285872 0 0 0
431 36 11 0.06 0.5038070673325543 7.953289034805886 5.874459489027136 0 0 0
426 36 1 0.22 0.6051115969221754 7.715847873878634 6.90823368449356 0 0 0
424 36 19 -0.35 -0.09099190761948961 8.706321574082601 7.638170661166837 0 0 0
430 36 11 0.06 0.022593428689418604 6.798366861564238 6.983972850578491 0 0 0
756 72 26 -0.39 0.4019852058887372 4.4607956465849545 8.367058627352044 0 0 0
356 30 11 0.06 3.23128617658163 7.833076841284152 10.383561829580326 0 0 0
421 36 9 0.52 0.26045083796521096 8.73888421842141 9.035137033284839 0 0 0
423 36 19 -0.35 0.5088271873116101 7.528078107291545 9.663887117446535 0 0 0
501 42 11 0.06 1.9703623934413725 12.603737234234016 5.806401308722738 0 0 0
422 36 20 -0.5 0.7685199833074143 9.735890153258016 9.508227696175929 0 0 0
33 3 11 0.06 9.567180471145653 7.196385953044754 4.656015120555732 0 0 0
223 19 11 0.06 4.352260775976613 8.552226873902447 5.38929839275219 0 0 0
71 6 11 0.06 10.105549099312823 4.818796803172553 9.674366891613195 0 0 0
359 30 11 0.06 7.54953863353912 7.671335365097216 6.314260360367545 0 0 0
354 30 1 0.22 7.2186782610094475 7.011636255586782 7.155575598049985 0 0 0
352 30 19 -0.35 5.794379205077496 7.106088872862337 7.352179714470917 0 0 0
350 30 20 -0.5 5.18404755907468 9.180340594181505 7.6069334135749145 0 0 0
349 30 9 0.52 5.4265932078710595 8.113271556728204 8.180031822504475 0 0 0
358 30 11 0.06 7.411834771914582 5.941296515169887 6.968119455883928 0 0 0
360 30 11 0.06 7.852669412274759 7.168910168987766 7.992621883784944 0 0 0
351 30 19 -0.35 5.102745295381166 7.758885923609462 9.497555568559976 0 0 0
335 28 11 0.06 10.009703548151354 9.326669749279628 10.173304807902467 0 0 0
32 3 11 0.06 11.329955433380015 7.052751257161586 4.440220316761473 0 0 0
334 28 11 0.06 8.60650892767782 9.256008113146201 9.148076352709012 0 0 0
330 28 1 0.22 9.678334364383302 9.330745766564805 9.182449513377168 0 0 0
31 3 11 0.06 10.322591121530843 5.757805235004945 5.167741520814727 0 0 0
29 3 1 0.22 10.375404788889409 6.512828011545292 4.347677536407163 0 0 0
328 28 19 -0.35 10.267756121063213 8.436483661520217 8.302209971653884 0 0 0
506 43 20 -0.5 13.569198345340581 5.550233207816253 5.287919346991427 0 0 0
326 28 20 -0.5 12.362747946032702 9.195926642806693 9.059383190952438 0 0 0
325 28 9 0.52 11.648878159192003 8.225509352198452 8.60991571254396 0 0 0
333 28 11 0.06 13.653919924664967 6.7466339293852196 7.917455113167062 0 0 0
329 28 1 0.22 12.783216420469541 6.181621078352507 8.139440327109375 0 0 0
332 28 11 0.06 12.229176551394161 5.969923998523872 7.2295731553752205 0 0 0
331 28 11 0.06 13.17633987006683 5.279827091939457 8.60071302559572 0 0 0
327 28 19 -0.35 12.016090366709102 6.900522689258407 9.050821899067017 0 0 0
516 43 11 0.06 15.471898958949245 7.742777680818316 3.976476669985086 0 0 0
505 43 9 0.52 14.57037788540623 5.05861233939883 4.754562880843127 0 0 0
744 71 26 -0.39 15.775689008204955 8.317932859631545 7.1620881999954955 0 0 0
457 39 9 0.52 16.8262992418466 4.914561433056091 7.745261593267655 0 0 0
432 36 11 0.06 1.6508958609092024 7.577081780502176 7.061116623360813 0 0 0
460 39 19 -0.35 17.33765171444586 5.808351308802678 8.708663912902948 0 0 0
466 39 11 0.06 15.546783055463335 6.752337754626738 8.817917575887892 0 0 0
746 71 26 -0.39 17.516120789557554 9.356879424890392 6.506077218480997 0 0 0
462 39 1 0.22 16.282006365569472 6.390794033508366 9.468363963793717 0 0 0
468 39 11 0.06 16.672033757053214 7.217117788418568 10.053091038023537 0 0 0
748 71 26 -0.39 16.83937665734532 9.499989001384801 8.468341436601326 0 0 0
700 61 11 0.06 4.274405568678407 14.8619766646804 3.9105197474836633 0 0 0
497 42 1 0.22 2.8335596787565382 11.905460979386167 5.996556702690517 0 0 0
500 42 11 0.06 2.6155049616174773 11.37711010821929 6.904526403170045 0 0 0
499 42 11 0.06 2.8042914652702424 11.086661429548998 5.246197473995729 0 0 0
495 42 19 -0.35 4.109914152912141 12.450407053750318 5.900271812406063 0 0 0
493 42 9 0.52 4.412817874716512 13.501278798790562 6.778562588272264 0 0 0
494 42 20 -0.5 3.532761221713926 14.280697327974181 7.102265606940221 0 0 0
22 2 11 0.06 20.32029276491979 16.44397612186136 5.234427087885749 0 0 0
502 42 11 0.06 5.698457408774348 11.615120632884674 7.991952934158061 0 0 0
498 42 1 0.22 6.315347754698529 12.262535752563313 7.337670007454324 0 0 0
503 42 11 0.06 6.439060435745198 11.754004637997687 6.375642208981049 0 0 0
496 42 19 -0.35 5.688764241336945 13.535814393917496 7.333496555535325 0 0 0
336 28 11 0.06 9.919083959374 10.283897026930225 8.79170613461002 0 0 0
504 42 11 0.06 7.2977368042253525 12.330221483475357 7.82861437455745 0 0 0
122 11 20 -0.5 7.312319188539318 11.626906336275074 10.464820861445183 0 0 0
560 47 11 0.06 7.447216222353479 14.91426510988746 6.1521490451055225 0 0 0
647 56 11 0.06 8.242869857617364 16.249168520443618 10.504130116930702 0 0 0
681 60 9 0.52 10.276075074981756 12.20590578904141 5.840146740591762 0 0 0
682 60 20 -0.5 9.046519606969923 12.340991316421938 5.791527126991892 0 0 0
686 60 2 0.22 12.176553513523402 11.123240961911652 5.383985068068952 0 0 0
687 60 11 0.06 13.173270203765641 11.032487857142693 5.8693595162224135 0 0 0
683 60 19 -0.35 10.892995675310516 10.940887548631927 5.895626028927871 0 0 0
247 21 11 0.06 13.075630537998405 15.66480951450651 7.5646176126400295 0 0 0
242 21 20 -0.5 12.85737313725195 11.804747995756106 8.45993802945859 0 0 0
241 21 9 0.52 12.282121534119891 12.874305087411502 8.926921316654235 0 0 0
245 21 1 0.22 12.331893802785325 15.23153761277118 8.171492671085058 0 0 0
248 21 11 0.06 11.512922160402114 15.024678693563061 7.566678073965049 0 0 0
244 21 19 -0.35 10.964103510384488 12.807089254962913 9.59999738530062 0 0 0
367 31 11 0.06 16.0058582938548 14.179395639841411 12.155460648721322 0 0 0
732 66 31 1 13.387279396194092 10.468985117606572 9.210788513378231 0 0 0
21 2 11 0.06 18.91810310290898 11.065287225133773 3.92308287132768 0 0 0
749 71 26 -0.39 15.485270006177997 10.043250510149395 5.741157304815523 0 0 0
406 34 11 0.06 16.48864813140238 13.835634633540959 7.396465975795705 0 0 0
13 2 9 0.52 19.15373457445839 14.114780782808872 5.103117878957193 0 0 0
16 2 19 -0.35 20.06946959129104 14.511548927037571 6.00873053154476 0 0 0
407 34 11 0.06 17.155249723182152 14.244089940525633 8.946845918063824 0 0 0
747 71 26 -0.39 14.791487570201411 10.15662249891367 7.832687850613922 0 0 0
743 71 27 1.34 16.14243068264038 9.813336460407221 7.124582775432805 0 0 0
745 71 26 -0.39 16.56159329659851 11.37391422090641 7.168458441125807 0 0 0
402 34 1 0.22 16.49629120754711 14.53887221050506 8.172160092500423 0 0 0
408 34 11 0.06 15.427700035895613 14.407792392777665 8.498991512451104 0 0 0
18 2 1 0.22 20.260083131533626 15.914832867699127 6.196774755474351 0 0 0
24 2 11 0.06 0.17101174589780732 16.056947874262335 6.602200781193676 1 0 0
476 40 11 0.06 19.6929817758152 12.289891743254726 8.572888679018444 0 0 0
416 35 11 0.06 5.493233406983564 19.392638140268552 6.034798071755088 0 -1 0
563 48 19 -0.35 1.4428684068628077 19.73667919211674 6.385447882681835 0 -1 0
699 61 11 0.06 3.8011578399415358 15.627222606011683 5.230390027620353 0 0 0
561 48 9 0.52 1.7880903918891642 18.781236423000053 5.443554470754232 0 -1 0
562 48 20 -0.5 1.915050485365752 17.659117026053593 5.8633483306396394 0 -1 0
679 59 11 0.06 3.3361969918441177 16.900211695058623 7.728682327403947 0 0 0
675 59 2 0.22 3.0879887963099626 16.768216627590924 8.816961766095265 0 0 0
526 44 11 0.06 20.07666893071744 16.184706979654386 11.227198586831737 0 0 0
680 59 11 0.06 2.0577718226119486 16.38181372247753 8.86494547369384 0 0 0
674 59 19 -0.35 2.793491528030954 18.00446825985326 9.37656610287093 0 0 0
676 59 2 0.22 4.1836249153153595 16.108999775014375 9.624402234123757 0 0 0
678 59 11 0.06 4.012269567855375 15.066613450505406 9.946866030132687 0 0 0
413 35 1 0.22 6.180236060726984 20.271177759236252 5.9663432745708604 0 -1 0
410 35 20 -0.5 6.42012416260005 20.012302014311835 9.340632019306998 0 -1 0
69 6 11 0.06 7.757684644565597 0.9878690847850855 10.528571412865125 0 0 0
559 47 11 0.06 6.341976023175839 15.760241566286878 5.087254041903197 0 0 0
553 47 19 -0.35 9.094608319980278 17.489409417203134 5.7098813496697085 0 0 0
555 47 2 0.22 7.271173459523806 15.930034670174651 5.71023246759171 0 0 0
554 47 19 -0.35 6.98221987149652 17.00138268043618 6.5405715349565785 0 0 0
551 47 9 0.52 8.207178908673129 17.605361630800537 6.819830812928035 0 0 0
552 47 20 -0.5 8.815779105921308 17.6303646946849 7.903113120875815 0 0 0
677 59 11 0.06 5.0639135981127055 15.902692664055381 9.02331892271971 0 0 0
648 56 11 0.06 7.16565863044645 17.641473228655478 10.85781109763206 0 0 0
492 41 11 0.06 12.342597382708087 20.502962777201205 10.040071836896361 0 -1 0
652 57 20 -0.5 14.487855130799439 19.643412221793938 5.975202343764191 0 0 0
659 57 11 0.06 10.993333330132183 19.084362923995542 5.389112966826571 0 0 0
660 57 11 0.06 10.320753278578197 20.476276639558407 6.468895182445442 0 0 0
308 26 11 0.06 14.72246133035032 16.337179480527503 6.20009339911723 0 0 0
657 57 11 0.06 11.613662546703738 17.956575393799618 7.122058741865519 0 0 0
655 57 2 0.22 11.216081723983654 19.833013316942747 6.182620889584524 0 0 0
656 57 2 0.22 11.646135760951246 18.997607718124343 7.443561660114674 0 0 0
654 57 19 -0.35 12.34573666760289 20.317018052997867 5.4436770364983955 0 0 0
653 57 19 -0.35 13.012828157013088 19.283235739931726 7.595415948610057 0 0 0
658 57 11 0.06 11.129486748551493 18.858049414493983 8.35206177635262 0 0 0
651 57 9 0.52 13.317372659122455 19.672681175006126 6.261253570148223 0 0 0
249 21 11 0.06 12.205959234485714 15.937446060612475 8.96268181130823 0 0 0
404 34 11 0.06 16.064585324263355 18.876862384244802 8.19263400447369 0 0 0
649 56 11 0.06 9.82826128858501 17.666842859642934 10.128627938959296 0 0 0
23 2 11 0.06 19.50696195181053 16.40082779944799 6.867699308447107 0 0 0
292 25 19 -0.35 19.452595110659324 19.11791390952866 5.8316242594271825 0 0 0
401 34 1 0.22 15.77542437255279 18.63364063285964 9.251472732514943 0 0 0
399 34 19 -0.35 15.621882338925163 17.22979216865189 9.231201455963667 0 0 0
403 34 11 0.06 16.47691940348721 19.185755124300975 9.897537330456641 0 0 0
299 25 11 0.06 19.80566150659626 20.447980946233287 7.4390558038113825 0 0 0
294 25 1 0.22 19.737132933410436 19.359382281023393 7.234766348480689 0 0 0
298 25 11 0.06 -0.4497262874548238 18.86115827097307 7.591110354531914 1 0 0
300 25 11 0.06 18.960097303086663 18.982869709590844 7.888022358539905 0 0 0
400 34 19 -0.35 16.757818066491367 15.847760673683686 7.706856890450707 0 0 0
397 34 9 0.52 16.817890011922728 16.708380781080344 8.847699313696227 0 0 0
398 34 20 -0.5 17.862327516264195 16.89011685201409 9.507342280025394 0 0 0
187 16 11 0.06 -0.1696033170296699 4.120964119597967 11.933957445436214 0 0 0
188 16 11 0.06 -0.2520488288720279 3.675166480314564 13.644961467960597 0 0 0
182 16 20 -0.5 2.7078982809051007 5.00121618221336 14.287672453868135 0 0 0
185 16 1 0.22 -0.19981902008727903 4.514211945781986 12.92817408950983 0 0 0
189 16 11 0.06 19.988592318434897 5.121606578183904 13.078888096536781 -1 0 0
191 16 11 0.06 3.4148812081159967 3.7105516859707555 10.716854491221236 0 0 0
190 16 11 0.06 1.7149670029682316 3.8688295547930993 11.04787697736259 0 0 0
186 16 1 0.22 2.7004811596933935 3.9004429062122226 11.446028714956347 0 0 0
172 15 19 -0.35 3.9849875531000105 0.4925961970453341 14.731271350907994 0 1 0
170 15 20 -0.5 3.2657102598467906 0.0025097903896609264 12.576706047528095 0 1 0
169 15 9 0.52 4.13156057680864 0.4038438870857086 13.307863574772357 0 1 0
164 14 11 0.06 0.3900763733060898 0.41909493953314114 9.54903401651416 1 1 0
157 14 9 0.52 0.09341857576481383 0.631829603413564 12.269485105383469 1 1 0
158 14 20 -0.5 0.35297799932126417 1.7745092580373414 11.957207962321984 1 1 0
63 6 19 -0.35 7.97612657957184 3.040042342067045 10.729291079229306 0 0 0
66 6 1 0.22 9.508537371482825 5.614616421182843 10.063837457436891 0 0 0
70 6 11 0.06 10.008440089177935 5.911905310667545 11.02721983430304 0 0 0
192 16 11 0.06 2.8194023854816117 3.04852638189454 12.08952224218738 0 0 0
68 6 11 0.06 9.28297310306988 1.7132249852734263 9.892515562775314 0 0 0
323 27 11 0.06 10.63363407225233 0.16098327274677038 13.565379410393286 0 0 0
441 37 11 0.06 6.612245392454021 3.7792692616633836 13.551337673233794 0 0 0
437 37 1 0.22 7.033171389967333 3.2236946647922613 14.44469100559759 0 0 0
322 27 11 0.06 9.243234314901168 0.9405750352447244 14.21452273346483 0 0 0
318 27 1 0.22 10.185804287378891 1.109518210092724 13.79625526519585 0 0 0
324 27 11 0.06 10.612518700797027 1.6084355828792258 14.610223604292356 0 0 0
435 37 19 -0.35 7.84537865041951 3.997187821305584 15.295443161202437 0 0 0
171 15 19 -0.35 5.36408418957057 0.8465875940592724 12.834612548728163 0 1 0
439 37 11 0.06 7.536919496807739 2.4500662807692444 13.88408853324157 0 0 0
440 37 11 0.06 6.247300465705051 2.6607074015183083 14.939975881561502 0 0 0
490 41 11 0.06 13.121013730434733 1.0115364365046904 10.180709802772215 0 0 0
316 27 19 -0.35 10.039162799231105 1.9183904473191107 12.56687848138226 0 0 0
320 27 11 0.06 13.38412157827693 3.6997109961668047 12.534174434959832 0 0 0
314 27 20 -0.5 10.697095067656981 3.9028049982546476 13.334801904000562 0 0 0
602 52 20 -0.5 13.737506062321657 0.15454449721154984 12.834108394313125 0 0 0
601 52 9 0.52 14.159835347389762 0.6539737084159687 13.848046505013098 0 0 0
313 27 9 0.52 10.885824126086913 3.0058603803791426 12.528426413752332 0 0 0
315 27 19 -0.35 11.565196422704478 3.24648512935323 11.39197428832761 0 0 0
317 27 1 0.22 12.765949494709938 3.969492229888682 11.683013805019424 0 0 0
319 27 11 0.06 12.515053977156501 5.037903681770603 11.558046418241577 0 0 0
321 27 11 0.06 13.369235500715172 3.7725349133973447 10.785662255886997 0 0 0
605 52 2 0.22 15.46960109636595 0.9911435539954256 15.66843639968826 0 0 0
60 5 11 0.06 18.899924419048666 2.9331723193689645 11.157259824392693 0 0 0
50 5 20 -0.5 18.722148681404526 -0.22812646875184162 10.742861235891231 0 0 0
58 5 11 0.06 19.623321398563647 3.7090078810191285 9.755447536805308 0 0 0
609 52 11 0.06 16.16222161558433 1.672802988480766 16.198589925061007 0 0 0
49 5 9 0.52 18.29650894294516 0.6589534571287983 10.005920058872693 0 0 0
738 70 26 -0.39 17.797979373231534 4.158786086603147 13.565767344322543 0 0 0
740 70 26 -0.39 15.912247643844454 4.591405491167107 14.700134209679048 0 0 0
741 70 26 -0.39 15.772152412201832 4.888419088687565 12.547692008486951 0 0 0
736 70 27 1.34 16.848744850594876 5.356350207750582 13.675630122964776 0 0 0
167 14 11 0.06 19.129764047795874 1.075092059529465 14.725260976053876 0 1 0
355 30 11 0.06 3.8117460236690803 6.257749904177529 9.85320176561406 0 0 0
353 30 1 0.22 3.723675805312223 7.26963293715448 9.578043995204679 0 0 0
181 16 9 0.52 2.1116967750408264 5.061787678581042 13.237917755502423 0 0 0
183 16 19 -0.35 0.7705786013364815 5.498945719436763 13.266621051133553 0 0 0
429 36 11 0.06 -0.5194198411351502 7.484074347775753 11.49650853340444 0 0 0
184 16 19 -0.35 2.759729578152626 5.1320592875483015 12.035994038439416 0 0 0
624 54 19 -0.35 3.3091730289635772 9.94259425233339 13.556432869498238 0 0 0
630 54 11 0.06 1.8663792461038704 8.451214838629996 13.418940011328184 0 0 0
629 54 11 0.06 3.41930610415653 7.983637547250547 12.753818869138707 0 0 0
625 54 2 0.22 2.9632523864854963 8.587070048130089 13.53537687748541 0 0 0
621 54 9 0.52 4.18164602513545 10.170568351998531 14.674202768629062 0 0 0
357 30 11 0.06 3.124004208863625 7.292704037690515 8.633083054198064 0 0 0
3 1 19 -0.35 20.41644919799529 9.861472342397525 12.344470565000812 -1 0 0
72 6 11 0.06 9.52232689334972 6.405607750660986 9.434288834223498 0 0 0
380 32 11 0.06 8.20922352526884 8.847585106656236 12.553197656818284 0 0 0
381 32 11 0.06 7.823583256175617 7.316834579987038 12.04467678147275 0 0 0
375 32 19 -0.35 6.501151802296524 7.904479808426965 13.431103132589897 0 0 0
373 32 9 0.52 7.138703701278019 7.829277641148925 14.69644206090429 0 0 0
376 32 19 -0.35 6.669781066575139 6.815569912402867 15.515840572849362 0 0 0
377 32 1 0.22 7.3435795357734825 8.239136869321282 12.367087215290676 0 0 0
379 32 11 0.06 6.762605365925415 8.675167154501539 11.5431384898353 0 0 0
374 32 20 -0.5 7.726921121709511 8.852623005312779 15.074300258515297 0 0 0
731 65 31 1 10.640204818968954 4.956374328403686 14.499345660807258 0 0 0
770 74 26 -0.39 12.145297101549456 7.696761337110832 12.91337225753034 0 0 0
767 74 26 -0.39 10.25508617098705 6.816005002288377 13.376874705153757 0 0 0
764 74 27 1.34 11.387465090395992 7.39850883494433 14.194442481133967 0 0 0
765 74 26 -0.39 10.602183068244214 8.73890174651468 14.183441489258623 0 0 0
768 74 26 -0.39 12.5818368539852 7.852492904018094 15.05540804402992 0 0 0
766 74 26 -0.39 12.011222975704074 5.993263791394993 14.225174003630492 0 0 0
769 74 26 -0.39 10.612423932446095 6.915659906826998 15.426984581648117 0 0 0
428 36 11 0.06 -0.19023537329392148 5.950684532265962 10.547371037275976 0 0 0
467 39 11 0.06 15.73539295573699 5.696362320713345 10.133104549210186 0 0 0
425 36 1 0.22 -0.49102404846717285 7.014592472011459 10.535330555512612 0 0 0
11 1 11 0.06 18.237743367444004 8.712689688263072 11.739938915655298 -1 0 0
427 36 11 0.06 19.585258867201247 6.988248660639002 10.085342408022555 -1 0 0
739 70 26 -0.39 17.801674563249932 6.0700840932012285 12.653555008589256 0 0 0
742 70 26 -0.39 17.773401194234587 5.798821873575772 14.839110863787466 0 0 0
737 70 26 -0.39 16.03343344740717 6.605084504897227 13.7044646703547 0 0 0
6 1 1 0.22 17.765535775856996 9.5022784191445 12.38290175857044 -1 0 0
12 1 11 0.06 16.712535966656688 9.19522799920222 12.520956083325066 -1 0 0
10 1 11 0.06 17.751507186071606 10.3964065215882 11.795638648974116 -1 0 0
1 1 9 0.52 19.76461868025126 9.613037750912262 13.568026705065584 -1 0 0
4 1 19 -0.35 18.351047563517554 9.539070415261465 13.655417540364045 -1 0 0
126 11 1 0.22 4.542553831458465 11.670917119020547 10.969148680922892 0 0 0
131 11 11 0.06 4.711220929551447 11.492376292535015 12.013188520043421 0 0 0
130 11 11 0.06 4.762084281500427 10.781238245205044 10.388825552010964 0 0 0
124 11 19 -0.35 5.302594533116981 12.7900374891864 10.50434215668001 0 0 0
527 44 11 0.06 -0.4809256103254414 17.545641553763474 10.177409667503913 1 0 0
132 11 11 0.06 3.4257418405891444 11.89708015775579 10.901094721429923 0 0 0
8 1 11 0.06 0.4799469922934154 11.556241455255613 11.846111822014729 0 0 0
9 1 11 0.06 0.6432529580305668 10.966609475440556 13.490604258279964 0 0 0
518 44 20 -0.5 1.5464804468826778 15.132415164186733 12.335980930872326 1 0 0
5 1 1 0.22 0.4867392728752218 10.646864889731756 12.497527636406783 0 0 0
7 1 11 0.06 1.3459986313237164 10.187514950831282 12.13337607380252 0 0 0
456 38 11 0.06 5.3515899015797 17.93822311210115 14.454189752502915 0 0 0
525 44 11 0.06 0.5729155504705228 14.101398784898581 14.5281639665443 1 0 0
121 11 9 0.52 6.663243622498235 12.578765827999554 10.887246822458337 0 0 0
622 54 20 -0.5 5.173313136365358 10.925929978841227 14.48729390368301 0 0 0
123 11 19 -0.35 7.279891236401205 13.627191550968456 11.623200847885943 0 0 0
125 11 1 0.22 6.9037529772164214 13.529653001729802 13.036536833110443 0 0 0
129 11 11 0.06 6.965216755391092 12.47981042413358 13.398532201098462 0 0 0
128 11 11 0.06 5.806496849255621 13.82507712657724 13.19698007660667 0 0 0
127 11 11 0.06 7.524923889308823 14.254067393255271 13.609195008564964 0 0 0
251 21 11 0.06 11.854933564161607 13.681806548710988 11.293263011177169 0 0 0
238 20 11 0.06 10.254301165175885 13.593472787559607 16.04449987577688 0 0 0
243 21 19 -0.35 12.964127231863172 14.163037718789022 8.857570003109592 0 0 0
372 31 11 0.06 13.010541244546879 10.805127303708044 13.727575421153924 0 0 0
250 21 11 0.06 11.147491600798164 12.232351657158562 11.630084398220271 0 0 0
246 21 1 0.22 11.008738861863769 13.095698928633317 11.028601496001885 0 0 0
252 21 11 0.06 10.09892379667266 13.598561371252922 11.351702184111574 0 0 0
368 31 11 0.06 15.069308889063235 14.586083803877365 10.728064627997398 0 0 0
365 31 1 0.22 15.253699427493007 13.825134394589382 11.466802389717996 0 0 0
361 31 9 0.52 14.797147831560792 11.551179530979963 11.521926131676492 0 0 0
371 31 11 0.06 14.365847810856996 10.36829424777301 14.734918740122048 0 0 0
110 10 20 -0.5 12.448681297465123 13.349164847614823 13.751168296486567 0 0 0
364 31 19 -0.35 14.855575532845593 11.332164993684176 12.938140020831263 0 0 0
366 31 1 0.22 14.051927450304749 10.459181119993758 13.684720281122331 0 0 0
370 31 11 0.06 13.89337923251022 9.507337081810734 13.224583104885507 0 0 0
362 31 20 -0.5 14.004600676531242 10.946304682013443 10.791717280600427 0 0 0
363 31 19 -0.35 15.525984944391917 12.557954853919378 10.95648841788858 0 0 0
528 44 11 0.06 0.3567050261414385 15.90845906035179 10.161320409572784 1 0 0
477 40 11 0.06 19.74192734324916 11.267130039530295 10.029986719085324 0 0 0
473 40 1 0.22 19.35966840023969 12.195757327212275 9.598292241091803 0 0 0
475 40 11 0.06 18.253868260048506 12.105096568671769 9.522804764243057 0 0 0
470 40 20 -0.5 18.086997959035322 14.464169642300782 11.082323596855948 0 0 0
471 40 19 -0.35 19.83447058484711 13.26860146102147 10.30693019864351 0 0 0
469 40 9 0.52 18.92371413458126 13.626073125727578 11.300314926046388 0 0 0
472 40 19 -0.35 18.818535501114866 12.738092580236476 12.416957919535324 0 0 0
369 31 11 0.06 14.337653349035651 13.669672035980145 12.042562356360982 0 0 0
474 40 1 0.22 18.814739113510527 13.326264429732104 13.698461170721423 0 0 0
478 40 11 0.06 18.25097623258341 12.707204332506166 14.350443096944804 0 0 0
117 10 11 0.06 13.874926831689589 15.52777845454341 16.149086554025175 0 0 0
450 38 1 0.22 4.876656777069514 16.979362951276556 14.581641581006535 0 0 0
454 38 11 0.06 5.182295942747195 16.532725236663886 15.531346023572949 0 0 0
517 44 9 0.52 0.9112126057850403 16.094306840295353 12.75002989009998 1 0 0
519 44 19 -0.35 0.23976663195961445 16.140831043249577 14.000813126457416 1 0 0
671 59 9 0.52 3.418176133880226 17.879898133944536 10.635261024385649 0 0 0
672 59 20 -0.5 2.9728589914058343 18.551940973521752 11.608193851944225 0 0 0
673 59 19 -0.35 3.9048270455766154 16.581836513654046 10.936421248319197 0 0 0
520 44 19 -0.35 0.6618465105292182 17.147644414694078 11.906177548750515 1 0 0
161 14 1 0.22 1.1626616098976796 -0.03669712204566711 10.245071304689633 1 1 0
159 14 19 -0.35 0.6359189739515787 -0.3842616786114657 11.544240118071995 1 1 0
446 38 20 -0.5 2.3098135012855456 19.136368026806828 14.168078458918318 0 0 0
734 68 31 1 2.214820683663347 19.69689284598892 12.555887111711838 0 0 0
522 44 1 0.22 -0.12368517420449171 16.62622747227116 10.818371266619986 1 0 0
165 14 11 0.06 1.893790323194838 0.7340796060186345 10.285337569743122 1 1 0
177 15 11 0.06 5.92199869331998 20.08938306885979 12.284008596444064 0 0 0
646 56 2 0.22 8.063885361205815 17.155089448065404 11.140256178002199 0 0 0
455 38 11 0.06 5.24824287626021 16.411013394018582 13.733313045758726 0 0 0
643 56 19 -0.35 8.05201378842234 16.71014205784237 12.435000112144463 0 0 0
645 56 2 0.22 9.320970835543484 18.009938468384306 11.038803748367519 0 0 0
650 56 11 0.06 9.069128166287165 19.10215027102464 10.998952033716106 0 0 0
642 56 20 -0.5 8.944202480509487 17.709440250908777 14.399452859387232 0 0 0
641 56 9 0.52 8.790242150668965 17.61171163484088 13.169429156223423 0 0 0
644 56 19 -0.35 9.707249197169615 18.33890620758922 12.393991866135746 0 0 0
173 15 1 0.22 6.227973054237519 -0.23624962846715564 13.016309478510275 0 1 0
176 15 11 0.06 6.314268662116732 20.457607639003037 14.045424089295919 0 0 0
175 15 11 0.06 7.255990669886675 0.06766629583349193 12.739742990389622 0 1 0
491 41 11 0.06 11.498486282786835 0.8153379322419656 10.673042744491473 0 0 0
405 34 11 0.06 14.7718857208162 19.07615966928764 9.343808419815687 0 0 0
604 52 19 -0.35 15.475668085100098 0.6111712397893416 14.317584501520424 0 0 0
111 10 19 -0.35 14.319454645180196 14.284942379302796 14.866483675981828 0 0 0
119 10 11 0.06 12.477174717877721 15.797976231454845 11.871642504049259 0 0 0
109 10 9 0.52 12.991962216082252 14.343131047530758 14.293832884058434 0 0 0
112 10 19 -0.35 12.366857272656805 15.602772605814186 14.045452014228863 0 0 0
120 10 11 0.06 12.57351804075048 17.21819458110778 12.790922690906262 0 0 0
114 10 1 0.22 12.943403570180621 16.18094058005405 12.853187311949222 0 0 0
118 10 11 0.06 14.03805730134636 16.1922391339616 12.885208520207126 0 0 0
113 10 1 0.22 14.479917002129863 14.694813416517503 16.155135030096474 0 0 0
163 14 11 0.06 1.6564741932868494 20.16069459336037 9.779849649703952 1 0 0
582 50 20 -0.5 15.009978587112984 17.854918802332747 14.093087862423088 0 0 0
589 50 11 0.06 19.258627216441212 17.580997867977167 13.911428809705281 0 0 0
587 50 11 0.06 17.918382763797943 17.057248093699585 11.937076317505296 0 0 0
583 50 19 -0.35 16.417995050932383 18.214129205394485 12.350482233553196 0 0 0
585 50 2 0.22 18.433793708236244 18.26229469553212 13.684680122701227 0 0 0
584 50 19 -0.35 17.323773355110283 18.20126494123363 14.59872626945597 0 0 0
586 50 2 0.22 17.807374343239104 18.098625306185326 12.330746718988234 0 0 0
590 50 11 0.06 18.904529074131908 19.23429718149724 13.756138221087664 0 0 0
588 50 11 0.06 18.25273764055276 18.80049727371994 11.639769389105554 0 0 0
581 50 9 0.52 16.130875520566498 18.180454254624443 13.741723190203388 0 0 0
339 29 19 -0.35 -0.06534527541555302 0.03305518502867244 20.34707003644089 0 1 0
576 49 2 0.22 5.028335652930239 0.20613510825297554 0.24863338607362828 0 0 0
180 15 11 0.06 2.5475871432466404 1.6266616703703622 15.74489313060086 0 1 0
345 29 11 0.06 19.531153089411475 1.3542666670652328 20.432774565696867 -1 1 0
341 29 1 0.22 19.60731749446986 0.2756929442126602 20.529570160064004 -1 1 0
343 29 11 0.06 18.98846672058579 -0.2989281248358063 19.865821367085083 -1 1 0
174 15 1 0.22 3.424446834998697 1.6990419662717633 15.082179834729624 0 1 0
179 15 11 0.06 3.0220483962673512 2.3967154188007695 14.340061560367737 0 1 0
385 33 9 0.52 4.7257840500332176 3.3119906592278516 18.487679589379198 0 0 0
577 49 11 0.06 4.533963925302485 1.0772245108753062 -0.152644630646862 0 0 0
386 33 20 -0.5 3.7648561651865933 2.5624000357329546 18.383389378866767 0 0 0
204 17 11 0.06 0.8260703151028748 5.267265595436168 -0.23121517181903406 0 0 0
393 33 11 0.06 3.7213560297634283 6.341060689697987 17.855582949255876 0 0 0
395 33 11 0.06 7.708855266862765 3.167422702453595 20.24056237541547 0 0 0
178 15 11 0.06 4.118125046702839 2.391727103413198 15.57513355414787 0 1 0
710 62 11 0.06 9.900416497191415 0.01432749657368293 17.275274285694827 0 0 0
433 37 9 0.52 8.73319473058261 3.284739122468392 16.048019449615737 0 0 0
708 62 11 0.06 8.4744813686309 -0.15704145547078424 19.442087103652412 0 0 0
705 62 2 0.22 10.346903241323421 -0.466272538880949 18.16285704947356 0 0 0
706 62 2 0.22 9.62184208085961 -0.020737155421706177 19.465149792340185 0 0 0
703 62 19 -0.35 10.1152793925828 1.2391561607243904 19.86969799583745 0 0 0
434 37 20 -0.5 8.284847788224116 2.6086372810160787 16.99408014919299 0 0 0
707 62 11 0.06 9.76726264449861 20.22130377541852 20.06761809148587 0 -1 0
704 62 19 -0.35 10.977885491722489 0.7061961035425266 17.7245122050213 0 0 0
390 33 1 0.22 6.701128151304007 3.490326006186561 20.047331439304415 0 0 0
709 62 11 0.06 10.236309889456445 19.57301650459994 17.892072608911867 0 -1 0
603 52 19 -0.35 13.287667509395668 1.229717263117046 14.814159966765114 0 0 0
606 52 2 0.22 13.996081257165129 1.2198497061062898 16.039373507166957 0 0 0
607 52 11 0.06 13.905785671860036 2.2692731886487736 16.325861636908435 0 0 0
608 52 11 0.06 13.705845023381558 0.7190370912199855 16.953148928811082 0 0 0
701 62 9 0.52 11.116496790272103 1.412681779408685 18.939641084126684 0 0 0
702 62 20 -0.5 12.036744257397501 2.17972545496703 19.232428623695988 0 0 0
151 13 11 0.06 13.250006145996782 0.8735874451666465 0.08158589964232554 0 1 1
149 13 1 0.22 14.314669433340523 0.6220471825250546 -0.10264420536745028 0 1 1
344 29 11 0.06 19.241673498198075 0.09668409820407686 0.389950067389226 -1 1 1
760 73 26 -0.39 15.33262809885415 4.108757547979419 18.897170066956164 0 0 0
610 52 11 0.06 15.609489684084101 0.08770627264955178 16.2637619677407 0 0 0
168 14 11 0.06 19.07340669962337 1.7169631370913327 13.10152943009258 0 1 0
763 73 26 -0.39 16.897140523929117 3.1993768431347807 20.18097678644108 0 0 0
759 73 26 -0.39 17.53594933795415 4.761850743072228 18.859356675740237 0 0 0
758 73 26 -0.39 16.0462465121673 2.09433607864492 18.571461188599585 0 0 0
757 73 27 1.34 16.766652427961837 3.4604503440196908 18.721399996019038 0 0 0
761 73 26 -0.39 18.12414080452431 2.8085733655588476 18.503076228935413 0 0 0
162 14 1 0.22 19.316693327766792 0.8230907931449656 13.70364176880695 0 1 0
166 14 11 0.06 18.573133544187783 0.1259898010302828 13.340275311319841 0 1 0
623 54 19 -0.35 4.246355294949617 9.017131810339235 15.53173546204451 0 0 0
392 33 11 0.06 2.547792993085508 5.294591540940287 18.57795167651421 0 0 0
626 54 2 0.22 3.4981465925904196 8.0361511838188 14.934346506514391 0 0 0
627 54 11 0.06 4.3674955509599975 7.370429615940779 14.802542129627442 0 0 0
628 54 11 0.06 2.6892544887521392 7.403826851812183 15.341161399011957 0 0 0
391 33 11 0.06 3.20332988018081 4.837958518729064 16.976973837462168 0 0 0
389 33 1 0.22 3.451480230004139 5.286304612528852 17.961409179231225 0 0 0
387 33 19 -0.35 4.5189634874093985 4.682260755110812 18.669436060151455 0 0 0
74 7 20 -0.5 0.9783211925911597 8.270866539424402 19.014250025172302 0 0 0
84 7 11 0.06 -0.19375393394197926 6.083942043112023 17.274020814080913 0 0 0
388 33 19 -0.35 5.999589847514107 2.8000635955568334 19.035266319192772 0 0 0
273 23 11 0.06 8.975592963409044 9.691247041824498 19.840813763144745 0 0 -1
396 33 11 0.06 6.795590559404511 4.536215020890524 19.92749071073191 0 0 0
382 32 11 0.06 6.57779316496335 7.690683024542675 17.423781368112948 0 0 0
436 37 19 -0.35 10.113892642008995 3.648260853397807 15.919870248673815 0 0 0
383 32 11 0.06 6.76436459389073 6.044865383809413 17.46198988772447 0 0 0
378 32 1 0.22 7.0566403534626065 6.897340451431131 16.89983964918553 0 0 0
384 32 11 0.06 8.138606696490232 7.038923888104584 16.913425375712336 0 0 0
265 23 9 0.52 9.23863830682058 6.92009382947704 19.98234825449932 0 0 -1
443 37 11 0.06 9.790399673864089 5.168074194812738 17.32101385476387 0 0 0
442 37 11 0.06 11.470722534346521 4.832257803390938 17.051846280520472 0 0 0
276 23 11 0.06 11.081497398489265 5.427199811906524 20.3538114355202 0 0 -1
275 23 11 0.06 11.83217500263795 7.135728402347452 20.493019880756833 0 0 -1
438 37 1 0.22 10.477527706086667 4.3788805468089835 17.08227216184693 0 0 0
444 37 11 0.06 10.536323911786072 3.605290128951644 17.876493296223607 0 0 0
662 58 20 -0.5 9.3019279095998 9.642132805099251 17.227186711457094 0 0 0
270 23 1 0.22 11.418122335144819 6.338900262915842 19.845422195532777 0 0 -1
612 53 20 -0.5 15.630063720148025 6.7499195714308975 16.969372052812886 0 0 0
614 53 19 -0.35 14.947173578413473 8.847144973954746 17.70894225702851 0 0 0
268 23 19 -0.35 10.354798199172194 6.892941461000556 19.0767464885256 0 0 -1
733 67 31 1 16.253053542651912 5.337707107894949 16.518519827958542 0 0 0
762 73 26 -0.39 16.68547731477092 3.8219497876057815 17.210515162467637 0 0 0
73 7 9 0.52 -0.06727058840449585 8.500814229860069 18.404421436032457 0 0 0
211 18 11 0.06 17.476992797170524 7.595143391353828 19.59235834241673 0 0 -1
611 53 9 0.52 15.45763423510263 7.965543043684784 16.733156130117507 0 0 0
616 53 2 0.22 16.822938785098415 9.759797783280275 16.560036180461253 0 0 0
83 7 11 0.06 20.29780264909526 7.409982497133191 16.357718379989926 -1 0 0
613 53 19 -0.35 16.331414816617894 8.555584454454847 15.889497899620808 0 0 0
212 18 11 0.06 18.41840903383924 8.824448422746332 20.450797896317667 0 0 -1
82 7 11 0.06 19.190602420375257 6.249350062118008 16.812053877467513 -1 0 0
78 7 1 0.22 20.064925154909865 6.773045209753204 17.190866318146746 -1 0 0
76 7 19 -0.35 19.928717035942135 7.599626623062694 18.39215503916092 -1 0 0
79 7 11 0.06 1.291706390743891 11.036522980125483 17.7590015870288 0 0 0
523 44 11 0.06 1.3951377543280623 15.305195133322085 15.434556599178686 1 0 0
521 44 1 0.22 0.5061674321199179 15.110522146147439 14.925634092991688 1 0 0
2 1 20 -0.5 20.42088347684159 9.413442334780576 14.609203445849243 -1 0 0
632 55 20 -0.5 2.0592469981018606 13.384594342880973 17.28082557949054 0 0 0
634 55 19 -0.35 3.011068878262529 14.039054278480618 19.166229013988364 0 0 0
81 7 11 0.06 0.313174643416016 10.895516252758865 16.289857598015196 0 0 0
631 55 9 0.52 2.145494611589772 14.247602648002049 18.112327996268817 0 0 0
633 55 19 -0.35 0.9613128671325619 14.927554572493019 18.480652403318956 0 0 0
735 69 31 1 8.591764895347346 10.039276880934773 15.716268158591193 0 0 0
235 20 11 0.06 4.593066783787075 12.976776947613368 17.081666490212093 0 0 0
142 12 11 0.06 5.911664630920501 16.183862065351995 18.97723098745007 0 0 0
237 20 11 0.06 5.4708471168934105 13.09983599930909 15.611979024264224 0 0 0
233 20 1 0.22 5.567768672343021 13.15179243036077 16.6578553828736 0 0 0
236 20 11 0.06 5.729696579204509 14.221113018687111 16.856101897893147 0 0 0
230 20 20 -0.5 8.287909874234028 11.777560450284701 15.692072547778734 0 0 0
231 20 19 -0.35 6.657877992579329 12.44894549030198 17.20318741514155 0 0 0
232 20 19 -0.35 8.311797048980287 13.990411224300168 16.47837384200222 0 0 0
229 20 9 0.52 7.847669150268617 12.664827681379151 16.510581228458214 0 0 0
240 20 11 0.06 9.71200713988586 15.200861674040667 15.504831671847077 0 0 0
234 20 1 0.22 9.426739665993042 14.204729815915703 15.636173159487177 0 0 0
670 58 11 0.06 11.013788777009987 11.628037332516547 19.34247341345214 0 0 0
143 12 11 0.06 5.461366606359768 17.54373867084255 19.92297419957314 0 0 0
216 18 11 0.06 12.375003097824562 9.422923690636281 0.4818752356373781 0 0 0
208 18 19 -0.35 14.110849501399562 8.871321875409118 -0.47018566304744847 0 0 0
594 51 19 -0.35 15.14165364634173 14.18734933109828 0.17331381173864857 0 0 1
620 53 11 0.06 15.124892105287005 10.573298308337929 17.510038276190684 0 0 0
664 58 19 -0.35 11.173598820233257 9.793125089004903 18.86823888649512 0 0 0
619 53 11 0.06 16.583431636702848 10.42272129694363 18.464421242707168 0 0 0
615 53 2 0.22 15.94231590675979 9.86080422923697 17.782263610209924 0 0 0
661 58 9 0.52 10.539038652542024 9.733905667867194 17.50119922362962 0 0 0
116 10 11 0.06 15.504525159495595 14.917566529939585 16.25730850160106 0 0 0
663 58 19 -0.35 11.194189531732505 10.596485778570523 16.649261674948754 0 0 0
668 58 11 0.06 12.62861275341556 12.38163237252868 17.46962014521643 0 0 0
665 58 2 0.22 11.751622918488092 11.003281606985626 18.815261541331374 0 0 0
666 58 2 0.22 11.987467601598029 11.46310508612996 17.386279047744537 0 0 0
667 58 11 0.06 12.706813453879294 10.70319254625232 17.063539929291622 0 0 0
669 58 11 0.06 12.615073791838071 11.130008975706845 19.460616610010398 0 0 0
591 51 9 0.52 14.675906700230938 13.254028100244263 20.257858439754948 0 0 0
592 51 20 -0.5 15.392558778056806 12.388388360002587 19.77465492498603 0 0 0
593 51 19 -0.35 13.295507344409343 13.475657422795349 19.999397579941707 0 0 0
618 53 11 0.06 17.041569624732695 10.742428357517461 16.151704242848048 0 0 0
617 53 11 0.06 17.79017005886803 9.40241940634907 16.914733330585406 0 0 0
77 7 1 0.22 0.7241462082771226 10.361044604575016 17.139923994915648 0 0 0
75 7 19 -0.35 -0.31855993574876695 9.77475360323622 17.94198679914779 0 0 0
80 7 11 0.06 1.4202674089553768 9.666115226165443 16.665016811915628 0 0 0
480 40 11 0.06 18.230441334438673 14.24128416190078 13.751033368693204 0 0 0
479 40 11 0.06 19.806274256421275 13.392102713896145 14.110802375512488 0 0 0
106 9 11 0.06 17.365438736499833 12.615778921994886 17.734963982885077 0 0 0
107 9 11 0.06 18.73096353318119 11.981539056781164 18.773322732032803 0 0 0
102 9 1 0.22 18.126063748550195 12.873284364366556 18.41917010942702 0 0 0
108 9 11 0.06 17.592628103370288 13.169043266474553 19.346326652912225 0 0 0
100 9 19 -0.35 18.92971750359142 13.95139995550667 18.144360818642063 0 0 0
97 9 9 0.52 18.263760486400905 14.988434353914547 17.55128781011313 0 0 0
98 9 20 -0.5 18.00553373199493 14.99632862866223 16.346687190259857 0 0 0
639 55 11 0.06 2.84243592376345 15.008787861450838 -0.512031885638899 0 0 1
635 55 2 0.22 2.175754729553642 14.217848910448094 20.320802667089218 0 0 0
636 55 2 0.22 0.8913568033245189 14.911511560106911 19.904125814538148 0 0 0
337 29 9 0.52 0.3401144363665828 19.7890147944401 20.517941089564026 0 0 0
637 55 11 0.06 0.8474069653480041 15.955528536318559 20.302913922397842 0 0 0
524 44 11 0.06 -0.2591170469115347 15.0706812991167 15.709847637849938 1 0 0
578 49 11 0.06 5.257964873166659 20.51986274932545 -0.5400381192218404 0 -1 0
452 38 11 0.06 1.8880660697822083 18.60739978887755 17.44478152201802 0 0 0
445 38 9 0.52 3.0082719592678218 18.46686725670154 14.954316679180886 0 0 0
447 38 19 -0.35 3.4665013152495145 19.154114280215744 16.144194261868783 0 0 0
449 38 1 0.22 2.4321082574646558 19.468533153114855 17.108955344532063 0 0 0
453 38 11 0.06 2.8221682125904235 19.83398831004957 18.097135925098314 0 0 0
451 38 11 0.06 1.6797538195408426 20.145969137135012 16.699758682688632 0 0 0
338 29 20 -0.5 -0.1266068304220238 18.92213714393865 19.776997983386586 0 0 0
144 12 11 0.06 4.930444890501969 17.439172035886024 18.315288071964595 0 0 0
239 20 11 0.06 9.305552983875845 13.811291871088576 14.634091414757238 0 0 0
448 38 19 -0.35 3.4864651327310145 17.088957014646816 14.595289472023767 0 0 0
138 12 1 0.22 5.767772860508683 17.221105891008087 18.961456342084333 0 0 0
136 12 19 -0.35 6.874261096186447 17.968939203245412 18.588181802064376 0 0 0
133 12 9 0.52 8.061281035713067 17.400615476502665 18.94138757685733 0 0 0
135 12 19 -0.35 8.410080925179484 17.436813619493947 20.27821037383302 0 0 0
134 12 20 -0.5 8.775539685190088 16.941758255987885 18.071585503942707 0 0 0
92 8 11 0.06 11.335862312740282 17.651299648228914 15.452070707145754 0 0 0
115 10 11 0.06 14.23820353104642 13.798790794333847 16.80913973129981 0 0 0
93 8 11 0.06 11.308020879748762 19.234802064064773 14.790066454158795 0 0 0
91 8 11 0.06 12.771849730859087 18.445886666490843 14.66868248552581 0 0 0
89 8 1 0.22 11.925972620008801 18.556363188305113 15.345748232332781 0 0 0
87 8 19 -0.35 12.41066262750397 19.184910713235347 16.56191758905996 0 0 0
88 8 19 -0.35 13.99326407643783 17.46238843446031 17.1954369749325 0 0 0
86 8 20 -0.5 12.765392820212094 18.754839556308042 18.702484009128547 0 0 0
85 8 9 0.52 13.013251878760435 18.485528066775224 17.523334874848274 0 0 0
95 8 11 0.06 15.572603071943513 18.23550357559975 18.2357294686991 0 0 0
90 8 1 0.22 15.291273277630687 17.897607567963675 17.205898269879143 0 0 0
94 8 11 0.06 15.242614465650476 18.704705218422475 16.57896200255575 0 0 0
146 13 20 -0.5 16.61961305132882 20.323246068907416 -0.42449150733601343 0 0 1
99 9 19 -0.35 17.897916579584262 16.05349286530518 18.393729218328133 0 0 0
96 8 11 0.06 16.017597182620612 17.255861253123825 16.74459651688442 0 0 0
104 9 11 0.06 18.641517207459316 18.076586160986153 18.737557846009814 0 0 0
160 14 19 -0.35 -0.41122071749321926 0.2682390975145632 13.538950758974382 1 1 0
103 9 11 0.06 19.447033355161295 17.109238883037357 17.554769451654302 0 0 0
101 9 1 0.22 18.90847902786801 17.026639282050326 18.48985246662165 0 0 0
105 9 11 0.06 19.672610060439297 16.739044952089188 19.24588078297758 0 0 0

Velocities

579 0.014527008878188153 0.0030499202924881576 -0.01665022032886538
260 0.006597619824053506 -0.004385800728750178 -0.02242898410627666
255 0.0010236141562767838 0.0031982098033977264 -0.0016065712559991906
574 0.00028677452286578913 0.00033453940587823414 7.957898174206338e-05
257 0.0004978008706501251 -0.003521343474541062 -0.00440701579598567
575 0.009892028243470604 -0.008548178630154033 -0.0052182035419968695
202 -0.038470498678454486 -0.005429551409162082 -0.018183888395060552
261 -0.007452352496627186 -0.0039323437488460065 -0.019669927707420928
253 -0.0004589672710335273 0.00010010107469618043 0.0023175014507394796
259 -0.0014081043899541808 0.016645546098974735 -0.001722322358730856
569 -0.019367930049886333 0.0006721394769749977 0.020886539832183627
570 -0.006199641920977711 0.019576603862911036 0.011454389504969149
340 0.003673336542948271 -0.005339755517938902 0.003938669892333757
565 0.007127391918041363 -0.0034000476741859525 -0.0021817953552585707
256 -0.001217006656143078 0.0005325912841460515 0.004767845565316783
571 0.002313002642924373 -0.009288346763995661 0.0024066673341389877
254 -0.0006097627278281712 0.00116570056250702 -0.003118964273514948
550 -0.010410756277762646 -0.00020436099087902014 -0.0364668655852567
545 0.0016826666459833297 0.0011816497494902105 -0.007623927481020355
547 0.0339053523430627 0.0009927095723399895 0.01626098971918507
227 0.014785967455865237 7.668982492499464e-05 -0.029880438799676678
572 0.0007281459177787219 -0.002415169740582534 -0.00399846406111586
549 0.024683126688948277 -0.014661185085095915 0.012174895913551718
546 0.005327041429943886 0.004155263949984699 -0.00518137854941205
544 0.0010264115198961015 0.001779953896733811 -0.004067650513600379
541 -0.009909735223700061 -0.009937969585475919 0.008678471089964376
542 -0.012842853368559972 -0.0027153636537649464 0.007266062660547008
543 -0.0011287788093051125 -0.0012593286877354564 -0.008994618580820294
34 -0.005833068863767496 -0.0021096874826769807 -0.0038866905330963816
548 -0.004391771511777042 0.035805852044774565 -0.028635484593598572
152 -0.042862660472568294 -0.00406846343686944 0.041218688799027174
153 0.035137910789762736 -0.007394231090022187 0.00401953378382335
30 0.0015743089693737852 -0.0045105583119091726 -0.008546811216881176
28 0.0010476735520961488 0.0011839796887439294 -0.005851815865081475
36 -0.011675719476901178 -0.003624544037387452 -0.008294441593433184
507 -0.007794286476849276 -0.003487585448206501 -0.0049322087917758675
712 0.00611321413691087 0.005034989813633963 -0.001141311286607607
720 0.01952231149377464 0.009202762327103025 -0.030030276510074786
715 -0.0038652222959378395 -0.009078942036545683 -0.0021360665736691233
714 -0.004728246833696116 -0.002930324423526614 -0.00033768298873192604
295 -0.006954720643167268 -0.009652571387532744 -0.01143530940041536
719 0.0260331149601842 -0.00493551150340233 0.006948724787183321
711 -0.002427734028301577 -0.0003873947674898283 0.009317672601012772
716 -0.005295551252875309 -0.008307138765238297 0.003785259494023903
713 -0.005945884579942079 -0.002972735207202664 0.001416245945105033
717 0.013519501275819018 -0.031288074318271054 0.010639825535664362
147 -0.0031391812102946415 0.0014777743945954256 -0.0065189481279908715
203 -0.0033027642654370392 -0.0016594109834597525 0.008162888822009587
194 0.0010560243172673396 -0.005846773882463054 0.002343752275484867
47 -0.0051987415608533505 -0.01263030167388901 0.016446160462770216
38 -0.0012142097367545447 0.0010071805580867104 0.001178317974315367
37 -0.00576580604119255 -0.0013556938968472946 -0.0037184044760907435
40 0.004508418646719401 0.002070240779124554 0.0002606696460733402
224 -0.01658935883836327 0.0009252452552785342 -0.0012929424345546779
221 0.003146343900270876 -0.006617789754732448 0.0014585686680730848
42 -0.0046700717781746025 -0.007114857293914299 0.0014690741159705996
46 0.008018340535513343 0.009243375207087809 -0.02848969785365238
198 0.0007816116912485253 0.0003714001108743067 0.010065554927181744
48 -0.021647070458506015 0.0045371135721489235 -0.0010743706133185963
219 0.0028265631197236965 0.00011678817063691845 -0.007631684198812224
226 0.0012706686488867002 0.0023991393334086807 0.0053114565705958345
222 -0.00048486919289703534 0.0011837084443511892 -0.0012778825783307443
220 0.0006648171971640964 0.005141381650062963 -0.0015777820206457818
218 0.0010431998489643136 0.002535120503255183 0.001889311039538481
217 0.004622179358424691 0.0050284815360505395 0.004196418332412105
228 -0.0010987741421298334 0.004340853998708061 0.008207060405035159
271 -0.027035428537758657 -0.032563709244818266 0.0033380930132450703
730 0.008151175845780262 -0.0096166663163368 0.013863849647778316
725 0.002733260831952682 0.009302183384986772 0.0007829426191551696
269 -0.0038850543896554817 -0.005301877229375817 0.001638428495219753
267 -0.0032585466762692396 0.0007842398185462647 0.0013830578460067096
272 -0.014172227238923961 0.0081803078845151 0.005819173631690434
729 0.01204385740426882 0.006522327574494413 -0.004936167272600439
266 -0.0007832563711256825 0.0010267811919343656 0.001681826276066438
394 -0.008863972550002252 0.005468129087515611 0.009580687838042832
35 -0.0035647041952320078 0.0041720521656942134 -0.016275787460380844
26 -0.004476518154035937 0.00014240085348486196 0.002639234791196229
25 -0.004388743881165978 -0.0015880811530398652 -0.004651447695679994
515 0.0028125537282511948 -0.011258972866253724 -0.015060506508960474
27 -0.004881623989829961 -0.0052256289338478215 -0.0006561786808267034
206 -0.0036345578367374164 0.0057989798683851035 -0.004979688397387746
510 0.00014484559824876612 -0.002897393454008089 -0.002186279253539894
274 0.01287492314419733 0.05118110963572982 0.00888924694782656
214 0.03547858408957168 -0.0033085647448681888 -0.0027770885279275424
193 -0.002074147739157158 -0.006226922650847095 -0.002258091840187017
197 0.009037340217734264 0.0012202356219644186 0.001262403662620746
199 -0.02599098757214466 -0.014930538940044839 0.013899585506878752
200 0.039447558794293514 -0.003692391801391101 -0.0025646822534254065
195 0.00043733185043220567 0.002880643579884845 -0.0020433988187998392
201 -0.00916635662743998 0.005137682952776105 -0.011380633022124909
196 -0.0020597997665700685 -0.007673565122826492 0.008620456393877544
205 0.0031088959249957276 -0.0009363169063821269 0.0007238420544536295
209 0.008985828330213566 -0.0034693155279398777 -0.006449129237037996
213 0.01671296954828692 0.001789299599423648 -0.019572101250406485
718 -0.012412855955894338 -0.013150996726340293 0.009799157984244477
514 -0.014278096489317282 0.0183201819176012 -0.003357308443384406
207 0.010365244151867499 -0.0022644537620689444 0.0017263690523423468
508 0.003409333686902228 -0.004333106916118625 0.0004482097799976551
39 -0.0076989085661319494 -0.0014412358289465001 -0.006481170535418123
45 0.0027746475713777276 -0.03134878384524145 0.012696574863161354
43 0.01441207448042437 -0.0028183239124324687 0.011906392945857183
41 0.0037292916321533354 -0.008013456337651948 0.003283846313936654
44 0.019692026980840355 -0.014916615632386658 -0.009828811698331358
278 -0.00029632725892383705 -0.0009108235379695237 -0.007370597461199753
288 -0.013382683466766493 -0.010960754369541411 0.011619131080195109
277 -9.091240379297604e-05 -0.0053496671977286275 -0.000888379732441029
20 0.0008132680945700112 0.026496975721670726 -0.008835415119360313
17 -0.0015404240346765681 0.003025381514327034 0.008565071546229574
15 0.001252303345537196 -0.00250289885591044 -0.0025343470728534834
698 0.008067331099832799 0.00865779733243589 -0.005683519289200563
287 0.020804851337421007 0.007817928661053495 0.009862321392743463
726 0.0029385774536132493 -0.001625361754549693 0.010016829933060438
728 0.030914986892086868 0.006245628798650923 0.008037875332654537
281 -0.0070130449604812834 0.0013517584806041706 -0.0016456702579080702
284 -0.009515551302126573 -0.002782573132973195 -0.010628362999110777
723 0.00252309098047308 0.001428969586619055 -0.0006063077894332895
279 -0.0012495263000239542 0.0019212941546773875 -0.00813421262288496
285 0.0031541655719909607 -0.00728706836275953 -0.002475767686880428
282 0.005867939436030969 -0.0013269311005227047 0.00020144715452571872
280 0.0003052534101286863 -0.0012929411396912782 -0.0028285773909367457
727 -0.0111190759445368 0.00026053534948662773 -0.0007254283222136611
286 -0.008616146272466702 0.004028482685484775 -0.01862133329234844
724 -0.003838042869834772 0.006523862394765722 0.0014808998444329822
215 -0.011492836291622307 0.004130025696021516 -0.0017428226075952163
210 0.010184066418970432 0.009968303688983835 0.002737509846385872
684 -0.0004027109852855761 0.005439818078321807 -0.005359955786914465
690 0.018289193989551943 0.004693933161331393 0.00494063605222942
722 0.0043827222569589016 0.0010556550282757155 -0.00295321282951319
689 -0.0005663618938856411 -0.020782367578299092 -0.019019547247661646
721 0.0025460408389883205 -0.000631125845934224 0.001260901969886755
685 -0.009002331831128066 -0.005095228097640944 -0.006505712636696147
600 -0.013461394437301077 0.006176672163810314 0.003307261463825504
595 0.007035395762536564 -0.002899297097539901 -0.011232661602477333
688 -0.032983968686095544 -0.008919329144743351 0.0015843491756992836
598 0.021363909285559594 0.003153423750034718 0.02951648462044695
596 -0.004139725298937882 0.004970447690484975 0.006383665258467162
540 0.0060492269136504856 0.003450341184420098 -0.017095422671474455
538 -0.011749796528787946 -0.013893586178419152 0.010709305581417942
534 -0.0016486638332178806 -0.002047775622684044 -0.011287058022267779
539 -0.025065363297122823 -0.0014270170288999743 -0.02304918293715199
532 0.01007296312647278 -0.006933858801943328 0.004508493478991337
529 0.007809070434627955 -0.004151142387757802 0.006266274653464078
531 0.006210029945877382 0.0057352614081831775 0.0037758756374937944
530 0.0001946672250772725 -0.005902196579640373 0.005641856640657926
535 -0.03751877554917788 -0.004903042670110692 0.0019646736943052952
19 -0.008138156971842536 0.004876324877437522 0.0036815695002053385
14 0.0008968624683711803 0.0007699533934528029 0.002942383015976277
640 -0.014705119204620367 -0.014395879225198907 -0.01288327969297335
694 -0.0018930135229183063 -0.004877641082474398 0.007138784423693688
695 -0.004474949549763783 -0.01057284340413224 -0.003939369068657832
696 0.002336801634952279 -0.0008240045790663919 0.0022788034097312314
693 7.215275949834713e-05 0.006764324917352163 0.0017630241956190238
697 0.01727705022343145 -0.003830051129862881 0.022936776493098037
691 0.0012230410504952447 -0.005961924047392763 0.0007850788805025548
580 -0.017888252386910268 -0.009947583347999453 -0.025153584844909153
638 -0.006595513275385753 -0.005415234215848507 0.0291355575753747
348 0.010098264963067243 0.006007669758331032 0.003885933538921139
564 0.002086973089531557 -0.0020802318055362402 0.002451019565468524
573 -0.0011652170333895982 0.006062871907956287 0.008107742749578675
283 0.013791452789349228 -0.009919679101644065 0.021127776025841358
692 0.00147411458352444 -0.00041225456926502257 0.0017235992815316245
140 0.008574356718754983 0.01135771714681119 -0.01366800696217562
141 -0.0006286219163119264 0.0012544842163362364 -0.010863667541945302
137 0.008458607084251083 0.002417141209703506 0.0003207252322978082
139 0.007498420630759673 0.009241393873999474 -0.01362657960638386
557 0.000661624343521675 0.0119534262473603 0.01614600377370259
558 -0.007243019762559403 -0.0017971717848359297 -0.014999284926363187
556 -0.000908858348740392 0.0017185829389241836 0.0041518566224331525
415 0.005224313418351837 0.013654946206621726 0.004351539873133851
311 -0.014414439232807146 -0.027041735609748534 0.005734654394341873
312 -0.001665720277916871 -0.01960972614102457 0.00977592472170356
306 0.002617066447069527 0.00023664705006576565 0.0021903458887550724
310 0.00773099144594043 0.008173426470569298 0.008885773859949965
304 -0.004628449886565262 -0.009279561072596467 -0.0015103504504386837
301 -0.007335942164911046 -0.006226892741778606 -0.006690420209837645
303 0.0008345634151666883 -0.0017101907139096641 -0.0015313840899991674
599 0.0273447224987358 -0.009426581191319339 -0.04212181916936972
305 0.0004504138578296868 -0.0029796058444018217 0.0003839018159976472
302 0.007035520106118381 -0.003948050038676452 0.008776564657818179
307 0.004668493567544737 -0.01593089027520106 -0.013428830024219799
597 0.006201824999644062 0.004643359205395272 -0.00901749181618872
296 -0.025753380223263293 -0.02871996037163143 -0.017915588667387343
536 0.016869868961285152 -0.008277849256866933 0.005236488953797364
533 0.008911013035835066 0.003423497820135611 0.001618975863044753
537 0.005927388426041494 0.008056352761571767 0.013788289169163317
346 0.004311985544780428 -0.008394386776791513 0.01143770603539281
342 0.008458904993289214 0.0025180861767107603 0.0011698328620120234
156 0.039780670250747906 0.03642620326631306 -0.021171264945753478
148 -0.007371077040080151 0.0032030943702679006 0.0017081670286447845
297 0.008130088199914893 0.01477868123770804 -0.004721745268283809
293 -0.0002913569262059475 0.011307292242252957 0.0055857814912966515
291 -0.005420649470731552 0.008432947258972728 -0.00025724039858034613
289 0.0023919505231357703 0.003980417332700865 0.0017126346464946493
290 0.0129654693777783 -0.004674368548162361 0.009024260557733
154 0.0053299748339404604 -0.01270348319113199 0.022926134766959136
150 -0.004064766003797548 0.0009629687957831516 0.0030731285592078463
309 -0.014368984780010929 -0.03717971057448918 -0.01503412710344559
145 -0.0005950592376471881 0.0025299081154444274 -0.0005789170435340109
347 0.01635506660360553 0.005167746691806868 0.006038043086141978
155 0.008937526531743293 -0.02845955100841825 -0.016443395412883085
566 0.00741759495464356 -0.0043355337699667335 0.007454451599160166
567 -0.00778526994560672 -0.025915078153851353 -0.019928575585790864
568 0.003716330397630304 0.00504604628707726 -0.001939546380825914
755 0.0009741245630160129 -0.0023389301094762015 0.003016249506370343
753 0.00636631768339759 -0.004414298674216456 -0.00557548303686801
412 0.0011173288617860565 0.0040798007073241565 -0.00011778236811206643
420 -0.025597752022917284 -0.013705237572723267 0.0027928204226004344
417 -0.015252851371133557 -0.004429903892075316 -0.007291178059655456
750 -0.0005497824369268329 -0.0033307803425739 -0.0016664267865398078
751 -0.00022817744867095825 -0.004249580595046259 -0.006305893907405352
419 0.017156249491753546 0.009629180327984944 0.030716009551687944
414 -1.1090435496456168e-05 -0.00455865940164599 -0.0006434029978432986
418 -0.029490969355443136 -0.014931251094608598 -0.004949020598029419
264 -0.011094523569502544 -0.0026223962534693496 0.0016175851921034468
409 0.004520078598605891 0.0006717732112225082 -0.0004178069139450656
488 -0.0023475476040466475 -0.013342691584923213 0.004038638267051034
487 0.014633558013750438 -0.012889882395465386 -0.0059399700069382565
262 0.0006652059340633913 -0.01070055668158417 -0.021998363606328446
258 -0.00548744924335318 0.004706508099129671 -0.001881794251087271
67 0.000528590683588281 0.014012696240572912 -0.002486582031991898
62 0.0075995624130564005 0.00868731165216148 -0.003338652432408429
263 -0.005505287364562187 0.014714553852618276 -0.0071458639391938404
411 0.0032564391797920782 -0.0007452280091968668 -0.003839741451818562
65 -0.0014498489167095391 0.004233680707759242 -0.0012326087064910972
61 0.004497025248707601 0.003374569976547084 -0.0027662809822784446
64 0.000520947499039759 0.0011314846839484164 0.0008118611205883119
513 0.0006144210251183593 0.03157173691756453 -0.005307952381722547
512 0.007371195781556265 0.01225744677289296 -0.007069576468292165
489 -0.0010502719007257919 -0.004906427439499925 -0.007279533001014487
483 0.002770573080026403 -0.0007316878209908228 -0.0004437459850689488
485 0.001486234364945062 0.005892408425739983 -0.002322200406209313
481 0.002806158796351833 -0.004378075870451224 0.0017894897641687548
482 -0.0011927831746772813 0.0044795693944865815 -0.003609091243277364
511 -0.006799358075531291 -0.006553077504743638 -0.01736391789790301
509 -0.009784188675677256 -0.0006669992808140546 -0.0006660822882996354
484 0.0002775062963382292 -0.0015062960269709065 0.0015633488201318817
486 0.0009827097619735188 0.0026691114386669067 0.0019308827142838923
57 -0.01117762455805057 -0.003435869090409985 0.012595440528409219
56 0.009543451008772737 0.0034163780268872375 0.017117231091822154
53 -0.001164538944400396 -0.005075495816649399 0.0037452180360517534
463 -0.009301494933318409 0.005770624931973061 -0.010750556870774653
465 -0.008425116843278915 -0.004384969829830498 -0.00981106459573084
461 -0.0051316702811332725 -0.005728985564498536 -0.005418521351809821
464 0.0042163160469063056 -0.011525775342243907 -0.04223908805653613
459 0.012434371111415609 -0.0056892367142668335 -0.0010789442413422423
458 0.006185899210362602 0.0005514449449430483 -0.00018311375460620813
59 4.0845650960965334e-05 0.007539967121255842 -0.024676745924371912
55 -0.008818104279223018 -0.011629727286568413 -0.007950516030584175
51 -0.01001099257807134 -0.0006321717613667678 0.0035811460223789406
54 0.0015463651398223504 0.000188609329400449 0.004689158502913244
52 0.0010747581832365447 0.0006570418149854186 0.002723091272238949
225 0.013588716351566334 -0.019410547203320812 -0.017819561994995643
752 0.0005673768316852657 -0.004062477602347156 0.0012127426201723592
754 -0.003312667827622656 0.0010789584865575257 -0.00038302279395926786
431 0.03162142741953364 -0.019623730576903108 -0.007715651126834248
426 -0.00223918307810433 -0.0017232601587838714 -0.005591201847133002
424 0.012179904252764885 0.0035818361665440343 0.003675997816514206
430 0.008306347567665835 0.009700978691422604 0.006355288749075031
756 -0.002458800102501539 0.005723821410819207 0.0001497616603216821
356 0.01794263665143095 -0.010453741349800979 0.013887941576421354
421 -0.0078895774427832 0.0029424202454073744 0.003099886168593889
423 0.0051223728848925065 -9.93751754669166e-05 -0.0038488156762763416
501 0.0064868771965295715 0.018256002263211356 -0.0001238068920662084
422 -0.006618284287830655 0.005260134960967633 -0.0017286269393609588
33 -0.006803874407392816 0.017730197162486815 0.016634439372841096
223 -0.006082952066879339 0.012404854907241856 0.01861263935082913
71 0.011308006552499878 -0.0013173193710912634 -0.0059111047953265385
359 -0.009523607733029784 0.00904329238084938 0.003565533739291013
354 0.000928188564210922 -0.0006270913593573832 0.0004514520426397879
352 0.0016085744296963004 -0.0016303097195011426 0.007525058585514077
350 -0.00744361330667922 -0.004275388941087781 0.009359608277877934
349 -0.004991638663868459 -0.005066324936504085 0.0029165882778434777
358 0.023096688464950787 0.0049210667891723 -0.02613892594533647
360 -0.004783733578109254 -0.01291840341608451 0.00888500561592005
351 -0.0018382169761689592 -0.004238719634259958 0.0007560925745730517
335 0.007865307054089313 -0.007782258717676231 0.0023293161352598377
32 -0.0014842489017100145 -0.005974746692813803 -0.017523128784268375
334 -0.009729730371719444 0.002425347362693752 0.011718288467462142
330 -3.520660114611697e-05 0.0007233930102924204 0.005171844573747634
31 0.005591292558569278 -0.008784692669119114 -0.005957332768805773
29 -0.005375265058418595 -0.000634032500806289 -0.0030547861269944895
328 -0.004484505201414634 0.0016126219372322088 -0.0008179868085257421
506 0.002043246427816148 8.915370964886934e-05 0.012022196349624162
326 0.0027328580851303614 -0.00463407206939422 0.01815908828203947
325 -0.006620775393438327 0.009532945630892237 0.0011958006344140555
333 0.009879316634021446 0.015357346585566046 -0.013642170269935
329 0.013442579407468618 0.01014061658487243 0.0036656063993558492
332 0.009560962644033395 -0.024076666750725315 -0.00011499328062664878
331 0.008187718952173354 0.02476504710009167 0.0013050606721591927
327 0.004257396756065856 -0.002878170415979887 0.007633511760063465
516 0.00549820902442382 -0.009940150564814145 0.010664756467524988
505 0.008195253062794318 -0.0018758823929736703 -0.00415532599246368
744 -0.0072665869411349445 0.002589300373034533 -0.0031010813120653535
457 -0.0011349157427046276 0.002353222375322612 -0.001985453609433276
432 0.001105284529010614 -0.0018969323465992168 0.01601655857155011
460 -0.0074874529235711244 0.0054150385485146205 -0.009958864590807406
466 0.0014289154365927325 -0.005068154175637837 -0.004047831848933152
746 0.0010242754367306437 0.0017650157482293413 -0.006265518129605967
462 0.0043398045220534075 -0.00020441873717143007 -0.0033531930774244566
468 0.004653658961349798 0.0020779218300682138 -0.018836605616815855
748 0.006758385411848565 -0.0023213361261064645 -0.003418399680716058
700 -0.016870842687674872 -0.03267896862345156 -0.006279277770942169
497 -8.827310796154693e-05 0.0018069913393458164 -0.001222139933921854
500 -0.0038486297500843953 0.01895690551320001 0.012596801240325327
499 0.013357270760243397 0.011786326692607265 0.0032396239404774915
495 -0.007204923599331196 0.0011945731327800844 0.0035710338606172068
493 -0.005562919138146911 0.004090855522104985 0.0021335562485981755
494 -0.001465372991225693 0.0007010764127512018 -0.0028372260243260316
22 0.0030434842876929827 -0.01741200356321633 -0.012789540356736063
502 -0.025621604196188634 0.004854426995603955 -0.01284752826219458
498 0.0031699865011074356 -0.0074070919972513355 0.005134855292683445
503 0.0017696650497965683 -0.004843391132971049 0.015679955253081773
496 0.004676416302250371 0.003939774451627953 0.001866909141652073
336 -0.016078999306517697 0.02761925038989204 -0.01956730819180591
504 -0.011122720918170048 -0.007242207114045949 0.0010310285457362316
122 0.0037803007702237267 0.004257787563215146 0.005882109983890248
560 -0.02102378444884282 -0.01854678003358352 -0.03147511124476628
647 0.008524163700700589 -0.011977176561232771 0.024135653665676146
681 -0.001336793944094287 0.0038322454372812023 0.002021731005591652
682 -0.0031887665651248683 -0.01133086719207588 -0.0023729318018977335
686 -0.0016983703081998383 -0.005538640933312389 0.004876458413195328
687 0.0017107021764079576 0.007720590192774486 -0.03449633010051766
683 0.007084587257377656 -0.0001030044479221672 -0.002052355124985754
247 0.007931589012415814 0.003027016788667766 0.004503059847054677
242 0.0027010859356183517 -0.0023842987499497056 0.008177648289385697
241 0.0011509486476723716 -0.010903860271279322 -0.004795328213761769
245 -0.0015804881785380078 0.006876728361448091 0.0020028573967210785
248 0.008886687309514769 -0.005542539896752048 0.002236736952497447
244 0.010108855252829452 0.005282726558494026 -0.0008009463375286289
367 0.013104336509781855 -0.005759622301425918 -0.002176224064012225
732 0.002523453073122419 -0.0008522377283530493 -0.016221269107173482
21 0.001494916001748789 0.0018285367833942915 0.027987291759708682
749 0.0037276015040845307 0.004067287823693492 0.007617671339275555
406 0.0019975062554029146 -0.0018302176108978571 -0.00129289478393319
13 -0.002075615475177291 -0.00559764034500922 0.002630118204600305
16 -0.006062154345624847 0.007357771766343961 0.0027779903627995132
407 0.02218431675473923 0.004457731633453716 0.015909956841554343
747 0.0030792359965946584 -0.00693045910070661 -0.002849499574810496
743 0.0013157689781619888 -0.0007322471850209452 0.003111333063866652
745 0.0027344715912029603 -0.0014771106357378582 0.0027286940543230997
402 0.009266352945443465 -0.003085124999200391 -0.0008675181023180132
408 0.008364814072589492 0.03711815285043169 -0.02824893562192276
18 0.0018475614619684264 0.0039168468071922955 -0.008706367085969374
24 -0.005408856015781317 0.008504054915891556 -0.030235204891997196
476 -0.01931906297774992 0.007574625788920826 -0.029027339701697463
416 0.009290679445427583 0.019007777554141004 -0.01849806633395026
563 0.00234690379873129 -0.0028434665093326236 -0.000144357284562512
699 0.0234274029145547 -0.020048797996475503 -0.014992074847335956
561 0.0018322013382335244 0.009166212764910498 0.0012160376135614869
562 -0.0040550025460496806 -0.00013405947919187147 0.0028637386418835886
679 -0.008414714442409205 -0.008055089702453286 0.03381634729441925
675 -0.000644138111470614 -0.003572766548510984 0.004516078145001639
526 -0.015885365479009934 0.007787600971371902 -0.021591067974350713
680 0.016895098937353723 0.009213692115694262 -0.023329721720747734
674 0.007188091454289032 0.0009802887061681293 -0.0005238953579701181
676 -0.0042235288109580245 0.0052418349503102965 0.008020742443786007
678 0.001906262170032722 -0.02765142064063323 -0.026047962674678293
413 -0.0018308593661412846 0.004206056467836067 -0.003312409675438214
410 -0.002753640681585609 0.011023182455743342 0.012170518133213602
69 0.001895601886982797 -0.010920692615724746 -0.01472387802071788
559 -0.030194203458040917 -0.011413741843918745 0.004819049755660033
553 -0.007848992182814391 0.003501334996703544 0.005750219440419557
555 -0.008001927778446834 0.003836054266031711 -0.0023133730594961923
554 -0.0018803263179605716 0.002194428689599695 0.0015163189918344438
551 -0.003996410843050561 -0.001468001828139717 0.0006955047255424624
552 -0.0030639342851001687 -0.0017941448201622512 -0.0047562120331412355
677 0.005126334268967244 0.005248071971313667 0.001252803777569547
648 -0.030699109728217634 -0.012114310131243963 0.018553673139718566
492 0.009879541055058408 -0.025357808345737132 -0.011194368002815954
652 -0.003736448810123526 0.005559583996237592 -0.005621767981003822
659 -0.021985012837117637 0.02556563696868029 0.007020262474036291
660 -0.024741285986850534 0.019831360256222102 -0.041667391802326544
308 -0.039244917749141704 0.004281611057695393 -0.014711463464373653
657 0.02164693182047395 0.02245924707467725 -0.0004006631546411337
655 -0.0034749549418511935 0.0019224147756796164 0.0076558041217765225
656 -0.00025037897560744986 -0.00017905745345500162 0.0035382200668097824
654 -0.0022849357339382566 -0.002614147972783856 -0.0062227777945382525
653 -0.0017237173520702825 -0.006751706665832588 0.00262025848453245
658 -0.01852056101747789 0.005641282030052572 -0.027032013130038314
651 -0.005302056691142783 0.007203500767789894 -0.0038165307916784557
249 -0.002513839055921391 0.02622391876129716 -0.010114155441938201
404 0.006753916321129547 0.02441861091047843 0.013321498106873948
649 0.029173795249934784 -0.020619348316323935 0.0018922143707508952
23 0.005107949730921297 0.0010429263495492416 0.0025389860423745
292 -0.0033441893654320883 0.006494927656042956 0.0011527140202145512
401 -0.001524135392000133 -0.005035288006082109 -0.0035055185586022157
399 0.003255562865428753 0.0043129354301176094 -0.004366007364983617
403 0.014236904652246146 -0.004393169914534331 -0.003633840352898195
299 -0.013691037920717714 0.000118867109340191 0.013904947378485714
294 -0.0016660870423345902 -0.0021125848062171263 0.010941506328375218
298 -0.0049107566007759625 0.013949309411359868 0.03444154138649366
300 0.0018292248581325446 -0.002277345908691322 0.013209732061532817
400 0.007098834866890843 -0.003252364393508284 0.0014770270298306149
397 -0.0013759195456915115 -0.003625568799430192 -0.002099849943897719
398 0.004663273072163119 0.0021131723866074773 -0.0011451495880746296
187 -0.022216408356052264 -0.03063722903433491 0.0007569706353634388
188 -0.008884103171597407 -0.0180290481687846 -0.0009523829901215487
182 0.009502217365560511 -0.0036206200371315957 0.00010605990042501308
185 -0.002946018347980952 -0.0008079728908280897 -0.0011394152180197444
189 -0.008020664917529325 -0.016182094216540505 0.013828185513936603
191 -0.011759766480463056 0.008267966694590468 0.011449222046863041
190 0.007031820181607746 0.012237027874889292 -0.012081784739300643
186 0.0007055884975073313 -0.0014440179723572968 -0.006815040310266096
172 -0.011733782006250379 -0.004570644018585274 -0.003740520014315379
170 -0.005280905920185142 0.0014560073564958648 -0.00789892420704484
169 -0.002781155314440548 0.0026563634013236272 -0.005398631181800774
164 -0.006481282605525732 0.030157582351630532 0.03275712093698079
157 0.002265734260782091 -0.0010938073803167083 0.00395082592481065
158 0.0025614043319176004 0.0034992601947143914 0.002023986903080643
63 -0.003911676190626743 -0.0023011010432480764 -0.011547833705727414
66 -0.002276383629986411 -0.0002730390133367563 -0.005239705517847384
70 -0.018030606785191545 0.022810947940232616 0.020838254432765622
192 0.0007569534200067543 -0.012434079683006685 -0.014036486692943533
68 -0.010915595874873115 0.029261344363217288 -0.010641814694219636
323 -0.01497363858335196 -0.0035293449854612675 -0.004027500821393661
441 0.01358500623354606 0.004356172545762068 -0.00018615122815114998
437 -0.007200801941689089 -0.0004956111643314199 0.010710773383727248
322 0.018161916223613576 0.046099942550091456 0.03614432131259736
318 0.003775794514903336 0.011380150928716264 0.001752400839561857
324 -0.0013918813096920008 0.0025581878402678488 -0.010275285348120982
435 0.0037487169087332245 0.005217599883120876 0.006976147593953683
171 0.004129801058711441 -0.012816824372429978 -0.006473081705285963
439 -0.014925461849257606 0.00034970460029504094 0.029445859385875434
440 -0.004808351663315026 0.005872077321044621 0.020932564272882547
490 0.03267577512803549 -0.005126614410387466 -0.011703172292223252
316 0.00034827329064335006 -0.0021611166901177796 0.0012532184079047635
320 0.006351652943734731 0.023904208469561997 -0.00849983126456315
314 -0.003733087821339407 -0.0010497439527551017 0.0074077741023407685
602 0.008764767872589707 -0.0005268595160729081 -0.00212740810906626
601 -0.0062087637576982825 0.002806697902669279 0.0014874591536209129
313 0.011392502372710453 -0.006558287878519614 -0.004131270168842016
315 -0.0024806512625026463 -0.0014833472695672876 -0.0024235772246733625
317 -0.005905653424382974 -0.0020804910339568905 0.01003680012563408
319 -0.038686072303284434 -0.007671420673084847 -0.011860196785317413
321 -0.018610115610089052 -0.018172295933804313 0.019928425311487866
605 -0.0013696871847726458 0.010623780987876098 -0.0007929322466314389
60 0.012802890964375134 0.016365659025171536 0.02284438214921112
50 0.0043316658495580395 -0.004213795606876518 -0.0026507974786770857
58 -0.008395389743990104 0.0013292470336170768 -0.030361478585098554
609 -0.010648802389318377 -0.010621275250414019 -0.0013961721009098965
49 0.01134698226123721 0.0011136492171780036 -0.005215299773430789
738 0.0023903254471368362 0.00040889062570196254 -0.0006702598086143646
740 -0.007569803549716416 -0.0036973278555684427 -0.003679302222517962
741 -0.006333797979404752 0.0053757990980243245 -0.0011347636922028794
736 -0.00470821120010815 -0.0025684289471515536 -0.003963252029962097
167 0.01097250734074521 -0.016506497510119605 -0.004570501179831541
355 -0.003338398084533025 -0.0011983962934462124 -0.03435446422954015
353 0.0027642330843907284 -0.00925375317174789 -0.0011768974209962718
181 -0.0007628667666918232 -0.008535127122944696 0.0018614945024438378
183 0.003167423008555917 0.0034166887080451856 -0.009971605714371928
429 -0.01922454758175337 0.010408891157867639 -0.006022744455857137
184 0.0007378911495049667 0.004594432945329808 0.0010797129365490393
624 0.00042162589852174167 0.0044047246203214405 -0.0003125653669666411
630 0.011534094769400387 -0.008595729408103618 -0.004724560537060636
629 -0.0062003183640489306 -0.01725238307695345 -0.005785000136887807
625 0.002591228915451014 0.009638642812732016 -0.004268614481307768
621 0.007132699091182136 0.0013680681124007936 -7.988983155187228e-05
357 0.02958193850618291 -0.00865307105804592 -0.011642840557219028
3 0.0055492886467527645 0.0030079467015233317 -0.006400335835386659
72 -0.0021477318117132157 0.013661840497965077 0.024409219060070212
380 -0.0010216239385034255 0.01752844514384261 -0.003234156430602146
381 0.010718301036330119 0.002704583262935784 0.010174431672417094
375 0.005481439685083239 0.00574315484091749 -0.00021002173885887132
373 -0.003656235409235462 -0.0020074953953391522 -0.0013237821615100958
376 0.008922708565239114 -0.01272286402853773 -0.006089852944640081
377 -0.009255715343717006 -0.0031563621075892906 -0.005805767514182501
379 -0.03414236956607083 -0.008911458876064303 -0.014637525850785335
374 0.00034523442867223994 0.0013738779184821275 -0.0021901726158826155
731 -0.007866869950433949 -0.0034937513657734274 0.014883942847322078
770 -0.00572554894852143 -0.004212214839413111 0.0003608922569138101
767 -0.005925489636746313 0.009022894733197265 0.000980582065656655
764 -0.0023341032537128317 0.002855922313046746 -0.004260291898724233
765 0.0026852723277898637 -0.003980213701193982 -0.0063527846186749795
768 -0.00396350020408517 -0.0006096368974113391 -0.0047049202860177
766 -0.0019718014258647562 0.002258023253977246 -0.002585846099908266
769 0.002540494998251586 0.005604147795476159 -0.0014855872608402656
428 0.007985012476556416 -0.006662661325024561 0.03876217816636624
467 0.042716681763910046 -0.0018692777741992623 0.019338419736016625
425 0.0008913246192285411 0.003109865138488749 -0.007100681061718732
11 0.0027073279582033013 0.002112928901904249 -0.011102284306436781
427 -0.0001827722683901411 -0.00490985456903496 -0.010257236849134143
739 -0.0019325686760841565 0.0011219714886106086 -0.0010866819656800938
742 -0.0042183095625200765 0.0002958629889847251 -0.009079752345805011
737 -0.0030716670701701507 0.004939105813424383 -0.002345912181486759
6 -0.0014243248118057867 -0.004399781848326837 0.0024266051730550357
12 -0.0008995149258094693 0.005975034394285751 0.002080414901651123
10 0.015848367415137243 0.008444179884470883 -0.0007474154592523459
1 0.002138920346216756 -0.003977946870494575 0.003573034374863758
4 -0.008155640084740063 0.0020222221880391036 -0.00226227207999269
126 0.0008034153059287202 -0.001974277767174891 -0.0013411454020079163
131 0.009570703483000384 -0.0018725548147521067 -0.009446297203283716
130 -0.007005839100217284 0.010410112216395973 0.009360014343387393
124 -0.002969214880784873 -0.0006604304103968356 1.939642346394641e-05
527 0.0012680241535709886 0.016896413198666808 0.013344009497127033
132 0.007081610592142706 0.0017745775153104864 -0.007615674553468091
8 0.007441661291435819 -0.01970944120469522 -0.007400853028355491
9 -0.0002768242410407658 0.027475023234152848 0.010618593823903344
518 -0.007792544367688411 0.008554536312688864 -0.011002632766404341
5 -0.0011571524811947991 0.004522970721865846 0.015199879106627881
7 0.021258223509154576 0.007109054891092114 0.009998301685131697
456 -0.028204698679086804 0.013806567042245681 0.03261591985231463
525 0.0011463582104398078 -0.006863921742541462 0.027425875695036902
121 -0.000791846983380866 -0.004487174210932966 0.012260601645452946
622 -0.004597785295384822 0.00019515161876887573 -0.0020958131267222006
123 0.0033359174693498085 -0.0033612645044671743 0.0009235283865981074
125 -0.0035824325305789067 0.007804558084903158 -0.005918611067997326
129 -0.027033877486334193 0.018470530458773116 -0.009228191294784775
128 0.010083946228543562 0.020370435087463487 0.02124649105868299
127 0.004650689940728661 -0.03737859231068053 -0.03894298387573947
251 -0.0037615531352681777 0.016262546592097034 0.008388334150995668
238 0.006509227926686008 -0.0021962655685607278 0.014044920057440742
243 0.0002367890561747349 0.004187934915182192 0.006529414869147651
372 0.007528272268072685 -0.03476870309671541 -0.03383940249448161
250 0.007356751048291489 0.02466875079879625 -0.009578796988163848
246 -0.004577373907379912 0.008491773359589243 -0.006520788152885763
252 -0.013104455604302699 -0.011506030745555501 -0.009772695722333328
368 0.02213436405978938 0.007109209119767108 -0.0008148208418140559
365 0.005358821367779847 -0.0023563836081047463 -0.0006371783286365232
361 -0.0031649224569408065 0.004813720953905585 -0.006110548697343193
371 -0.03182714374103021 0.0021759262154299464 0.0042090769718947955
110 -0.009761418852939666 -0.003479850801565913 0.00328661863959149
364 -0.005325668530305139 -0.0026239736676048394 -0.004301857345571766
366 -0.006025860004785189 -0.0005631396640527362 0.0018323163413421506
370 0.02320496065198654 -0.011821786033232926 0.030603886625362575
362 -0.0015031066333955714 -0.008464007169122765 -0.007625366221536473
363 0.0007073110102979564 0.005404525081087983 0.0082587136069282
528 -0.010908416886765748 0.010509255223369042 -0.009926991109103138
477 0.0028723317093347187 0.00952035559048638 -0.013092950791427211
473 0.004257472506847901 0.0027850201427854797 -0.005371861917670943
475 0.006757787238247241 0.0026821350535304114 0.0021469383366006633
470 0.0033926257327383034 0.0024971502368363427 -0.0004593029875761063
471 0.006050216364798783 -0.0020844228865655183 -0.0019492142527011965
469 -0.0029801473668412837 0.0030747977790961086 -0.004179787823207155
472 0.0003547495828707558 -0.001899254446507073 0.0025099550500542723
369 0.015524601190228957 -8.984003641423818e-05 0.006664722115912103
474 0.004445388897239794 0.006675782742169581 0.001986915916270001
478 0.0017964088236286457 -0.0197280268583624 -0.000679151044498181
117 -0.014299143539151191 0.009609552267836998 -0.00901103937727141
450 -0.006403172407654625 0.0024685176255608353 -0.0014298697150204463
454 0.007211992069483562 -0.010326257988726288 -0.003296156292919088
517 -0.0068207906993877744 0.00023222866101462367 -0.001006489549919267
519 0.00036694533821216376 -0.0030356404467217287 -0.004314674490465976
671 -0.0018264646062425987 0.005823632247428239 0.00577621318840928
672 -0.010743978026060086 0.008332145716934686 0.0071743051580635065
673 -0.010568677575731303 0.000606660295402801 -0.004798117382183634
520 0.0016500739708997644 0.004029847550879167 -0.002184950753424336
161 -0.006205253451432794 0.0030580597475366807 -0.006372573481141312
159 -0.0077535431611717885 -0.0021175679782578266 0.0005876089822788175
446 0.0075929037241145554 0.0015258466208773825 0.005499382858282516
734 -0.006157874087527925 0.013639733204054318 0.01404411213730842
522 -0.009247070908688393 0.006203605321037306 -0.0033025509678628875
165 0.02239622930824399 -0.03355645515546309 0.0032393568723650514
177 0.008144009082874512 -0.019977836485320588 -0.004110280686147853
646 -0.010233548274640127 0.008136664369350809 -0.005816632292193587
455 0.00572997120475244 -0.01293750511287821 -0.006564007757313868
643 -0.0002724937180471683 0.0003030863810248036 0.004411496969271546
645 0.002236913816639243 -0.0009705408480952046 0.004521339553467918
650 0.022733174630599748 -0.0005829057246400455 0.009171271267569702
642 0.0058189811315725384 -0.0003176347217595284 -0.0044652685227232715
641 0.0030922030007717845 0.007500632047656217 0.0006754082595110185
644 0.000975560706702078 -0.005097649129773856 -0.0018972937730537902
173 0.0008932788913212892 -0.008343577296353915 -0.004410917089869452
176 -0.004945947975292981 -0.011903726497072397 -0.032960791447930966
175 0.012006092574737389 0.011164335542237402 -0.009816493309228748
491 0.03761545469553464 0.004949889345185483 0.02615654896267314
405 -0.00832496118089922 -0.005637684978049968 0.008505764247652025
604 0.0029821653862443375 -0.0032988695728464745 0.004651599571344967
111 0.003198764503930648 0.004512737088753165 0.007389268717952219
119 0.02923887536718226 0.008643184559973276 0.005309005318224059
109 -0.005794006498744465 -0.001464059545799986 -0.0015946940309223914
112 -0.008341353082047497 0.003560260848943155 0.006130959028936227
120 0.00063702198219028 0.021955402993969385 -0.014303834389004835
114 -0.002924046421728478 -0.01327119258598085 0.005015862584001677
118 0.008184237329756662 0.005623787865175159 0.012259104905743648
113 0.0023881290480307314 -0.00011874054054961666 -0.004525785143126897
163 0.006401211161380049 0.0019217529125196188 -0.0046853128853839125
582 0.003375691662424965 -0.00452986176214616 -0.00048503210632924786
589 0.004544980871928693 0.007558561100030242 0.009825705417888601
587 0.0063933932815263715 0.014773769566279075 0.012842245151669115
583 1.2906363160565904e-05 0.00209240117485016 -0.0028314289197099336
585 0.003040412401687688 -0.0038768151447605053 -0.0005255431658140762
584 0.0028875100985166955 0.009248379488091587 -0.0033368730944147006
586 -0.005308691846596889 -0.005514723584124369 -0.00554552609040539
590 0.0162104536579517 0.0014202945539910745 -0.03188788156865446
588 0.016058967703251707 0.00860800780360709 0.0058478303890289835
581 -0.002353718268729714 0.001411831503478829 0.004560936523180561
339 0.005276580259767691 0.0009939046965379997 -0.0016830564724955286
576 0.010589289826071872 0.0004457025262649485 0.0035431269212250712
180 -0.02460871642861342 0.007829086234569382 0.018760029650613637
345 -0.003277536192474972 0.007471420251408189 -0.02957925211252887
341 0.0023761934287837667 0.004489339603146195 0.0014419236008166789
343 -0.003432890741342086 -0.0365737833064881 0.007547955782070519
174 -0.0013156556330309382 -0.006864111984771265 0.001287838437354232
179 0.014912391211930264 0.016070883568899977 0.018956224404353537
385 0.001720610061923582 0.003350838614674068 -0.0020730950684574746
577 0.019000138995299128 -0.006843382108698805 -0.004581265815512089
386 -0.0028117009180238612 0.0013339958814353964 0.010308007219366925
204 -0.0026349231817672687 -0.003207206980437901 0.007402476145428005
393 0.0013391254125750835 -0.0019902374817402425 0.010911169185256942
395 0.015900240868305864 0.004808769548586374 0.01739916852579326
178 0.03133566285297594 -0.01646668352072874 0.017909039613147444
710 0.029059137946431605 0.0047681078764351065 0.014464908567752077
433 0.0014596674822376899 -0.0019680292042535646 0.0037509536984378323
708 0.012113658225512264 0.017297032977224222 -0.02494983180800355
705 -0.0034056385582473332 0.0003085299653420877 0.0034407556542842715
706 0.006677260409149455 -0.0073062384813110505 0.005282674828765171
703 0.0031930127733951564 0.005782335045698315 0.004890238758388374
434 0.0019069909944534414 -0.007584908363670659 -0.004466068185168587
707 0.004310667209734016 -0.007994403143819462 0.004571447397437164
704 -0.002232099060399492 -0.007112856350732464 0.002121865669012174
390 -0.0027012736599730325 -0.0018186159367648892 0.0020463995462393987
709 0.02410942302695411 0.006951622402189854 -0.0034220058053389653
603 -0.0036671076079754406 0.013695819692797937 -0.004318212535749207
606 0.0016859902522693862 0.001117501750022215 0.002119865680252351
607 -0.0049810500751892115 0.023947172684443616 -0.014740664903298208
608 0.015283399686719564 -0.013324590853850944 -0.002995099888076704
701 -0.00058421417739084 0.009387567649686058 -0.003503363141950076
702 -0.005759861725157207 -0.0010301150486074007 -0.006337828166704952
151 -0.012176457569207415 0.000830358864202534 0.014108834886892819
149 -0.005196587850494486 0.001114644582038323 0.011343385596711521
344 0.008166751925514583 -3.09965288202915e-05 -0.012813416709589047
760 0.0021505892133190795 0.0036813841385398417 -0.0008838584693019649
610 -0.015303488006101328 0.006798149309699842 -0.00565422691589946
168 0.011677906004660172 -0.003661909098127959 -0.03134627261282083
763 0.00630018144915994 -0.0006651169103100733 -0.0036326014060806366
759 0.002377767060731022 -0.003459928613533744 0.004883637434545379
758 -0.0002083928770206735 0.006058441622941124 -0.0029414151020415624
757 -0.0031199316739751104 0.004773073032571878 -0.0003823391939443797
761 -0.009682054868329277 -0.003247860546975869 0.0032365832602786024
162 0.003318942445657713 0.0033245684232054745 0.003356871707294484
166 0.010615045152823204 0.012856347485745748 -0.006496114195209831
623 0.0006694320076464657 -0.0048686891614621594 0.00023880374647736812
392 -0.013326280084427303 0.0012051912956954772 -0.01578718769613619
626 -0.0007844461797493462 -0.0013121337606351454 -0.01228976397607371
627 0.0034216875265857824 0.00720379029112254 -0.015978157848221063
628 0.004524856820858459 -0.007885755161431307 0.00317603166811999
391 -0.022969327681103425 -0.01830160282827693 -0.01604720164653979
389 0.004232776196349505 0.003894916525602422 0.005327975505155202
387 0.007871833611926952 0.0011658112731438295 -0.006312381457850135
74 -0.005504443535810497 0.0041232917321198164 0.0058685604351946365
84 -0.007051657736620884 -0.03677037472261436 0.006311209141592709
388 -0.001452001222381848 0.0055391704747371215 0.0048840495928868044
273 0.02704626739804789 -0.01100146789337721 0.028447559892782505
396 -0.008372608390805194 0.011731370800432487 0.00452463222429632
382 -0.01871986103811494 -0.031030958788378984 0.030688400925112234
436 -0.003742607842386137 -0.004435612570367176 0.000689613223750119
383 0.018073838622370594 0.0027494607190539713 -0.004268661654486165
378 -0.002585351350022905 0.006407243446739239 0.0006783887053347013
384 -0.04114406260191893 -0.005447853940218999 0.001266325086138771
265 0.007079227765435435 0.004859277093809774 0.008766690119585622
443 -0.001503948508819292 -0.006365281504113487 -0.02195869293265922
442 0.007636074654426644 0.0011236035937566592 0.005147045691216076
276 0.003272576621178785 0.0017887449637109696 -0.01481897411119516
275 -0.010465335609948424 0.020605947578385908 0.004217953959676333
438 0.0021477632029053588 0.002814934891122458 -0.005697102924824398
444 -0.003951192523788114 -0.012074920668834666 0.004556438751055789
662 -0.009573471400729753 -0.0007218759933234938 0.008512344949858454
270 0.0010153729549315816 0.005662182248190119 0.002587256576370797
612 0.013588284014141036 -0.0010369097692443233 -0.005289648409286771
614 -0.004006846935522982 0.0011954443010693172 -0.0022774460579664296
268 -0.009255819897605294 0.0008899763738810608 -0.004420268887753267
733 0.006490647974046075 0.007879532987538566 -0.0008224115182591868
762 0.010662119382294267 0.007354301621860549 -0.0017391115685861918
73 -0.008278749737601418 0.00539814395910183 0.0016460139704124205
211 -0.0022720305008473176 0.01003208450834765 0.0033815824866554422
611 0.003484905591059751 -0.006688544041754361 0.004564868244786558
616 0.00218160531621344 -0.0041868895670919325 0.0011983733790790659
83 -0.002016550686992149 -0.02522126740646346 0.004334991084636241
613 -0.0033300758164144357 0.0024405875425788388 0.008652788550189685
212 0.0010524909274386006 -0.02050304943258374 -0.024012709847124728
82 -0.005249037923032989 0.03729196533966593 -0.01258320096440494
78 -0.008597728908579327 -0.004536383864205546 -0.00956886212364462
76 -0.004810715921544937 0.0024872264588186015 -0.0014857035251183695
79 4.3303641856302776e-05 -0.012867699557333672 0.014626554296075974
523 -0.01487348302726677 -0.015109728012827568 0.012823324420027905
521 -0.002491338839740631 -0.002037521858951661 0.011556163593845236
2 0.0029435958531368127 0.0051519300666885955 0.0008821635249770211
632 -0.0027212953805753615 0.002133207129294652 0.0025599960864391524
634 -0.006526569713541965 -0.0020216363588929616 0.005209073400314695
81 -0.012829027626922606 0.01221997877515976 -0.00821109985300018
631 0.005646257498123353 -0.0031186391238528354 0.004240999907576015
633 0.00016929849013167225 0.0027032292347435745 -0.005831163231804755
735 0.011525483893084868 0.005251488325922451 -0.006778224666304127
235 0.004587803799620302 -0.001223170993791074 0.018411113905138977
142 0.0003791487261018058 0.017072462733179326 0.009905858475834257
237 -0.02866533342223278 -0.021807149730378922 -0.0012731194903388655
233 0.0027628477887246413 0.00012611253841201352 -0.0025624973035215186
236 -0.030456462146272942 0.011706039194111544 0.033217114374472105
230 -0.003038134258382075 -0.00014298332196657673 0.004057648619526196
231 0.006167763232502329 -0.005485679854190986 -0.0013397029505623618
232 0.002730529382475696 0.0017436433184975046 0.008301723570281295
229 0.0051973063475911855 -0.0015053864249036856 0.0004958211887895969
240 0.015383360529333295 -0.0029480203796487955 -0.009902844525486237
234 0.000529916482117481 0.005154507390953945 -0.003819909015925916
670 0.02213615723805264 -0.020834048350012586 0.03365634783934236
143 -0.005640317625046371 0.003964476671440151 -0.007293830928610636
216 0.010288640801522102 -0.010258882385156317 0.005061194130792799
208 -0.0067993927239585975 -0.007182235767410031 0.0035287119200566198
594 -0.0066872575427147935 -0.0031448253336562 0.003053365797188665
620 0.006674493045789183 -0.0077933073148144655 -0.0032000083609534124
664 0.0009888015471057204 -0.010356668719168786 0.0016924238678798717
619 -0.0011635147176731445 0.022713079817029948 -0.009534009649311564
615 0.0012693032836136357 -0.0099012638368755 0.006375504935393294
661 -0.006588707861092419 -0.001066234127148023 0.006806622541907523
116 -0.00957189138791989 -0.025127760040207826 0.019001582894348924
663 0.004896142348297871 0.002107683695116801 0.0028338374003046432
668 0.01827422552916936 0.008131275741938162 -0.03837211177230965
665 0.0018236125596008668 -0.008877250199045431 0.00434458002188987
666 0.0015327718214256263 -0.0017256262445248106 -0.0073650814434115695
667 -0.003021201791467864 -0.01732354049880827 -0.028207882426096575
669 0.04109424062294003 0.009085301606372395 -0.012848772154237
591 -0.00913363097380686 -0.001863245122358826 -0.004772323795306991
592 0.0005856869835311431 0.002902046569611083 0.010308284279319077
593 0.0003535932775197949 -0.005526418061195197 -0.003631455690803538
618 -0.015923947084357088 0.009498326111211864 -0.01976814203039548
617 -0.00259242760838767 0.010949693258304105 -0.006564155965816567
77 0.0016477881282233402 -0.0009075038660686608 0.005816061766080705
75 0.004083692904287947 0.004137973487082399 -0.0021362638475749597
80 -0.0057168329677745365 0.01266655055189333 -0.015967739560807683
480 0.002948793749453465 0.004357406015098286 -0.021115441962698954
479 -0.005457182189861495 0.020966548942802112 -0.0016718201367181787
106 -0.002766467482652404 0.012575187231502862 -0.00903500421928625
107 0.0021984172405747396 -0.004265514428256004 -0.012230291599859267
102 -0.002733404695512098 -0.0040565193695802455 0.0021459311652785532
108 0.003939108808732144 -0.013448712636419806 0.02149109957142473
100 0.001346123194637253 -0.0009252017259974955 0.006682216648798903
97 0.0038693426472128497 -0.006931482500854458 -0.003834549272062064
98 -0.0020341140693401036 0.00556189776704887 -0.000442216587068761
639 -0.022857455956430517 -0.0005937925065552338 -0.016235971343872026
635 -0.000447384884855024 -0.0021850325749134176 -0.006739236424824318
636 0.004487380952322987 0.0009663627910409383 0.0012268421283127978
337 0.002636115468973954 0.003025030655192038 0.0013629053974488288
637 -0.0025746320217120114 0.01180934326739069 0.0001472986094468898
524 -0.021259389599310657 -0.02696380520709798 -0.014443082104800211
578 -0.012235369094744566 -0.029155417860830115 0.012190836615978723
452 0.005755105129195376 0.026931432274651116 -0.001889896247232583
445 0.0026531403846714514 -0.006751383518226305 -0.0014788997684764234
447 0.0015197515892372095 -0.00015356468113549948 0.007555853077523385
449 -0.00876494903003231 0.0022095338415240285 -0.0019719650535382958
453 0.012704718645142745 0.0002997958912427482 -0.008102873696587038
451 -0.005853010943087684 -0.006627271520159527 -0.0025045916008568916
338 -0.00030833892227947253 -0.00014263878193743166 -0.0017685412320195464
144 0.01446601768531994 0.0018007183165758642 -0.0037173923495929405
239 0.0007719302738151304 -0.008550285677010324 0.012179016046221736
448 0.00288935291199393 -0.0017278111329760105 -0.007144567603253045
138 0.0004602841168643146 0.0004856685237305638 -0.0015321304073985232
136 -0.010269396630700511 -0.0033918829998388408 -0.006855148221700191
133 0.003551489163066041 -0.0016502068769303508 -0.00918667004087731
135 0.013524699579570662 -0.0016681996271826864 -0.004865521518186303
134 0.002223852001900089 -0.010252603206974265 -0.0014132531654710687
92 0.011686442135659579 0.01697427132553348 0.007169589591897152
115 -0.008222958560747355 -0.0033918125020359164 -0.008269031772753265
93 -0.0004104872037467498 0.025835265928180723 0.013816276161448293
91 0.007252548746330289 0.0036619778275497005 0.006214264843903461
89 0.009739142182248141 0.011149572978003472 0.000993316666142337
87 -0.00027388774045895094 0.00012313562404993734 0.011403278525274486
88 0.0008919998344523405 0.0037961388294597592 -0.0031426385370210007
86 0.002260484296660078 -0.0018797378691122325 0.003230785942366978
85 -0.009499893266827122 -0.0020248931441945177 0.0015097953718174802
95 -0.01732017353356419 -0.037122447446796054 0.019346344013794377
90 -0.003894888478517675 -0.003263070523749679 0.002520534011803093
94 0.036064259229279284 0.021404969048925686 0.018121509513077474
146 0.00731785536025616 -0.002254111465619468 0.0002891749194082398
99 -0.0010976188735943601 -0.0074044902322702895 0.002870864039609724
96 -0.0013983981311563164 0.00838601954716598 -0.000538174399412483
104 0.005152219308536558 0.007408647649893353 0.0004584891673165017
160 0.002012856851436726 0.002064165176882963 -0.000364951643343566
103 0.02135264199768977 0.03140718033798553 -0.016641431838351876
101 0.00209013296737107 -0.0048880576848670245 -0.008027856478198214
105 0.007411214333822396 0.011444627758168588 -0.01247151300286743

Bonds

1 7 255 257
2 7 574 575
3 4 257 259
4 4 257 260
5 4 257 261
6 1 575 576
7 4 575 579
8 4 575 580
9 8 253 254
10 7 253 255
11 7 253 256
12 7 340 342
13 1 565 566
14 4 565 569
15 4 565 570
16 7 256 258
17 8 571 572
18 7 571 573
19 7 571 574
20 1 545 546
21 4 545 549
22 4 545 550
23 4 546 547
24 4 546 548
25 7 544 545
26 8 541 542
27 7 541 543
28 7 541 544
29 7 543 546
30 4 30 34
31 4 30 35
32 4 30 36
33 7 28 30
34 7 507 509
35 1 715 716
36 4 715 719
37 4 715 720
38 7 714 715
39 8 711 712
40 7 711 713
41 7 711 714
42 4 716 717
43 4 716 718
44 7 713 716
45 7 147 149
46 8 37 38
47 7 37 39
48 7 37 40
49 7 40 42
50 4 221 223
51 4 221 224
52 4 221 225
53 4 42 46
54 4 42 47
55 4 42 48
56 4 198 202
57 4 198 203
58 4 198 204
59 7 219 221
60 4 222 226
61 4 222 227
62 4 222 228
63 7 220 222
64 8 217 218
65 7 217 219
66 7 217 220
67 1 725 726
68 4 725 729
69 4 725 730
70 4 269 271
71 4 269 272
72 4 269 273
73 7 267 269
74 8 25 26
75 7 25 27
76 7 25 28
77 7 27 29
78 4 510 514
79 4 510 515
80 4 510 516
81 8 193 194
82 7 193 195
83 7 193 196
84 4 197 199
85 4 197 200
86 4 197 201
87 7 195 197
88 7 196 198
89 8 205 206
90 7 205 207
91 7 205 208
92 4 209 211
93 4 209 212
94 4 209 213
95 7 207 209
96 7 508 510
97 7 39 41
98 4 41 43
99 4 41 44
100 4 41 45
101 8 277 278
102 7 277 279
103 7 277 280
104 4 17 19
105 4 17 20
106 4 17 21
107 7 15 17
108 4 726 727
109 4 726 728
110 4 281 283
111 4 281 284
112 4 281 285
113 7 723 726
114 7 279 281
115 4 282 286
116 4 282 287
117 4 282 288
118 7 280 282
119 7 724 725
120 4 210 214
121 4 210 215
122 4 210 216
123 7 684 685
124 8 721 722
125 7 721 723
126 7 721 724
127 1 685 686
128 4 685 689
129 4 685 690
130 1 595 596
131 4 595 599
132 4 595 600
133 4 596 597
134 4 596 598
135 4 534 538
136 4 534 539
137 4 534 540
138 7 532 534
139 8 529 530
140 7 529 531
141 7 529 532
142 7 531 533
143 7 694 695
144 1 695 696
145 4 695 699
146 4 695 700
147 4 696 697
148 4 696 698
149 7 693 696
150 8 691 692
151 7 691 693
152 7 691 694
153 7 564 565
154 7 573 576
155 4 137 139
156 4 137 140
157 4 137 141
158 4 556 557
159 4 556 558
160 4 306 310
161 4 306 311
162 4 306 312
163 7 304 306
164 8 301 302
165 7 301 303
166 7 301 304
167 7 303 305
168 4 305 307
169 4 305 308
170 4 305 309
171 4 533 535
172 4 533 536
173 4 533 537
174 4 342 346
175 4 342 347
176 4 342 348
177 7 148 150
178 4 293 295
179 4 293 296
180 4 293 297
181 7 291 293
182 8 289 290
183 7 289 291
184 7 289 292
185 4 150 154
186 4 150 155
187 4 150 156
188 8 145 146
189 7 145 147
190 7 145 148
191 4 566 567
192 4 566 568
193 7 412 414
194 15 750 751
195 15 750 752
196 15 750 753
197 15 750 754
198 15 750 755
199 15 750 756
200 4 414 418
201 4 414 419
202 4 414 420
203 8 409 410
204 7 409 411
205 7 409 412
206 4 258 262
207 4 258 263
208 4 258 264
209 7 411 413
210 4 65 67
211 4 65 68
212 4 65 69
213 8 61 62
214 7 61 63
215 7 61 64
216 7 64 66
217 7 483 485
218 4 485 487
219 4 485 488
220 4 485 489
221 8 481 482
222 7 481 483
223 7 481 484
224 4 509 511
225 4 509 512
226 4 509 513
227 7 484 486
228 4 486 490
229 4 486 491
230 4 486 492
231 4 53 55
232 4 53 56
233 4 53 57
234 4 461 463
235 4 461 464
236 4 461 465
237 7 459 461
238 7 51 53
239 4 54 58
240 4 54 59
241 4 54 60
242 7 52 54
243 4 426 430
244 4 426 431
245 4 426 432
246 7 424 426
247 8 421 422
248 7 421 423
249 7 421 424
250 7 423 425
251 4 354 358
252 4 354 359
253 4 354 360
254 7 352 354
255 8 349 350
256 7 349 351
257 7 349 352
258 7 351 353
259 4 330 334
260 4 330 335
261 4 330 336
262 4 29 31
263 4 29 32
264 4 29 33
265 7 328 330
266 8 325 326
267 7 325 327
268 7 325 328
269 4 329 331
270 4 329 332
271 4 329 333
272 7 327 329
273 8 505 506
274 7 505 507
275 7 505 508
276 8 457 458
277 7 457 459
278 7 457 460
279 7 460 462
280 4 462 466
281 4 462 467
282 4 462 468
283 4 497 499
284 4 497 500
285 4 497 501
286 7 495 497
287 8 493 494
288 7 493 495
289 7 493 496
290 4 498 502
291 4 498 503
292 4 498 504
293 7 496 498
294 8 681 682
295 7 681 683
296 7 681 684
297 4 686 687
298 4 686 688
299 7 683 686
300 8 241 242
301 7 241 243
302 7 241 244
303 4 245 247
304 4 245 248
305 4 245 249
306 7 244 246
307 8 13 14
308 7 13 15
309 7 13 16
310 7 16 18
311 15 743 744
312 15 743 745
313 15 743 746
314 15 743 747
315 15 743 748
316 15 743 749
317 4 402 406
318 4 402 407
319 4 402 408
320 4 18 22
321 4 18 23
322 4 18 24
323 7 563 566
324 8 561 562
325 7 561 563
326 7 561 564
327 1 675 676
328 4 675 679
329 4 675 680
330 7 674 675
331 4 676 677
332 4 676 678
333 4 413 415
334 4 413 416
335 4 413 417
336 7 553 556
337 1 555 556
338 4 555 559
339 4 555 560
340 7 554 555
341 8 551 552
342 7 551 553
343 7 551 554
344 1 655 656
345 4 655 659
346 4 655 660
347 4 656 657
348 4 656 658
349 7 654 655
350 7 653 656
351 8 651 652
352 7 651 653
353 7 651 654
354 7 292 294
355 4 401 403
356 4 401 404
357 4 401 405
358 7 399 401
359 4 294 298
360 4 294 299
361 4 294 300
362 7 400 402
363 8 397 398
364 7 397 399
365 7 397 400
366 4 185 187
367 4 185 188
368 4 185 189
369 4 186 190
370 4 186 191
371 4 186 192
372 7 172 174
373 8 169 170
374 7 169 171
375 7 169 172
376 8 157 158
377 7 157 159
378 7 157 160
379 7 63 65
380 4 66 70
381 4 66 71
382 4 66 72
383 4 437 439
384 4 437 440
385 4 437 441
386 4 318 322
387 4 318 323
388 4 318 324
389 7 435 437
390 7 171 173
391 7 316 318
392 8 601 602
393 7 601 603
394 7 601 604
395 8 313 314
396 7 313 315
397 7 313 316
398 7 315 317
399 4 317 319
400 4 317 320
401 4 317 321
402 1 605 606
403 4 605 609
404 4 605 610
405 8 49 50
406 7 49 51
407 7 49 52
408 15 736 737
409 15 736 738
410 15 736 739
411 15 736 740
412 15 736 741
413 15 736 742
414 4 353 355
415 4 353 356
416 4 353 357
417 8 181 182
418 7 181 183
419 7 181 184
420 7 183 185
421 7 184 186
422 7 624 625
423 1 625 626
424 4 625 629
425 4 625 630
426 8 621 622
427 7 621 623
428 7 621 624
429 7 3 5
430 7 375 377
431 8 373 374
432 7 373 375
433 7 373 376
434 7 376 378
435 4 377 379
436 4 377 380
437 4 377 381
438 15 764 765
439 15 764 766
440 15 764 767
441 15 764 768
442 15 764 769
443 15 764 770
444 4 425 427
445 4 425 428
446 4 425 429
447 4 6 10
448 4 6 11
449 4 6 12
450 8 1 2
451 7 1 3
452 7 1 4
453 7 4 6
454 4 126 130
455 4 126 131
456 4 126 132
457 7 124 126
458 4 5 7
459 4 5 8
460 4 5 9
461 8 121 122
462 7 121 123
463 7 121 124
464 7 123 125
465 4 125 127
466 4 125 128
467 4 125 129
468 7 243 245
469 4 246 250
470 4 246 251
471 4 246 252
472 4 365 367
473 4 365 368
474 4 365 369
475 8 361 362
476 7 361 363
477 7 361 364
478 7 364 366
479 4 366 370
480 4 366 371
481 4 366 372
482 7 363 365
483 4 473 475
484 4 473 476
485 4 473 477
486 7 471 473
487 8 469 470
488 7 469 471
489 7 469 472
490 7 472 474
491 4 474 478
492 4 474 479
493 4 474 480
494 4 450 454
495 4 450 455
496 4 450 456
497 8 517 518
498 7 517 519
499 7 517 520
500 7 519 521
501 8 671 672
502 7 671 673
503 7 671 674
504 7 673 676
505 7 520 522
506 4 161 163
507 4 161 164
508 4 161 165
509 7 159 161
510 4 522 526
511 4 522 527
512 4 522 528
513 4 646 647
514 4 646 648
515 7 643 646
516 1 645 646
517 4 645 649
518 4 645 650
519 8 641 642
520 7 641 643
521 7 641 644
522 7 644 645
523 4 173 175
524 4 173 176
525 4 173 177
526 7 604 605
527 7 111 113
528 8 109 110
529 7 109 111
530 7 109 112
531 7 112 114
532 4 114 118
533 4 114 119
534 4 114 120
535 4 113 115
536 4 113 116
537 4 113 117
538 7 583 586
539 1 585 586
540 4 585 589
541 4 585 590
542 7 584 585
543 4 586 587
544 4 586 588
545 8 581 582
546 7 581 583
547 7 581 584
548 7 339 341
549 4 576 577
550 4 576 578
551 4 341 343
552 4 341 344
553 4 341 345
554 4 174 178
555 4 174 179
556 4 174 180
557 8 385 386
558 7 385 387
559 7 385 388
560 8 433 434
561 7 433 435
562 7 433 436
563 1 705 706
564 4 705 709
565 4 705 710
566 4 706 707
567 4 706 708
568 7 703 706
569 7 704 705
570 4 390 394
571 4 390 395
572 4 390 396
573 7 603 606
574 4 606 607
575 4 606 608
576 8 701 702
577 7 701 703
578 7 701 704
579 4 149 151
580 4 149 152
581 4 149 153
582 15 757 758
583 15 757 759
584 15 757 760
585 15 757 761
586 15 757 762
587 15 757 763
588 4 162 166
589 4 162 167
590 4 162 168
591 7 623 626
592 4 626 627
593 4 626 628
594 4 389 391
595 4 389 392
596 4 389 393
597 7 387 389
598 7 388 390
599 7 436 438
600 4 378 382
601 4 378 383
602 4 378 384
603 8 265 266
604 7 265 267
605 7 265 268
606 4 438 442
607 4 438 443
608 4 438 444
609 4 270 274
610 4 270 275
611 4 270 276
612 7 614 615
613 7 268 270
614 8 73 74
615 7 73 75
616 7 73 76
617 8 611 612
618 7 611 613
619 7 611 614
620 4 616 617
621 4 616 618
622 7 613 616
623 4 78 82
624 4 78 83
625 4 78 84
626 7 76 78
627 4 521 523
628 4 521 524
629 4 521 525
630 7 634 635
631 8 631 632
632 7 631 633
633 7 631 634
634 7 633 636
635 4 233 235
636 4 233 236
637 4 233 237
638 7 231 233
639 7 232 234
640 8 229 230
641 7 229 231
642 7 229 232
643 4 234 238
644 4 234 239
645 4 234 240
646 7 208 210
647 7 594 595
648 7 664 665
649 1 615 616
650 4 615 619
651 4 615 620
652 8 661 662
653 7 661 663
654 7 661 664
655 7 663 666
656 1 665 666
657 4 665 669
658 4 665 670
659 4 666 667
660 4 666 668
661 8 591 592
662 7 591 593
663 7 591 594
664 7 593 596
665 4 77 79
666 4 77 80
667 4 77 81
668 7 75 77
669 4 102 106
670 4 102 107
671 4 102 108
672 7 100 102
673 8 97 98
674 7 97 99
675 7 97 100
676 1 635 636
677 4 635 639
678 4 635 640
679 4 636 637
680 4 636 638
681 8 337 338
682 7 337 339
683 7 337 340
684 8 445 446
685 7 445 447
686 7 445 448
687 7 447 449
688 4 449 451
689 4 449 452
690 4 449 453
691 7 448 450
692 4 138 142
693 4 138 143
694 4 138 144
695 7 136 138
696 8 133 134
697 7 133 135
698 7 133 136
699 7 135 137
700 4 89 91
701 4 89 92
702 4 89 93
703 7 87 89
704 7 88 90
705 8 85 86
706 7 85 87
707 7 85 88
708 4 90 94
709 4 90 95
710 4 90 96
711 7 99 101
712 7 160 162
713 4 101 103
714 4 101 104
715 4 101 105

Angles

1 9 253 255 257
2 9 571 574 575
3 4 255 257 259
4 4 255 257 260
5 4 255 257 261
6 7 259 257 260
7 7 259 257 261
8 7 260 257 261
9 13 574 575 576
10 4 576 575 579
11 4 576 575 580
12 6 579 575 580
13 11 254 253 255
14 11 254 253 256
15 12 255 253 256
16 9 337 340 342
17 13 564 565 566
18 4 566 565 569
19 4 566 565 570
20 6 569 565 570
21 9 253 256 258
22 11 572 571 573
23 11 572 571 574
24 12 573 571 574
25 13 544 545 546
26 4 546 545 549
27 4 546 545 550
28 6 549 545 550
29 13 543 546 545
30 4 545 546 547
31 4 545 546 548
32 6 547 546 548
33 9 541 544 545
34 11 542 541 543
35 11 542 541 544
36 12 543 541 544
37 9 541 543 546
38 4 28 30 34
39 4 28 30 35
40 4 28 30 36
41 7 34 30 35
42 7 34 30 36
43 7 35 30 36
44 9 25 28 30
45 9 505 507 509
46 13 714 715 716
47 4 716 715 719
48 4 716 715 720
49 6 719 715 720
50 9 711 714 715
51 11 712 711 713
52 11 712 711 714
53 12 713 711 714
54 13 713 716 715
55 4 715 716 717
56 4 715 716 718
57 6 717 716 718
58 9 711 713 716
59 9 145 147 149
60 11 38 37 39
61 11 38 37 40
62 12 39 37 40
63 9 37 40 42
64 4 219 221 223
65 4 219 221 224
66 4 219 221 225
67 7 223 221 224
68 7 223 221 225
69 7 224 221 225
70 4 40 42 46
71 4 40 42 47
72 4 40 42 48
73 7 46 42 47
74 7 46 42 48
75 7 47 42 48
76 4 196 198 202
77 4 196 198 203
78 4 196 198 204
79 7 202 198 203
80 7 202 198 204
81 7 203 198 204
82 9 217 219 221
83 4 220 222 226
84 4 220 222 227
85 4 220 222 228
86 7 226 222 227
87 7 226 222 228
88 7 227 222 228
89 9 217 220 222
90 11 218 217 219
91 11 218 217 220
92 12 219 217 220
93 13 724 725 726
94 4 726 725 729
95 4 726 725 730
96 6 729 725 730
97 4 267 269 271
98 4 267 269 272
99 4 267 269 273
100 7 271 269 272
101 7 271 269 273
102 7 272 269 273
103 9 265 267 269
104 11 26 25 27
105 11 26 25 28
106 12 27 25 28
107 9 25 27 29
108 4 508 510 514
109 4 508 510 515
110 4 508 510 516
111 7 514 510 515
112 7 514 510 516
113 7 515 510 516
114 11 194 193 195
115 11 194 193 196
116 12 195 193 196
117 4 195 197 199
118 4 195 197 200
119 4 195 197 201
120 7 199 197 200
121 7 199 197 201
122 7 200 197 201
123 9 193 195 197
124 9 193 196 198
125 11 206 205 207
126 11 206 205 208
127 12 207 205 208
128 4 207 209 211
129 4 207 209 212
130 4 207 209 213
131 7 211 209 212
132 7 211 209 213
133 7 212 209 213
134 9 205 207 209
135 9 505 508 510
136 9 37 39 41
137 4 39 41 43
138 4 39 41 44
139 4 39 41 45
140 7 43 41 44
141 7 43 41 45
142 7 44 41 45
143 11 278 277 279
144 11 278 277 280
145 12 279 277 280
146 4 15 17 19
147 4 15 17 20
148 4 15 17 21
149 7 19 17 20
150 7 19 17 21
151 7 20 17 21
152 9 13 15 17
153 13 723 726 725
154 4 725 726 727
155 4 725 726 728
156 6 727 726 728
157 4 279 281 283
158 4 279 281 284
159 4 279 281 285
160 7 283 281 284
161 7 283 281 285
162 7 284 281 285
163 9 721 723 726
164 9 277 279 281
165 4 280 282 286
166 4 280 282 287
167 4 280 282 288
168 7 286 282 287
169 7 286 282 288
170 7 287 282 288
171 9 277 280 282
172 9 721 724 725
173 4 208 210 214
174 4 208 210 215
175 4 208 210 216
176 7 214 210 215
177 7 214 210 216
178 7 215 210 216
179 9 681 684 685
180 11 722 721 723
181 11 722 721 724
182 12 723 721 724
183 13 684 685 686
184 4 686 685 689
185 4 686 685 690
186 6 689 685 690
187 13 594 595 596
188 4 596 595 599
189 4 596 595 600
190 6 599 595 600
191 13 593 596 595
192 4 595 596 597
193 4 595 596 598
194 6 597 596 598
195 4 532 534 538
196 4 532 534 539
197 4 532 534 540
198 7 538 534 539
199 7 538 534 540
200 7 539 534 540
201 9 529 532 534
202 11 530 529 531
203 11 530 529 532
204 12 531 529 532
205 9 529 531 533
206 9 691 694 695
207 13 694 695 696
208 4 696 695 699
209 4 696 695 700
210 6 699 695 700
211 13 693 696 695
212 4 695 696 697
213 4 695 696 698
214 6 697 696 698
215 9 691 693 696
216 11 692 691 693
217 11 692 691 694
218 12 693 691 694
219 9 561 564 565
220 9 571 573 576
221 4 135 137 139
222 4 135 137 140
223 4 135 137 141
224 7 139 137 140
225 7 139 137 141
226 7 140 137 141
227 13 553 556 555
228 4 555 556 557
229 4 555 556 558
230 6 557 556 558
231 4 304 306 310
232 4 304 306 311
233 4 304 306 312
234 7 310 306 311
235 7 310 306 312
236 7 311 306 312
237 9 301 304 306
238 11 302 301 303
239 11 302 301 304
240 12 303 301 304
241 9 301 303 305
242 4 303 305 307
243 4 303 305 308
244 4 303 305 309
245 7 307 305 308
246 7 307 305 309
247 7 308 305 309
248 4 531 533 535
249 4 531 533 536
250 4 531 533 537
251 7 535 533 536
252 7 535 533 537
253 7 536 533 537
254 4 340 342 346
255 4 340 342 347
256 4 340 342 348
257 7 346 342 347
258 7 346 342 348
259 7 347 342 348
260 9 145 148 150
261 4 291 293 295
262 4 291 293 296
263 4 291 293 297
264 7 295 293 296
265 7 295 293 297
266 7 296 293 297
267 9 289 291 293
268 11 290 289 291
269 11 290 289 292
270 12 291 289 292
271 4 148 150 154
272 4 148 150 155
273 4 148 150 156
274 7 154 150 155
275 7 154 150 156
276 7 155 150 156
277 11 146 145 147
278 11 146 145 148
279 12 147 145 148
280 13 563 566 565
281 4 565 566 567
282 4 565 566 568
283 6 567 566 568
284 9 409 412 414
285 18 751 750 752
286 18 753 750 754
287 18 755 750 756
288 17 751 750 753
289 17 751 750 754
290 17 751 750 755
291 17 751 750 756
292 17 752 750 753
293 17 752 750 754
294 17 752 750 755
295 17 752 750 756
296 17 753 750 755
297 17 753 750 756
298 17 754 750 755
299 17 754 750 756
300 4 412 414 418
301 4 412 414 419
302 4 412 414 420
303 7 418 414 419
304 7 418 414 420
305 7 419 414 420
306 11 410 409 411
307 11 410 409 412
308 12 411 409 412
309 4 256 258 262
310 4 256 258 263
311 4 256 258 264
312 7 262 258 263
313 7 262 258 264
314 7 263 258 264
315 9 409 411 413
316 4 63 65 67
317 4 63 65 68
318 4 63 65 69
319 7 67 65 68
320 7 67 65 69
321 7 68 65 69
322 11 62 61 63
323 11 62 61 64
324 12 63 61 64
325 9 61 64 66
326 9 481 483 485
327 4 483 485 487
328 4 483 485 488
329 4 483 485 489
330 7 487 485 488
331 7 487 485 489
332 7 488 485 489
333 11 482 481 483
334 11 482 481 484
335 12 483 481 484
336 4 507 509 511
337 4 507 509 512
338 4 507 509 513
339 7 511 509 512
340 7 511 509 513
341 7 512 509 513
342 9 481 484 486
343 4 484 486 490
344 4 484 486 491
345 4 484 486 492
346 7 490 486 491
347 7 490 486 492
348 7 491 486 492
349 4 51 53 55
350 4 51 53 56
351 4 51 53 57
352 7 55 53 56
353 7 55 53 57
354 7 56 53 57
355 4 459 461 463
356 4 459 461 464
357 4 459 461 465
358 7 463 461 464
359 7 463 461 465
360 7 464 461 465
361 9 457 459 461
362 9 49 51 53
363 4 52 54 58
364 4 52 54 59
365 4 52 54 60
366 7 58 54 59
367 7 58 54 60
368 7 59 54 60
369 9 49 52 54
370 4 424 426 430
371 4 424 426 431
372 4 424 426 432
373 7 430 426 431
374 7 430 426 432
375 7 431 426 432
376 9 421 424 426
377 11 422 421 423
378 11 422 421 424
379 12 423 421 424
380 9 421 423 425
381 4 352 354 358
382 4 352 354 359
383 4 352 354 360
384 7 358 354 359
385 7 358 354 360
386 7 359 354 360
387 9 349 352 354
388 11 350 349 351
389 11 350 349 352
390 12 351 349 352
391 9 349 351 353
392 4 328 330 334
393 4 328 330 335
394 4 328 330 336
395 7 334 330 335
396 7 334 330 336
397 7 335 330 336
398 4 27 29 31
399 4 27 29 32
400 4 27 29 33
401 7 31 29 32
402 7 31 29 33
403 7 32 29 33
404 9 325 328 330
405 11 326 325 327
406 11 326 325 328
407 12 327 325 328
408 4 327 329 331
409 4 327 329 332
410 4 327 329 333
411 7 331 329 332
412 7 331 329 333
413 7 332 329 333
414 9 325 327 329
415 11 506 505 507
416 11 506 505 508
417 12 507 505 508
418 11 458 457 459
419 11 458 457 460
420 12 459 457 460
421 9 457 460 462
422 4 460 462 466
423 4 460 462 467
424 4 460 462 468
425 7 466 462 467
426 7 466 462 468
427 7 467 462 468
428 4 495 497 499
429 4 495 497 500
430 4 495 497 501
431 7 499 497 500
432 7 499 497 501
433 7 500 497 501
434 9 493 495 497
435 11 494 493 495
436 11 494 493 496
437 12 495 493 496
438 4 496 498 502
439 4 496 498 503
440 4 496 498 504
441 7 502 498 503
442 7 502 498 504
443 7 503 498 504
444 9 493 496 498
445 11 682 681 683
446 11 682 681 684
447 12 683 681 684
448 13 683 686 685
449 4 685 686 687
450 4 685 686 688
451 6 687 686 688
452 9 681 683 686
453 11 242 241 243
454 11 242 241 244
455 12 243 241 244
456 4 243 245 247
457 4 243 245 248
458 4 243 245 249
459 7 247 245 248
460 7 247 245 249
461 7 248 245 249
462 9 241 244 246
463 11 14 13 15
464 11 14 13 16
465 12 15 13 16
466 9 13 16 18
467 18 744 743 745
468 18 746 743 747
469 18 748 743 749
470 17 744 743 746
471 17 744 743 747
472 17 744 743 748
473 17 744 743 749
474 17 745 743 746
475 17 745 743 747
476 17 745 743 748
477 17 745 743 749
478 17 746 743 748
479 17 746 743 749
480 17 747 743 748
481 17 747 743 749
482 4 400 402 406
483 4 400 402 407
484 4 400 402 408
485 7 406 402 407
486 7 406 402 408
487 7 407 402 408
488 4 16 18 22
489 4 16 18 23
490 4 16 18 24
491 7 22 18 23
492 7 22 18 24
493 7 23 18 24
494 9 561 563 566
495 11 562 561 563
496 11 562 561 564
497 12 563 561 564
498 13 674 675 676
499 4 676 675 679
500 4 676 675 680
501 6 679 675 680
502 9 671 674 675
503 13 673 676 675
504 4 675 676 677
505 4 675 676 678
506 6 677 676 678
507 4 411 413 415
508 4 411 413 416
509 4 411 413 417
510 7 415 413 416
511 7 415 413 417
512 7 416 413 417
513 9 551 553 556
514 13 554 555 556
515 4 556 555 559
516 4 556 555 560
517 6 559 555 560
518 9 551 554 555
519 11 552 551 553
520 11 552 551 554
521 12 553 551 554
522 13 654 655 656
523 4 656 655 659
524 4 656 655 660
525 6 659 655 660
526 13 653 656 655
527 4 655 656 657
528 4 655 656 658
529 6 657 656 658
530 9 651 654 655
531 9 651 653 656
532 11 652 651 653
533 11 652 651 654
534 12 653 651 654
535 9 289 292 294
536 4 399 401 403
537 4 399 401 404
538 4 399 401 405
539 7 403 401 404
540 7 403 401 405
541 7 404 401 405
542 9 397 399 401
543 4 292 294 298
544 4 292 294 299
545 4 292 294 300
546 7 298 294 299
547 7 298 294 300
548 7 299 294 300
549 9 397 400 402
550 11 398 397 399
551 11 398 397 400
552 12 399 397 400
553 4 183 185 187
554 4 183 185 188
555 4 183 185 189
556 7 187 185 188
557 7 187 185 189
558 7 188 185 189
559 4 184 186 190
560 4 184 186 191
561 4 184 186 192
562 7 190 186 191
563 7 190 186 192
564 7 191 186 192
565 9 169 172 174
566 11 170 169 171
567 11 170 169 172
568 12 171 169 172
569 11 158 157 159
570 11 158 157 160
571 12 159 157 160
572 9 61 63 65
573 4 64 66 70
574 4 64 66 71
575 4 64 66 72
576 7 70 66 71
577 7 70 66 72
578 7 71 66 72
579 4 435 437 439
580 4 435 437 440
581 4 435 437 441
582 7 439 437 440
583 7 439 437 441
584 7 440 437 441
585 4 316 318 322
586 4 316 318 323
587 4 316 318 324
588 7 322 318 323
589 7 322 318 324
590 7 323 318 324
591 9 433 435 437
592 9 169 171 173
593 9 313 316 318
594 11 602 601 603
595 11 602 601 604
596 12 603 601 604
597 11 314 313 315
598 11 314 313 316
599 12 315 313 316
600 9 313 315 317
601 4 315 317 319
602 4 315 317 320
603 4 315 317 321
604 7 319 317 320
605 7 319 317 321
606 7 320 317 321
607 13 604 605 606
608 4 606 605 609
609 4 606 605 610
610 6 609 605 610
611 11 50 49 51
612 11 50 49 52
613 12 51 49 52
614 18 737 736 738
615 18 739 736 740
616 18 741 736 742
617 17 737 736 739
618 17 737 736 740
619 17 737 736 741
620 17 737 736 742
621 17 738 736 739
622 17 738 736 740
623 17 738 736 741
624 17 738 736 742
625 17 739 736 741
626 17 739 736 742
627 17 740 736 741
628 17 740 736 742
629 4 351 353 355
630 4 351 353 356
631 4 351 353 357
632 7 355 353 356
633 7 355 353 357
634 7 356 353 357
635 11 182 181 183
636 11 182 181 184
637 12 183 181 184
638 9 181 183 185
639 9 181 184 186
640 9 621 624 625
641 13 624 625 626
642 4 626 625 629
643 4 626 625 630
644 6 629 625 630
645 11 622 621 623
646 11 622 621 624
647 12 623 621 624
648 9 1 3 5
649 9 373 375 377
650 11 374 373 375
651 11 374 373 376
652 12 375 373 376
653 9 373 376 378
654 4 375 377 379
655 4 375 377 380
656 4 375 377 381
657 7 379 377 380
658 7 379 377 381
659 7 380 377 381
660 18 765 764 766
661 18 767 764 768
662 18 769 764 770
663 17 765 764 767
664 17 765 764 768
665 17 765 764 769
666 17 765 764 770
667 17 766 764 767
668 17 766 764 768
669 17 766 764 769
670 17 766 764 770
671 17 767 764 769
672 17 767 764 770
673 17 768 764 769
674 17 768 764 770
675 4 423 425 427
676 4 423 425 428
677 4 423 425 429
678 7 427 425 428
679 7 427 425 429
680 7 428 425 429
681 4 4 6 10
682 4 4 6 11
683 4 4 6 12
684 7 10 6 11
685 7 10 6 12
686 7 11 6 12
687 11 2 1 3
688 11 2 1 4
689 12 3 1 4
690 9 1 4 6
691 4 124 126 130
692 4 124 126 131
693 4 124 126 132
694 7 130 126 131
695 7 130 126 132
696 7 131 126 132
697 9 121 124 126
698 4 3 5 7
699 4 3 5 8
700 4 3 5 9
701 7 7 5 8
702 7 7 5 9
703 7 8 5 9
704 11 122 121 123
705 11 122 121 124
706 12 123 121 124
707 9 121 123 125
708 4 123 125 127
709 4 123 125 128
710 4 123 125 129
711 7 127 125 128
712 7 127 125 129
713 7 128 125 129
714 9 241 243 245
715 4 244 246 250
716 4 244 246 251
717 4 244 246 252
718 7 250 246 251
719 7 250 246 252
720 7 251 246 252
721 4 363 365 367
722 4 363 365 368
723 4 363 365 369
724 7 367 365 368
725 7 367 365 369
726 7 368 365 369
727 11 362 361 363
728 11 362 361 364
729 12 363 361 364
730 9 361 364 366
731 4 364 366 370
732 4 364 366 371
733 4 364 366 372
734 7 370 366 371
735 7 370 366 372
736 7 371 366 372
737 9 361 363 365
738 4 471 473 475
739 4 471 473 476
740 4 471 473 477
741 7 475 473 476
742 7 475 473 477
743 7 476 473 477
744 9 469 471 473
745 11 470 469 471
746 11 470 469 472
747 12 471 469 472
748 9 469 472 474
749 4 472 474 478
750 4 472 474 479
751 4 472 474 480
752 7 478 474 479
753 7 478 474 480
754 7 479 474 480
755 4 448 450 454
756 4 448 450 455
757 4 448 450 456
758 7 454 450 455
759 7 454 450 456
760 7 455 450 456
761 11 518 517 519
762 11 518 517 520
763 12 519 517 520
764 9 517 519 521
765 11 672 671 673
766 11 672 671 674
767 12 673 671 674
768 9 671 673 676
769 9 517 520 522
770 4 159 161 163
771 4 159 161 164
772 4 159 161 165
773 7 163 161 164
774 7 163 161 165
775 7 164 161 165
776 9 157 159 161
777 4 520 522 526
778 4 520 522 527
779 4 520 522 528
780 7 526 522 527
781 7 526 522 528
782 7 527 522 528
783 13 643 646 645
784 4 645 646 647
785 4 645 646 648
786 6 647 646 648
787 9 641 643 646
788 13 644 645 646
789 4 646 645 649
790 4 646 645 650
791 6 649 645 650
792 11 642 641 643
793 11 642 641 644
794 12 643 641 644
795 9 641 644 645
796 4 171 173 175
797 4 171 173 176
798 4 171 173 177
799 7 175 173 176
800 7 175 173 177
801 7 176 173 177
802 9 601 604 605
803 9 109 111 113
804 11 110 109 111
805 11 110 109 112
806 12 111 109 112
807 9 109 112 114
808 4 112 114 118
809 4 112 114 119
810 4 112 114 120
811 7 118 114 119
812 7 118 114 120
813 7 119 114 120
814 4 111 113 115
815 4 111 113 116
816 4 111 113 117
817 7 115 113 116
818 7 115 113 117
819 7 116 113 117
820 9 581 583 586
821 13 584 585 586
822 4 586 585 589
823 4 586 585 590
824 6 589 585 590
825 9 581 584 585
826 13 583 586 585
827 4 585 586 587
828 4 585 586 588
829 6 587 586 588
830 11 582 581 583
831 11 582 581 584
832 12 583 581 584
833 9 337 339 341
834 13 573 576 575
835 4 575 576 577
836 4 575 576 578
837 6 577 576 578
838 4 339 341 343
839 4 339 341 344
840 4 339 341 345
841 7 343 341 344
842 7 343 341 345
843 7 344 341 345
844 4 172 174 178
845 4 172 174 179
846 4 172 174 180
847 7 178 174 179
848 7 178 174 180
849 7 179 174 180
850 11 386 385 387
851 11 386 385 388
852 12 387 385 388
853 11 434 433 435
854 11 434 433 436
855 12 435 433 436
856 13 704 705 706
857 4 706 705 709
858 4 706 705 710
859 6 709 705 710
860 13 703 706 705
861 4 705 706 707
862 4 705 706 708
863 6 707 706 708
864 9 701 703 706
865 9 701 704 705
866 4 388 390 394
867 4 388 390 395
868 4 388 390 396
869 7 394 390 395
870 7 394 390 396
871 7 395 390 396
872 9 601 603 606
873 13 603 606 605
874 4 605 606 607
875 4 605 606 608
876 6 607 606 608
877 11 702 701 703
878 11 702 701 704
879 12 703 701 704
880 4 147 149 151
881 4 147 149 152
882 4 147 149 153
883 7 151 149 152
884 7 151 149 153
885 7 152 149 153
886 18 758 757 759
887 18 760 757 761
888 18 762 757 763
889 17 758 757 760
890 17 758 757 761
891 17 758 757 762
892 17 758 757 763
893 17 759 757 760
894 17 759 757 761
895 17 759 757 762
896 17 759 757 763
897 17 760 757 762
898 17 760 757 763
899 17 761 757 762
900 17 761 757 763
901 4 160 162 166
902 4 160 162 167
903 4 160 162 168
904 7 166 162 167
905 7 166 162 168
906 7 167 162 168
907 9 621 623 626
908 13 623 626 625
909 4 625 626 627
910 4 625 626 628
911 6 627 626 628
912 4 387 389 391
913 4 387 389 392
914 4 387 389 393
915 7 391 389 392
916 7 391 389 393
917 7 392 389 393
918 9 385 387 389
919 9 385 388 390
920 9 433 436 438
921 4 376 378 382
922 4 376 378 383
923 4 376 378 384
924 7 382 378 383
925 7 382 378 384
926 7 383 378 384
927 11 266 265 267
928 11 266 265 268
929 12 267 265 268
930 4 436 438 442
931 4 436 438 443
932 4 436 438 444
933 7 442 438 443
934 7 442 438 444
935 7 443 438 444
936 4 268 270 274
937 4 268 270 275
938 4 268 270 276
939 7 274 270 275
940 7 274 270 276
941 7 275 270 276
942 9 611 614 615
943 9 265 268 270
944 11 74 73 75
945 11 74 73 76
946 12 75 73 76
947 11 612 611 613
948 11 612 611 614
949 12 613 611 614
950 13 613 616 615
951 4 615 616 617
952 4 615 616 618
953 6 617 616 618
954 9 611 613 616
955 4 76 78 82
956 4 76 78 83
957 4 76 78 84
958 7 82 78 83
959 7 82 78 84
960 7 83 78 84
961 9 73 76 78
962 4 519 521 523
963 4 519 521 524
964 4 519 521 525
965 7 523 521 524
966 7 523 521 525
967 7 524 521 525
968 9 631 634 635
969 11 632 631 633
970 11 632 631 634
971 12 633 631 634
972 9 631 633 636
973 4 231 233 235
974 4 231 233 236
975 4 231 233 237
976 7 235 233 236
977 7 235 233 237
978 7 236 233 237
979 9 229 231 233
980 9 229 232 234
981 11 230 229 231
982 11 230 229 232
983 12 231 229 232
984 4 232 234 238
985 4 232 234 239
986 4 232 234 240
987 7 238 234 239
988 7 238 234 240
989 7 239 234 240
990 9 205 208 210
991 9 591 594 595
992 9 661 664 665
993 13 614 615 616
994 4 616 615 619
995 4 616 615 620
996 6 619 615 620
997 11 662 661 663
998 11 662 661 664
999 12 663 661 664
1000 9 661 663 666
1001 13 664 665 666
1002 4 666 665 669
1003 4 666 665 670
1004 6 669 665 670
1005 13 663 666 665
1006 4 665 666 667
1007 4 665 666 668
1008 6 667 666 668
1009 11 592 591 593
1010 11 592 591 594
1011 12 593 591 594
1012 9 591 593 596
1013 4 75 77 79
1014 4 75 77 80
1015 4 75 77 81
1016 7 79 77 80
1017 7 79 77 81
1018 7 80 77 81
1019 9 73 75 77
1020 4 100 102 106
1021 4 100 102 107
1022 4 100 102 108
1023 7 106 102 107
1024 7 106 102 108
1025 7 107 102 108
1026 9 97 100 102
1027 11 98 97 99
1028 11 98 97 100
1029 12 99 97 100
1030 13 634 635 636
1031 4 636 635 639
1032 4 636 635 640
1033 6 639 635 640
1034 13 633 636 635
1035 4 635 636 637
1036 4 635 636 638
1037 6 637 636 638
1038 11 338 337 339
1039 11 338 337 340
1040 12 339 337 340
1041 11 446 445 447
1042 11 446 445 448
1043 12 447 445 448
1044 9 445 447 449
1045 4 447 449 451
1046 4 447 449 452
1047 4 447 449 453
1048 7 451 449 452
1049 7 451 449 453
1050 7 452 449 453
1051 9 445 448 450
1052 4 136 138 142
1053 4 136 138 143
1054 4 136 138 144
1055 7 142 138 143
1056 7 142 138 144
1057 7 143 138 144
1058 9 133 136 138
1059 11 134 133 135
1060 11 134 133 136
1061 12 135 133 136
1062 9 133 135 137
1063 4 87 89 91
1064 4 87 89 92
1065 4 87 89 93
1066 7 91 89 92
1067 7 91 89 93
1068 7 92 89 93
1069 9 85 87 89
1070 9 85 88 90
1071 11 86 85 87
1072 11 86 85 88
1073 12 87 85 88
1074 4 88 90 94
1075 4 88 90 95
1076 4 88 90 96
1077 7 94 90 95
1078 7 94 90 96
1079 7 95 90 96
1080 9 97 99 101
1081 9 157 160 162
1082 4 99 101 103
1083 4 99 101 104
1084 4 99 101 105
1085 7 103 101 104
1086 7 103 101 105
1087 7 104 101 105

Dihedrals

1 6 253 255 257 259
2 6 253 255 257 260
3 6 253 255 257 261
4 7 571 574 575 576
5 8 254 253 255 257
6 8 254 253 256 258
7 6 337 340 342 346
8 6 337 340 342 347
9 6 337 340 342 348
10 6 253 256 258 262
11 6 253 256 258 263
12 6 253 256 258 264
13 8 572 571 573 576
14 8 572 571 574 575
15 7 543 546 545 544
16 7 541 544 545 546
17 8 542 541 543 546
18 8 542 541 544 545
19 5 541 543 546 545
20 6 25 28 30 34
21 6 25 28 30 35
22 6 25 28 30 36
23 6 505 507 509 511
24 6 505 507 509 512
25 6 505 507 509 513
26 7 711 714 715 716
27 8 712 711 713 716
28 8 712 711 714 715
29 7 713 716 715 714
30 5 711 713 716 715
31 6 145 147 149 151
32 6 145 147 149 152
33 6 145 147 149 153
34 8 38 37 39 41
35 8 38 37 40 42
36 6 37 40 42 46
37 6 37 40 42 47
38 6 37 40 42 48
39 6 217 219 221 223
40 6 217 219 221 224
41 6 217 219 221 225
42 6 217 220 222 226
43 6 217 220 222 227
44 6 217 220 222 228
45 8 218 217 219 221
46 8 218 217 220 222
47 6 265 267 269 271
48 6 265 267 269 272
49 6 265 267 269 273
50 8 26 25 27 29
51 8 26 25 28 30
52 6 25 27 29 31
53 6 25 27 29 32
54 6 25 27 29 33
55 8 194 193 195 197
56 8 194 193 196 198
57 6 193 195 197 199
58 6 193 195 197 200
59 6 193 195 197 201
60 6 193 196 198 202
61 6 193 196 198 203
62 6 193 196 198 204
63 8 206 205 207 209
64 8 206 205 208 210
65 6 205 207 209 211
66 6 205 207 209 212
67 6 205 207 209 213
68 6 505 508 510 514
69 6 505 508 510 515
70 6 505 508 510 516
71 6 37 39 41 43
72 6 37 39 41 44
73 6 37 39 41 45
74 8 278 277 279 281
75 8 278 277 280 282
76 6 13 15 17 19
77 6 13 15 17 20
78 6 13 15 17 21
79 7 723 726 725 724
80 5 721 723 726 725
81 6 277 279 281 283
82 6 277 279 281 284
83 6 277 279 281 285
84 6 277 280 282 286
85 6 277 280 282 287
86 6 277 280 282 288
87 7 721 724 725 726
88 7 681 684 685 686
89 8 722 721 723 726
90 8 722 721 724 725
91 7 593 596 595 594
92 6 529 532 534 538
93 6 529 532 534 539
94 6 529 532 534 540
95 8 530 529 531 533
96 8 530 529 532 534
97 6 529 531 533 535
98 6 529 531 533 536
99 6 529 531 533 537
100 7 691 694 695 696
101 7 693 696 695 694
102 5 691 693 696 695
103 8 692 691 693 696
104 8 692 691 694 695
105 7 561 564 565 566
106 5 571 573 576 575
107 7 553 556 555 554
108 6 301 304 306 310
109 6 301 304 306 311
110 6 301 304 306 312
111 8 302 301 303 305
112 8 302 301 304 306
113 6 301 303 305 307
114 6 301 303 305 308
115 6 301 303 305 309
116 6 145 148 150 154
117 6 145 148 150 155
118 6 145 148 150 156
119 6 289 291 293 295
120 6 289 291 293 296
121 6 289 291 293 297
122 8 290 289 291 293
123 8 290 289 292 294
124 8 146 145 147 149
125 8 146 145 148 150
126 7 563 566 565 564
127 6 409 412 414 418
128 6 409 412 414 419
129 6 409 412 414 420
130 8 410 409 411 413
131 8 410 409 412 414
132 6 409 411 413 415
133 6 409 411 413 416
134 6 409 411 413 417
135 8 62 61 63 65
136 8 62 61 64 66
137 6 61 64 66 70
138 6 61 64 66 71
139 6 61 64 66 72
140 6 481 483 485 487
141 6 481 483 485 488
142 6 481 483 485 489
143 8 482 481 483 485
144 8 482 481 484 486
145 6 481 484 486 490
146 6 481 484 486 491
147 6 481 484 486 492
148 6 457 459 461 463
149 6 457 459 461 464
150 6 457 459 461 465
151 6 49 51 53 55
152 6 49 51 53 56
153 6 49 51 53 57
154 6 49 52 54 58
155 6 49 52 54 59
156 6 49 52 54 60
157 6 421 424 426 430
158 6 421 424 426 431
159 6 421 424 426 432
160 8 422 421 423 425
161 8 422 421 424 426
162 6 421 423 425 427
163 6 421 423 425 428
164 6 421 423 425 429
165 6 349 352 354 358
166 6 349 352 354 359
167 6 349 352 354 360
168 8 350 349 351 353
169 8 350 349 352 354
170 6 349 351 353 355
171 6 349 351 353 356
172 6 349 351 353 357
173 6 325 328 330 334
174 6 325 328 330 335
175 6 325 328 330 336
176 8 326 325 327 329
177 8 326 325 328 330
178 6 325 327 329 331
179 6 325 327 329 332
180 6 325 327 329 333
181 8 506 505 507 509
182 8 506 505 508 510
183 8 458 457 459 461
184 8 458 457 460 462
185 6 457 460 462 466
186 6 457 460 462 467
187 6 457 460 462 468
188 6 493 495 497 499
189 6 493 495 497 500
190 6 493 495 497 501
191 8 494 493 495 497
192 8 494 493 496 498
193 6 493 496 498 502
194 6 493 496 498 503
195 6 493 496 498 504
196 8 682 681 683 686
197 8 682 681 684 685
198 7 683 686 685 684
199 5 681 683 686 685
200 8 242 241 243 245
201 8 242 241 244 246
202 6 241 244 246 250
203 6 241 244 246 251
204 6 241 244 246 252
205 8 14 13 15 17
206 8 14 13 16 18
207 6 13 16 18 22
208 6 13 16 18 23
209 6 13 16 18 24
210 5 561 563 566 565
211 8 562 561 563 566
212 8 562 561 564 565
213 7 671 674 675 676
214 7 673 676 675 674
215 5 551 553 556 555
216 7 551 554 555 556
217 8 552 551 553 556
218 8 552 551 554 555
219 7 653 656 655 654
220 7 651 654 655 656
221 5 651 653 656 655
222 8 652 651 653 656
223 8 652 651 654 655
224 6 289 292 294 298
225 6 289 292 294 299
226 6 289 292 294 300
227 6 397 399 401 403
228 6 397 399 401 404
229 6 397 399 401 405
230 6 397 400 402 406
231 6 397 400 402 407
232 6 397 400 402 408
233 8 398 397 399 401
234 8 398 397 400 402
235 6 169 172 174 178
236 6 169 172 174 179
237 6 169 172 174 180
238 8 170 169 171 173
239 8 170 169 172 174
240 8 158 157 159 161
241 8 158 157 160 162
242 6 61 63 65 67
243 6 61 63 65 68
244 6 61 63 65 69
245 6 433 435 437 439
246 6 433 435 437 440
247 6 433 435 437 441
248 6 169 171 173 175
249 6 169 171 173 176
250 6 169 171 173 177
251 6 313 316 318 322
252 6 313 316 318 323
253 6 313 316 318 324
254 8 602 601 603 606
255 8 602 601 604 605
256 8 314 313 315 317
257 8 314 313 316 318
258 6 313 315 317 319
259 6 313 315 317 320
260 6 313 315 317 321
261 8 50 49 51 53
262 8 50 49 52 54
263 8 182 181 183 185
264 8 182 181 184 186
265 6 181 183 185 187
266 6 181 183 185 188
267 6 181 183 185 189
268 6 181 184 186 190
269 6 181 184 186 191
270 6 181 184 186 192
271 7 621 624 625 626
272 8 622 621 623 626
273 8 622 621 624 625
274 6 1 3 5 7
275 6 1 3 5 8
276 6 1 3 5 9
277 6 373 375 377 379
278 6 373 375 377 380
279 6 373 375 377 381
280 8 374 373 375 377
281 8 374 373 376 378
282 6 373 376 378 382
283 6 373 376 378 383
284 6 373 376 378 384
285 8 2 1 3 5
286 8 2 1 4 6
287 6 1 4 6 10
288 6 1 4 6 11
289 6 1 4 6 12
290 6 121 124 126 130
291 6 121 124 126 131
292 6 121 124 126 132
293 8 122 121 123 125
294 8 122 121 124 126
295 6 121 123 125 127
296 6 121 123 125 128
297 6 121 123 125 129
298 6 241 243 245 247
299 6 241 243 245 248
300 6 241 243 245 249
301 8 362 361 363 365
302 8 362 361 364 366
303 6 361 364 366 370
304 6 361 364 366 371
305 6 361 364 366 372
306 6 361 363 365 367
307 6 361 363 365 368
308 6 361 363 365 369
309 6 469 471 473 475
310 6 469 471 473 476
311 6 469 471 473 477
312 8 470 469 471 473
313 8 470 469 472 474
314 6 469 472 474 478
315 6 469 472 474 479
316 6 469 472 474 480
317 8 518 517 519 521
318 8 518 517 520 522
319 6 517 519 521 523
320 6 517 519 521 524
321 6 517 519 521 525
322 8 672 671 673 676
323 8 672 671 674 675
324 5 671 673 676 675
325 6 517 520 522 526
326 6 517 520 522 527
327 6 517 520 522 528
328 6 157 159 161 163
329 6 157 159 161 164
330 6 157 159 161 165
331 7 643 646 645 644
332 5 641 643 646 645
333 8 642 641 643 646
334 8 642 641 644 645
335 7 641 644 645 646
336 7 601 604 605 606
337 6 109 111 113 115
338 6 109 111 113 116
339 6 109 111 113 117
340 8 110 109 111 113
341 8 110 109 112 114
342 6 109 112 114 118
343 6 109 112 114 119
344 6 109 112 114 120
345 5 581 583 586 585
346 7 581 584 585 586
347 7 583 586 585 584
348 8 582 581 583 586
349 8 582 581 584 585
350 6 337 339 341 343
351 6 337 339 341 344
352 6 337 339 341 345
353 7 573 576 575 574
354 8 386 385 387 389
355 8 386 385 388 390
356 8 434 433 435 437
357 8 434 433 436 438
358 7 703 706 705 704
359 5 701 703 706 705
360 7 701 704 705 706
361 5 601 603 606 605
362 7 603 606 605 604
363 8 702 701 703 706
364 8 702 701 704 705
365 5 621 623 626 625
366 7 623 626 625 624
367 6 385 387 389 391
368 6 385 387 389 392
369 6 385 387 389 393
370 6 385 388 390 394
371 6 385 388 390 395
372 6 385 388 390 396
373 6 433 436 438 442
374 6 433 436 438 443
375 6 433 436 438 444
376 8 266 265 267 269
377 8 266 265 268 270
378 7 611 614 615 616
379 6 265 268 270 274
380 6 265 268 270 275
381 6 265 268 270 276
382 8 74 73 75 77
383 8 74 73 76 78
384 8 612 611 613 616
385 8 612 611 614 615
386 7 613 616 615 614
387 5 611 613 616 615
388 6 73 76 78 82
389 6 73 76 78 83
390 6 73 76 78 84
391 7 631 634 635 636
392 8 632 631 633 636
393 8 632 631 634 635
394 5 631 633 636 635
395 6 229 231 233 235
396 6 229 231 233 236
397 6 229 231 233 237
398 6 229 232 234 238
399 6 229 232 234 239
400 6 229 232 234 240
401 8 230 229 231 233
402 8 230 229 232 234
403 6 205 208 210 214
404 6 205 208 210 215
405 6 205 208 210 216
406 7 591 594 595 596
407 7 661 664 665 666
408 8 662 661 663 666
409 8 662 661 664 665
410 5 661 663 666 665
411 7 663 666 665 664
412 8 592 591 593 596
413 8 592 591 594 595
414 5 591 593 596 595
415 6 73 75 77 79
416 6 73 75 77 80
417 6 73 75 77 81
418 6 97 100 102 106
419 6 97 100 102 107
420 6 97 100 102 108
421 8 98 97 99 101
422 8 98 97 100 102
423 7 633 636 635 634
424 8 338 337 339 341
425 8 338 337 340 342
426 8 446 445 447 449
427 8 446 445 448 450
428 6 445 447 449 451
429 6 445 447 449 452
430 6 445 447 449 453
431 6 445 448 450 454
432 6 445 448 450 455
433 6 445 448 450 456
434 6 133 136 138 142
435 6 133 136 138 143
436 6 133 136 138 144
437 8 134 133 135 137
438 8 134 133 136 138
439 6 133 135 137 139
440 6 133 135 137 140
441 6 133 135 137 141
442 6 85 87 89 91
443 6 85 87 89 92
444 6 85 87 89 93
445 6 85 88 90 94
446 6 85 88 90 95
447 6 85 88 90 96
448 8 86 85 87 89
449 8 86 85 88 90
450 6 97 99 101 103
451 6 97 99 101 104
452 6 97 99 101 105
453 6 157 160 162 166
454 6 157 160 162 167
455 6 157 160 162 168
