LAMMPS (23 Jun 2022 - Update 4)
# =============================================================================
# LAMMPS Minimization Input Script (Single-Step Soft Potential Strategy)
# Generated by Jinja2 template engine
# Generation time: 2026-06-29T22:49:53.347544600
# Job ID: 1290003
# =============================================================================
#
# Single-step soft potential minimization strategy:
#   Use soft potential with small cutoff (2.5A) and A=1000 to resolve
#   inter-molecular overlaps without disturbing properly packed atoms.
#
# CRITICAL FIX (v5):
#   v4 used multi-cutoff strategy (2.5 -> 4.0 -> 6.0) which DESTROYED the
#   structure. The soft potential with larger cutoffs (4.0, 6.0) pushed
#   apart atoms at legitimate distances (2.5-6.0A), causing the molecular
#   structure to collapse. Testing showed:
#     - After step 1 (rc=2.5): min distance 1.07A, 0 pairs < 1.0A (PERFECT)
#     - After step 2 (rc=4.0): min distance 0.00A, 891 pairs < 1.0A (DESTROYED)
#     - After step 3 (rc=6.0): min distance 0.00A, 3937 pairs < 1.0A (WORSE)
#   v5 uses ONLY a single step with rc=2.5, which resolves all close contacts
#   without disturbing the properly packed structure.
#
# Why small cutoff (2.5A) works:
#   - Packmol initial structure typically has only a few close contacts
#     (min distance ~0.67A, 4 pairs < 1.0A)
#   - Soft potential with rc=2.5A only acts on pairs < 2.5A
#   - Special_bonds lj 0 0 0.5 protects bonded pairs (1-2, 1-3)
#   - A=1000 gives max force 800 at r=0, strong enough to push apart overlaps
#     but only within the small cutoff range
#
# Bond force constants for reference:
#   C-C (sp3): k=268, C=C: k=414, C=O: k=570, C-H: k=340, C-O: k=320
#   Angle force constants: k=50-80
#   With A=1000, rc=2.5: max soft force = 2*1000/2.5 = 800
#   This is stronger than angle forces (50-80) and comparable to bond forces
#   (268-570), but only acts on non-bonded pairs within 2.5A.

# =============================================================================
# Single Step: Soft potential with small cutoff (2.5A) - resolve all overlaps
# =============================================================================
units           real
atom_style      full
dimension       3
boundary        p p p

# Bonded interactions (needed for bond/angle force computation)
bond_style      harmonic
angle_style     harmonic
dihedral_style  none
improper_style  none

# Use lj/cut first to match the pair_coeff format in system.in.settings
pair_style      lj/cut/coul/cut 8.0 8.0
special_bonds   lj 0.0 0.0 0.5 coul 0.0 0.0 0.5
kspace_style    none

# Read structure file
read_data       system.data
Reading data file ...
  orthogonal box = (0 0 0) to (20 20 20)
  1 by 1 by 1 MPI processor grid
  reading atoms ...
  770 atoms
  scanning bonds ...
  6 = max bonds/atom
  scanning angles ...
  15 = max angles/atom
  scanning dihedrals ...
  3 = max dihedrals/atom
  reading bonds ...
  715 bonds
  reading angles ...
  1087 angles
  reading dihedrals ...
  455 dihedrals
Finding 1-2 1-3 1-4 neighbors ...
  special bond factors lj:    0        0        0.5     
  special bond factors coul:  0        0        0.5     
     6 = max # of 1-2 neighbors
     5 = max # of 1-3 neighbors
     9 = max # of 1-4 neighbors
    11 = max # of special neighbors
  special bonds CPU = 0.000 seconds
  read_data CPU = 0.018 seconds

# Include force field parameters (bond_coeff, angle_coeff)
include         system.in.settings
pair_coeff 1 1 0.066 3.50
pair_coeff 2 2 0.066 3.50
pair_coeff 3 3 0.066 3.50
pair_coeff 4 4 0.066 3.50
pair_coeff 5 5 0.070 3.55
pair_coeff 6 6 0.070 3.55
pair_coeff 7 7 0.070 3.55
pair_coeff 8 8 0.070 3.55
pair_coeff 9 9 0.105 3.75
pair_coeff 10 10 0.105 3.75
pair_coeff 11 11 0.030 2.50
pair_coeff 12 12 0.030 2.50
pair_coeff 13 13 0.030 2.50
pair_coeff 14 14 0.030 2.42
pair_coeff 15 15 0.030 2.50
pair_coeff 16 16 0.030 2.50
pair_coeff 17 17 0.030 2.50
pair_coeff 18 18 0.170 3.00
pair_coeff 19 19 0.170 3.00
pair_coeff 20 20 0.170 2.96
pair_coeff 21 21 0.170 3.00
pair_coeff 22 22 0.170 3.25
pair_coeff 23 23 0.170 3.25
pair_coeff 24 24 0.170 3.25
pair_coeff 25 25 0.170 3.25
pair_coeff 26 26 0.255 2.95
pair_coeff 27 27 0.200 3.70
pair_coeff 28 28 0.0025 1.506
pair_coeff 29 29 0.250 3.55
pair_coeff 30 30 0.250 3.55
#  -
bond_coeff 1  268.0  1.529   # C-C   (sp3-sp3)
bond_coeff 2  414.0  1.330   # C=C   (sp2-sp2)
bond_coeff 3 320.0  1.400   #   C-C

#  -
bond_coeff 4     340.0  1.090   # C-H  (sp3 )
bond_coeff 5     340.0  1.080   # C-H  (sp2 )
bond_coeff 6    340.0  1.080   # C-H  (   )

#  -
bond_coeff 7  320.0  1.410   # C-O   (   )
bond_coeff 8  570.0  1.229   # C=O   (  )
bond_coeff 9    320.0  1.360   # C-O  (  )

#  -
bond_coeff 10  300.0  1.470   # C-N   ( )
bond_coeff 11  440.0  1.270   # C=N   (  )
bond_coeff 12   350.0  1.340   # C-N  (  )

#  -
bond_coeff 13         340.0  0.960   # O-H  (    )

#  -
bond_coeff 14         340.0  1.010   # N-H  ( )

#  -   (PF6)
bond_coeff 15         420.0  1.560   # P-F  (     )

#  -
bond_coeff 16         200.0  1.810   # S-C  (  )

#  -
bond_coeff 17         300.0  1.430   # S-O  (   )
#  - -
angle_coeff 1    50.0  109.5   # C-C-C (sp3)
angle_coeff 2    80.0  120.0   # C-C-C (sp2)
angle_coeff 3   60.0  120.0   # C-C-C (  )

#  - -
angle_coeff 4    37.5  110.7   # C-C-H (sp3)
angle_coeff 5    40.0  120.0   # C-C-H (sp2)

#  - -
angle_coeff 6    33.0  106.4   # H-C-H (sp3   )
angle_coeff 7   33.0  107.8   # H-C-H (sp3  )
angle_coeff 8    35.0  120.0   # H-C-H (sp2)

#  - -
angle_coeff 9  60.0  109.5   # C-O-C ( )
angle_coeff 10  60.0  124.0   # C-O-C ( )

#  - -
angle_coeff 11   80.0  123.0   # O-C=O (  )
angle_coeff 12  80.0  120.4   # O-C-O ( )

#  - -
angle_coeff 13        50.0  109.5   # C-C-O

#  - -
angle_coeff 14        50.0  109.5   # C-O-H ( )

#  - -
angle_coeff 15        50.0  109.5   # C-N-C ( )
angle_coeff 16  50.0  120.0   # C-N-C (  )

#  - -    (PF6)
angle_coeff 17        80.0   90.0   # F-P-F (     )
angle_coeff 18    80.0  180.0   # F-P-F (  )
#  - - -

#  - - -

#  - - -

#  - - -

#  - - -

#  - - -

#  - - =
#

#
pair_coeff 31 31 0.00034 2.126

# Switch to soft potential with small cutoff (2.5A)
# A=1000: strong repulsive force (max 2*A/rc = 800 at r=0)
# Only acts on pairs < 2.5A, preserving properly packed structure
pair_style      soft 2.5
pair_coeff      * * 1000.0

# Neighbor list settings
neighbor        2.0 bin
neigh_modify    every 1 delay 0 check yes

# Thermodynamic output
thermo          100
thermo_style    custom step temp pe ke etotal press vol

# SD minimization (Steepest Descent - robust for high-energy starts)
min_style       sd
minimize        1e-06 0.0001 5000 5000
Generated 0 of 465 mixed pair_coeff terms from geometric mixing rule
WARNING: Dihedrals are defined but no dihedral style is set (../force.cpp:202)
WARNING: Likewise 1-4 special neighbor interactions != 1.0 (../force.cpp:204)
Neighbor list info ...
  update every 1 steps, delay 0 steps, check yes
  max neighbors/atom: 2000, page size: 100000
  master list distance cutoff = 4.5
  ghost atom cutoff = 4.5
  binsize = 2.25, bins = 9 9 9
  1 neighbor lists, perpetual/occasional/extra = 1 0 0
  (1) pair soft, perpetual
      attributes: half, newton on
      pair build: half/bin/newton
      stencil: half/bin/3d
      bin: standard
WARNING: Communication cutoff 4.5 is shorter than a bond length based estimate of 4.715. This may lead to errors. (../comm.cpp:727)
Per MPI rank memory allocation (min/avg/max) = 13.3 | 13.3 | 13.3 Mbytes
   Step          Temp          PotEng         KinEng         TotEng         Press          Volume    
         0   0              143308.5       0              143308.5       1815733.3      8000         
       100   0              1672.3011      0              1672.3011      116496.96      8000         
       200   0              1106.2175      0              1106.2175      86052.158      8000         
       300   0              878.78613      0              878.78613      70594.968      8000         
       400   0              733.68786      0              733.68786      60869.212      8000         
       500   0              634.68057      0              634.68057      53682.564      8000         
       600   0              557.39277      0              557.39277      48329.557      8000         
       700   0              481.88139      0              481.88139      43986.141      8000         
       800   0              417.91592      0              417.91592      39923.68       8000         
       900   0              372.26516      0              372.26516      36160.507      8000         
      1000   0              334.66052      0              334.66052      32469.308      8000         
      1100   0              304.63384      0              304.63384      29410.061      8000         
      1200   0              280.95472      0              280.95472      27112.056      8000         
      1300   0              260.7036       0              260.7036       25071.294      8000         
      1400   0              244.21234      0              244.21234      23158.007      8000         
      1500   0              230.20378      0              230.20378      21344.326      8000         
      1600   0              216.49456      0              216.49456      19742.248      8000         
      1700   0              198.25155      0              198.25155      18039.419      8000         
      1800   0              187.00887      0              187.00887      16863.356      8000         
      1821   0              185.32868      0              185.32868      16413.017      8000         
Loop time of 0.331419 on 1 procs for 1821 steps with 770 atoms

98.6% CPU use with 1 MPI tasks x no OpenMP threads

Minimization stats:
  Stopping criterion = energy tolerance
  Energy initial, next-to-last, final = 
      143308.503170993   185.328804232253   185.328676715218
  Force two-norm initial, final = 28354.209 51.09234
  Force max component initial, final = 3445.5072 17.999513
  Final line search alpha, max atom move = 0.0075584083 0.13604767
  Iterations, force evaluations = 1821 3610

MPI task timing breakdown:
Section |  min time  |  avg time  |  max time  |%varavg| %total
---------------------------------------------------------------
Pair    | 0.16013    | 0.16013    | 0.16013    |   0.0 | 48.32
Bond    | 0.133      | 0.133      | 0.133      |   0.0 | 40.13
Neigh   | 0.0030356  | 0.0030356  | 0.0030356  |   0.0 |  0.92
Comm    | 0.01135    | 0.01135    | 0.01135    |   0.0 |  3.42
Output  | 0.0022796  | 0.0022796  | 0.0022796  |   0.0 |  0.69
Modify  | 0          | 0          | 0          |   0.0 |  0.00
Other   |            | 0.02163    |            |       |  6.53

Nlocal:            770 ave         770 max         770 min
Histogram: 1 0 0 0 0 0 0 0 0 0
Nghost:           1431 ave        1431 max        1431 min
Histogram: 1 0 0 0 0 0 0 0 0 0
Neighs:          12509 ave       12509 max       12509 min
Histogram: 1 0 0 0 0 0 0 0 0 0

Total # of neighbors = 12509
Ave neighs/atom = 16.245455
Ave special neighs/atom = 6.7376623
Neighbor list builds = 4
Dangerous builds = 0

# Write final minimized configuration
write_data      minimized.data nocoeff
System init for write_data ...
Generated 0 of 465 mixed pair_coeff terms from geometric mixing rule
WARNING: Dihedrals are defined but no dihedral style is set (../force.cpp:202)
WARNING: Likewise 1-4 special neighbor interactions != 1.0 (../force.cpp:204)
WARNING: Communication cutoff 4.5 is shorter than a bond length based estimate of 4.715. This may lead to errors. (../comm.cpp:727)
Total wall time: 0:00:00
LAMMPS (23 Jun 2022 - Update 4)
# =============================================================================
# LAMMPS Equilibrium Input Script (Gradual LJ Transition via NVE/limit)
# Generated by Jinja2 template engine
# Generation time: 2026-06-29T22:49:53.347544600
# Job ID: 1290003
# =============================================================================
#
# Six-phase gradual relaxation strategy:
#   Phase 0: NVE/limit with real LJ (cutoff=4.0A) and tiny timestep.
#            After soft potential minimization, atoms are at safe distances
#            (>= ~2.5A). NVE/limit with small displacement limit (0.02A)
#            safely transitions to real LJ dynamics without energy explosions.
#   Phase 1: NVE/limit with cutoff=5.0A.
#   Phase 2: NVE/limit with cutoff=6.0A.
#   Phase 3: NVE/limit with full cutoff=8.0A.
#   Phase 4: NVT thermostat at target temperature.
#   Phase 5: NPT barostat at target pressure.
#
# CRITICAL FIX (v4):
#   v3 used CG minimization for the LJ transition (Phase 0), which failed
#   because CG can make large steps that cause atoms to overlap.
#   v4 uses NVE/limit which limits displacement per step, preventing
#   energy explosions even if some close contacts remain.
#
# Why NVE/limit instead of CG minimization:
#   - CG minimization uses line search, which can fail (alpha=0) when forces
#     are extreme, leaving the structure unrelaxed.
#   - NVE/limit simply limits displacement per step, always making progress.
#   - NVE/limit is faster (no line search) and more robust.

# Initialization settings
units           real
atom_style      full
dimension       3
boundary        p p p

# Force field styles
bond_style      harmonic
angle_style     harmonic
dihedral_style  none
improper_style  none

# Start with real LJ at small cutoff=4.0A for safe transition
pair_style      lj/cut/coul/cut 4.0 4.0
special_bonds   lj 0.0 0.0 0.5 coul 0.0 0.0 0.5
kspace_style    none

# Read the FINAL minimized configuration (from minimization step 3)
read_data       minimized.data
Reading data file ...
  orthogonal box = (0 0 0) to (20 20 20)
  1 by 1 by 1 MPI processor grid
  reading atoms ...
  770 atoms
  reading velocities ...
  770 velocities
  scanning bonds ...
  6 = max bonds/atom
  scanning angles ...
  15 = max angles/atom
  scanning dihedrals ...
  3 = max dihedrals/atom
  reading bonds ...
  715 bonds
  reading angles ...
  1087 angles
  reading dihedrals ...
  455 dihedrals
Finding 1-2 1-3 1-4 neighbors ...
  special bond factors lj:    0        0        0.5     
  special bond factors coul:  0        0        0.5     
     6 = max # of 1-2 neighbors
     5 = max # of 1-3 neighbors
     9 = max # of 1-4 neighbors
    11 = max # of special neighbors
  special bonds CPU = 0.000 seconds
  read_data CPU = 0.032 seconds

# Include force field parameters (bond_coeff, angle_coeff, pair_coeff)
include         system.in.settings
pair_coeff 1 1 0.066 3.50
pair_coeff 2 2 0.066 3.50
pair_coeff 3 3 0.066 3.50
pair_coeff 4 4 0.066 3.50
pair_coeff 5 5 0.070 3.55
pair_coeff 6 6 0.070 3.55
pair_coeff 7 7 0.070 3.55
pair_coeff 8 8 0.070 3.55
pair_coeff 9 9 0.105 3.75
pair_coeff 10 10 0.105 3.75
pair_coeff 11 11 0.030 2.50
pair_coeff 12 12 0.030 2.50
pair_coeff 13 13 0.030 2.50
pair_coeff 14 14 0.030 2.42
pair_coeff 15 15 0.030 2.50
pair_coeff 16 16 0.030 2.50
pair_coeff 17 17 0.030 2.50
pair_coeff 18 18 0.170 3.00
pair_coeff 19 19 0.170 3.00
pair_coeff 20 20 0.170 2.96
pair_coeff 21 21 0.170 3.00
pair_coeff 22 22 0.170 3.25
pair_coeff 23 23 0.170 3.25
pair_coeff 24 24 0.170 3.25
pair_coeff 25 25 0.170 3.25
pair_coeff 26 26 0.255 2.95
pair_coeff 27 27 0.200 3.70
pair_coeff 28 28 0.0025 1.506
pair_coeff 29 29 0.250 3.55
pair_coeff 30 30 0.250 3.55
#  -
bond_coeff 1  268.0  1.529   # C-C   (sp3-sp3)
bond_coeff 2  414.0  1.330   # C=C   (sp2-sp2)
bond_coeff 3 320.0  1.400   #   C-C

#  -
bond_coeff 4     340.0  1.090   # C-H  (sp3 )
bond_coeff 5     340.0  1.080   # C-H  (sp2 )
bond_coeff 6    340.0  1.080   # C-H  (   )

#  -
bond_coeff 7  320.0  1.410   # C-O   (   )
bond_coeff 8  570.0  1.229   # C=O   (  )
bond_coeff 9    320.0  1.360   # C-O  (  )

#  -
bond_coeff 10  300.0  1.470   # C-N   ( )
bond_coeff 11  440.0  1.270   # C=N   (  )
bond_coeff 12   350.0  1.340   # C-N  (  )

#  -
bond_coeff 13         340.0  0.960   # O-H  (    )

#  -
bond_coeff 14         340.0  1.010   # N-H  ( )

#  -   (PF6)
bond_coeff 15         420.0  1.560   # P-F  (     )

#  -
bond_coeff 16         200.0  1.810   # S-C  (  )

#  -
bond_coeff 17         300.0  1.430   # S-O  (   )
#  - -
angle_coeff 1    50.0  109.5   # C-C-C (sp3)
angle_coeff 2    80.0  120.0   # C-C-C (sp2)
angle_coeff 3   60.0  120.0   # C-C-C (  )

#  - -
angle_coeff 4    37.5  110.7   # C-C-H (sp3)
angle_coeff 5    40.0  120.0   # C-C-H (sp2)

#  - -
angle_coeff 6    33.0  106.4   # H-C-H (sp3   )
angle_coeff 7   33.0  107.8   # H-C-H (sp3  )
angle_coeff 8    35.0  120.0   # H-C-H (sp2)

#  - -
angle_coeff 9  60.0  109.5   # C-O-C ( )
angle_coeff 10  60.0  124.0   # C-O-C ( )

#  - -
angle_coeff 11   80.0  123.0   # O-C=O (  )
angle_coeff 12  80.0  120.4   # O-C-O ( )

#  - -
angle_coeff 13        50.0  109.5   # C-C-O

#  - -
angle_coeff 14        50.0  109.5   # C-O-H ( )

#  - -
angle_coeff 15        50.0  109.5   # C-N-C ( )
angle_coeff 16  50.0  120.0   # C-N-C (  )

#  - -    (PF6)
angle_coeff 17        80.0   90.0   # F-P-F (     )
angle_coeff 18    80.0  180.0   # F-P-F (  )
#  - - -

#  - - -

#  - - -

#  - - -

#  - - -

#  - - -

#  - - =
#

#
pair_coeff 31 31 0.00034 2.126

# Neighbor list settings
neighbor        2.0 bin
neigh_modify    every 1 delay 0 check yes

# Thermodynamic output
thermo          100
thermo_style    custom step temp pe ke etotal press vol density

# =============================================================================
# Phase 0: NVE/limit with real LJ (cutoff=4.0A)
# Very small timestep (0.05 fs) and strict displacement limit (0.02 A).
# This safely transitions from soft potential to real LJ dynamics.
# =============================================================================
timestep        0.05
fix             nve_limit all nve/limit 0.02
run             500
Generated 465 of 465 mixed pair_coeff terms from geometric mixing rule
WARNING: Dihedrals are defined but no dihedral style is set (../force.cpp:202)
WARNING: Likewise 1-4 special neighbor interactions != 1.0 (../force.cpp:204)
Neighbor list info ...
  update every 1 steps, delay 0 steps, check yes
  max neighbors/atom: 2000, page size: 100000
  master list distance cutoff = 6
  ghost atom cutoff = 6
  binsize = 3, bins = 7 7 7
  1 neighbor lists, perpetual/occasional/extra = 1 0 0
  (1) pair lj/cut/coul/cut, perpetual
      attributes: half, newton on
      pair build: half/bin/newton
      stencil: half/bin/3d
      bin: standard
Per MPI rank memory allocation (min/avg/max) = 12.23 | 12.23 | 12.23 Mbytes
   Step          Temp          PotEng         KinEng         TotEng         Press          Volume        Density    
         0   0             -747.3618       0             -747.3618       75764.423      8000           1.3463241    
       100   126.51387     -1132.9611      290.00054     -842.96059      69649.33       8000           1.3463241    
       200   252.79658     -1587.0844      579.47116     -1007.6133      63004.775      8000           1.3463241    
       300   322.71882     -1535.6771      739.74994     -795.92718      59975.747      8000           1.3463241    
       400   372.75496     -1494.8724      854.44491     -640.42753      55786.636      8000           1.3463241    
       500   414.78415     -1501.1648      950.78602     -550.37882      52747.157      8000           1.3463241    
Loop time of 0.106516 on 1 procs for 500 steps with 770 atoms

Performance: 20.279 ns/day, 1.184 hours/ns, 4694.114 timesteps/s
100.0% CPU use with 1 MPI tasks x no OpenMP threads

MPI task timing breakdown:
Section |  min time  |  avg time  |  max time  |%varavg| %total
---------------------------------------------------------------
Pair    | 0.081832   | 0.081832   | 0.081832   |   0.0 | 76.83
Bond    | 0.017605   | 0.017605   | 0.017605   |   0.0 | 16.53
Neigh   | 0.0011829  | 0.0011829  | 0.0011829  |   0.0 |  1.11
Comm    | 0.0028618  | 0.0028618  | 0.0028618  |   0.0 |  2.69
Output  | 0.00013963 | 0.00013963 | 0.00013963 |   0.0 |  0.13
Modify  | 0.0018897  | 0.0018897  | 0.0018897  |   0.0 |  1.77
Other   |            | 0.001005   |            |       |  0.94

Nlocal:            770 ave         770 max         770 min
Histogram: 1 0 0 0 0 0 0 0 0 0
Nghost:           2274 ave        2274 max        2274 min
Histogram: 1 0 0 0 0 0 0 0 0 0
Neighs:          32089 ave       32089 max       32089 min
Histogram: 1 0 0 0 0 0 0 0 0 0

Total # of neighbors = 32089
Ave neighs/atom = 41.674026
Ave special neighs/atom = 6.7376623
Neighbor list builds = 1
Dangerous builds = 0
unfix           nve_limit

# =============================================================================
# Phase 1: NVE/limit with cutoff=5.0A
# =============================================================================
pair_style      lj/cut/coul/cut 5.0 5.0
include         system.in.settings
pair_coeff 1 1 0.066 3.50
pair_coeff 2 2 0.066 3.50
pair_coeff 3 3 0.066 3.50
pair_coeff 4 4 0.066 3.50
pair_coeff 5 5 0.070 3.55
pair_coeff 6 6 0.070 3.55
pair_coeff 7 7 0.070 3.55
pair_coeff 8 8 0.070 3.55
pair_coeff 9 9 0.105 3.75
pair_coeff 10 10 0.105 3.75
pair_coeff 11 11 0.030 2.50
pair_coeff 12 12 0.030 2.50
pair_coeff 13 13 0.030 2.50
pair_coeff 14 14 0.030 2.42
pair_coeff 15 15 0.030 2.50
pair_coeff 16 16 0.030 2.50
pair_coeff 17 17 0.030 2.50
pair_coeff 18 18 0.170 3.00
pair_coeff 19 19 0.170 3.00
pair_coeff 20 20 0.170 2.96
pair_coeff 21 21 0.170 3.00
pair_coeff 22 22 0.170 3.25
pair_coeff 23 23 0.170 3.25
pair_coeff 24 24 0.170 3.25
pair_coeff 25 25 0.170 3.25
pair_coeff 26 26 0.255 2.95
pair_coeff 27 27 0.200 3.70
pair_coeff 28 28 0.0025 1.506
pair_coeff 29 29 0.250 3.55
pair_coeff 30 30 0.250 3.55
#  -
bond_coeff 1  268.0  1.529   # C-C   (sp3-sp3)
bond_coeff 2  414.0  1.330   # C=C   (sp2-sp2)
bond_coeff 3 320.0  1.400   #   C-C

#  -
bond_coeff 4     340.0  1.090   # C-H  (sp3 )
bond_coeff 5     340.0  1.080   # C-H  (sp2 )
bond_coeff 6    340.0  1.080   # C-H  (   )

#  -
bond_coeff 7  320.0  1.410   # C-O   (   )
bond_coeff 8  570.0  1.229   # C=O   (  )
bond_coeff 9    320.0  1.360   # C-O  (  )

#  -
bond_coeff 10  300.0  1.470   # C-N   ( )
bond_coeff 11  440.0  1.270   # C=N   (  )
bond_coeff 12   350.0  1.340   # C-N  (  )

#  -
bond_coeff 13         340.0  0.960   # O-H  (    )

#  -
bond_coeff 14         340.0  1.010   # N-H  ( )

#  -   (PF6)
bond_coeff 15         420.0  1.560   # P-F  (     )

#  -
bond_coeff 16         200.0  1.810   # S-C  (  )

#  -
bond_coeff 17         300.0  1.430   # S-O  (   )
#  - -
angle_coeff 1    50.0  109.5   # C-C-C (sp3)
angle_coeff 2    80.0  120.0   # C-C-C (sp2)
angle_coeff 3   60.0  120.0   # C-C-C (  )

#  - -
angle_coeff 4    37.5  110.7   # C-C-H (sp3)
angle_coeff 5    40.0  120.0   # C-C-H (sp2)

#  - -
angle_coeff 6    33.0  106.4   # H-C-H (sp3   )
angle_coeff 7   33.0  107.8   # H-C-H (sp3  )
angle_coeff 8    35.0  120.0   # H-C-H (sp2)

#  - -
angle_coeff 9  60.0  109.5   # C-O-C ( )
angle_coeff 10  60.0  124.0   # C-O-C ( )

#  - -
angle_coeff 11   80.0  123.0   # O-C=O (  )
angle_coeff 12  80.0  120.4   # O-C-O ( )

#  - -
angle_coeff 13        50.0  109.5   # C-C-O

#  - -
angle_coeff 14        50.0  109.5   # C-O-H ( )

#  - -
angle_coeff 15        50.0  109.5   # C-N-C ( )
angle_coeff 16  50.0  120.0   # C-N-C (  )

#  - -    (PF6)
angle_coeff 17        80.0   90.0   # F-P-F (     )
angle_coeff 18    80.0  180.0   # F-P-F (  )
#  - - -

#  - - -

#  - - -

#  - - -

#  - - -

#  - - -

#  - - =
#

#
pair_coeff 31 31 0.00034 2.126
neighbor        2.0 bin
neigh_modify    every 1 delay 0 check yes
timestep        0.1
fix             nve_limit all nve/limit 0.05
run             500
Generated 465 of 465 mixed pair_coeff terms from geometric mixing rule
WARNING: Dihedrals are defined but no dihedral style is set (../force.cpp:202)
WARNING: Likewise 1-4 special neighbor interactions != 1.0 (../force.cpp:204)
Per MPI rank memory allocation (min/avg/max) = 12.23 | 12.23 | 12.23 Mbytes
   Step          Temp          PotEng         KinEng         TotEng         Press          Volume        Density    
       500   414.78415     -560.31099      950.78602      390.47503      52707.842      8000           1.3463241    
       600   434.30995     -494.51443      995.54391      501.02948      47185.015      8000           1.3463241    
       700   497.77492     -841.16187      1141.021       299.85917      46487.81       8000           1.3463241    
       800   541.60858     -1215.7738      1241.4984      25.724673      51865.053      8000           1.3463241    
       900   563.54555     -1134.5402      1291.7833      157.24313      53432.946      8000           1.3463241    
      1000   570.14158     -1075.6801      1306.903       231.22287      46345.285      8000           1.3463241    
Loop time of 0.188085 on 1 procs for 500 steps with 770 atoms

Performance: 22.968 ns/day, 1.045 hours/ns, 2658.369 timesteps/s
99.5% CPU use with 1 MPI tasks x no OpenMP threads

MPI task timing breakdown:
Section |  min time  |  avg time  |  max time  |%varavg| %total
---------------------------------------------------------------
Pair    | 0.1595     | 0.1595     | 0.1595     |   0.0 | 84.80
Bond    | 0.017806   | 0.017806   | 0.017806   |   0.0 |  9.47
Neigh   | 0.0028364  | 0.0028364  | 0.0028364  |   0.0 |  1.51
Comm    | 0.0035749  | 0.0035749  | 0.0035749  |   0.0 |  1.90
Output  | 0.0011989  | 0.0011989  | 0.0011989  |   0.0 |  0.64
Modify  | 0.0019117  | 0.0019117  | 0.0019117  |   0.0 |  1.02
Other   |            | 0.001255   |            |       |  0.67

Nlocal:            770 ave         770 max         770 min
Histogram: 1 0 0 0 0 0 0 0 0 0
Nghost:           2875 ave        2875 max        2875 min
Histogram: 1 0 0 0 0 0 0 0 0 0
Neighs:          51370 ave       51370 max       51370 min
Histogram: 1 0 0 0 0 0 0 0 0 0

Total # of neighbors = 51370
Ave neighs/atom = 66.714286
Ave special neighs/atom = 6.7376623
Neighbor list builds = 2
Dangerous builds = 0
unfix           nve_limit

# =============================================================================
# Phase 2: NVE/limit with cutoff=6.0A
# =============================================================================
pair_style      lj/cut/coul/cut 6.0 6.0
include         system.in.settings
pair_coeff 1 1 0.066 3.50
pair_coeff 2 2 0.066 3.50
pair_coeff 3 3 0.066 3.50
pair_coeff 4 4 0.066 3.50
pair_coeff 5 5 0.070 3.55
pair_coeff 6 6 0.070 3.55
pair_coeff 7 7 0.070 3.55
pair_coeff 8 8 0.070 3.55
pair_coeff 9 9 0.105 3.75
pair_coeff 10 10 0.105 3.75
pair_coeff 11 11 0.030 2.50
pair_coeff 12 12 0.030 2.50
pair_coeff 13 13 0.030 2.50
pair_coeff 14 14 0.030 2.42
pair_coeff 15 15 0.030 2.50
pair_coeff 16 16 0.030 2.50
pair_coeff 17 17 0.030 2.50
pair_coeff 18 18 0.170 3.00
pair_coeff 19 19 0.170 3.00
pair_coeff 20 20 0.170 2.96
pair_coeff 21 21 0.170 3.00
pair_coeff 22 22 0.170 3.25
pair_coeff 23 23 0.170 3.25
pair_coeff 24 24 0.170 3.25
pair_coeff 25 25 0.170 3.25
pair_coeff 26 26 0.255 2.95
pair_coeff 27 27 0.200 3.70
pair_coeff 28 28 0.0025 1.506
pair_coeff 29 29 0.250 3.55
pair_coeff 30 30 0.250 3.55
#  -
bond_coeff 1  268.0  1.529   # C-C   (sp3-sp3)
bond_coeff 2  414.0  1.330   # C=C   (sp2-sp2)
bond_coeff 3 320.0  1.400   #   C-C

#  -
bond_coeff 4     340.0  1.090   # C-H  (sp3 )
bond_coeff 5     340.0  1.080   # C-H  (sp2 )
bond_coeff 6    340.0  1.080   # C-H  (   )

#  -
bond_coeff 7  320.0  1.410   # C-O   (   )
bond_coeff 8  570.0  1.229   # C=O   (  )
bond_coeff 9    320.0  1.360   # C-O  (  )

#  -
bond_coeff 10  300.0  1.470   # C-N   ( )
bond_coeff 11  440.0  1.270   # C=N   (  )
bond_coeff 12   350.0  1.340   # C-N  (  )

#  -
bond_coeff 13         340.0  0.960   # O-H  (    )

#  -
bond_coeff 14         340.0  1.010   # N-H  ( )

#  -   (PF6)
bond_coeff 15         420.0  1.560   # P-F  (     )

#  -
bond_coeff 16         200.0  1.810   # S-C  (  )

#  -
bond_coeff 17         300.0  1.430   # S-O  (   )
#  - -
angle_coeff 1    50.0  109.5   # C-C-C (sp3)
angle_coeff 2    80.0  120.0   # C-C-C (sp2)
angle_coeff 3   60.0  120.0   # C-C-C (  )

#  - -
angle_coeff 4    37.5  110.7   # C-C-H (sp3)
angle_coeff 5    40.0  120.0   # C-C-H (sp2)

#  - -
angle_coeff 6    33.0  106.4   # H-C-H (sp3   )
angle_coeff 7   33.0  107.8   # H-C-H (sp3  )
angle_coeff 8    35.0  120.0   # H-C-H (sp2)

#  - -
angle_coeff 9  60.0  109.5   # C-O-C ( )
angle_coeff 10  60.0  124.0   # C-O-C ( )

#  - -
angle_coeff 11   80.0  123.0   # O-C=O (  )
angle_coeff 12  80.0  120.4   # O-C-O ( )

#  - -
angle_coeff 13        50.0  109.5   # C-C-O

#  - -
angle_coeff 14        50.0  109.5   # C-O-H ( )

#  - -
angle_coeff 15        50.0  109.5   # C-N-C ( )
angle_coeff 16  50.0  120.0   # C-N-C (  )

#  - -    (PF6)
angle_coeff 17        80.0   90.0   # F-P-F (     )
angle_coeff 18    80.0  180.0   # F-P-F (  )
#  - - -

#  - - -

#  - - -

#  - - -

#  - - -

#  - - -

#  - - =
#

#
pair_coeff 31 31 0.00034 2.126
neighbor        2.0 bin
neigh_modify    every 1 delay 0 check yes
fix             nve_limit all nve/limit 0.1
run             500
Generated 465 of 465 mixed pair_coeff terms from geometric mixing rule
WARNING: Dihedrals are defined but no dihedral style is set (../force.cpp:202)
WARNING: Likewise 1-4 special neighbor interactions != 1.0 (../force.cpp:204)
Per MPI rank memory allocation (min/avg/max) = 12.32 | 12.32 | 12.32 Mbytes
   Step          Temp          PotEng         KinEng         TotEng         Press          Volume        Density    
      1000   570.14158     -1484.8165      1306.903      -177.91349      43504.987      8000           1.3463241    
      1100   603.71841     -1239.2964      1383.8693      144.57284      40450.977      8000           1.3463241    
      1200   635.9779      -1202.4273      1457.8158      255.38857      43115.023      8000           1.3463241    
      1300   659.61067     -1375.0854      1511.9879      136.90246      44185.345      8000           1.3463241    
      1400   685.41724     -1586.2384      1571.1428     -15.095571      40473.882      8000           1.3463241    
      1500   717.48236     -2264.2807      1644.6439     -619.63682      37280.975      8000           1.3463241    
Loop time of 0.323598 on 1 procs for 500 steps with 770 atoms

Performance: 13.350 ns/day, 1.798 hours/ns, 1545.126 timesteps/s
99.6% CPU use with 1 MPI tasks x no OpenMP threads

MPI task timing breakdown:
Section |  min time  |  avg time  |  max time  |%varavg| %total
---------------------------------------------------------------
Pair    | 0.28764    | 0.28764    | 0.28764    |   0.0 | 88.89
Bond    | 0.020882   | 0.020882   | 0.020882   |   0.0 |  6.45
Neigh   | 0.0035409  | 0.0035409  | 0.0035409  |   0.0 |  1.09
Comm    | 0.0050876  | 0.0050876  | 0.0050876  |   0.0 |  1.57
Output  | 0.0017033  | 0.0017033  | 0.0017033  |   0.0 |  0.53
Modify  | 0.0028395  | 0.0028395  | 0.0028395  |   0.0 |  0.88
Other   |            | 0.001903   |            |       |  0.59

Nlocal:            770 ave         770 max         770 min
Histogram: 1 0 0 0 0 0 0 0 0 0
Nghost:           3719 ave        3719 max        3719 min
Histogram: 1 0 0 0 0 0 0 0 0 0
Neighs:          77456 ave       77456 max       77456 min
Histogram: 1 0 0 0 0 0 0 0 0 0

Total # of neighbors = 77456
Ave neighs/atom = 100.59221
Ave special neighs/atom = 6.7376623
Neighbor list builds = 2
Dangerous builds = 0
unfix           nve_limit

# =============================================================================
# Phase 3: NVE/limit with full cutoff=8.0A
# =============================================================================
pair_style      lj/cut/coul/cut 8.0 8.0
include         system.in.settings
pair_coeff 1 1 0.066 3.50
pair_coeff 2 2 0.066 3.50
pair_coeff 3 3 0.066 3.50
pair_coeff 4 4 0.066 3.50
pair_coeff 5 5 0.070 3.55
pair_coeff 6 6 0.070 3.55
pair_coeff 7 7 0.070 3.55
pair_coeff 8 8 0.070 3.55
pair_coeff 9 9 0.105 3.75
pair_coeff 10 10 0.105 3.75
pair_coeff 11 11 0.030 2.50
pair_coeff 12 12 0.030 2.50
pair_coeff 13 13 0.030 2.50
pair_coeff 14 14 0.030 2.42
pair_coeff 15 15 0.030 2.50
pair_coeff 16 16 0.030 2.50
pair_coeff 17 17 0.030 2.50
pair_coeff 18 18 0.170 3.00
pair_coeff 19 19 0.170 3.00
pair_coeff 20 20 0.170 2.96
pair_coeff 21 21 0.170 3.00
pair_coeff 22 22 0.170 3.25
pair_coeff 23 23 0.170 3.25
pair_coeff 24 24 0.170 3.25
pair_coeff 25 25 0.170 3.25
pair_coeff 26 26 0.255 2.95
pair_coeff 27 27 0.200 3.70
pair_coeff 28 28 0.0025 1.506
pair_coeff 29 29 0.250 3.55
pair_coeff 30 30 0.250 3.55
#  -
bond_coeff 1  268.0  1.529   # C-C   (sp3-sp3)
bond_coeff 2  414.0  1.330   # C=C   (sp2-sp2)
bond_coeff 3 320.0  1.400   #   C-C

#  -
bond_coeff 4     340.0  1.090   # C-H  (sp3 )
bond_coeff 5     340.0  1.080   # C-H  (sp2 )
bond_coeff 6    340.0  1.080   # C-H  (   )

#  -
bond_coeff 7  320.0  1.410   # C-O   (   )
bond_coeff 8  570.0  1.229   # C=O   (  )
bond_coeff 9    320.0  1.360   # C-O  (  )

#  -
bond_coeff 10  300.0  1.470   # C-N   ( )
bond_coeff 11  440.0  1.270   # C=N   (  )
bond_coeff 12   350.0  1.340   # C-N  (  )

#  -
bond_coeff 13         340.0  0.960   # O-H  (    )

#  -
bond_coeff 14         340.0  1.010   # N-H  ( )

#  -   (PF6)
bond_coeff 15         420.0  1.560   # P-F  (     )

#  -
bond_coeff 16         200.0  1.810   # S-C  (  )

#  -
bond_coeff 17         300.0  1.430   # S-O  (   )
#  - -
angle_coeff 1    50.0  109.5   # C-C-C (sp3)
angle_coeff 2    80.0  120.0   # C-C-C (sp2)
angle_coeff 3   60.0  120.0   # C-C-C (  )

#  - -
angle_coeff 4    37.5  110.7   # C-C-H (sp3)
angle_coeff 5    40.0  120.0   # C-C-H (sp2)

#  - -
angle_coeff 6    33.0  106.4   # H-C-H (sp3   )
angle_coeff 7   33.0  107.8   # H-C-H (sp3  )
angle_coeff 8    35.0  120.0   # H-C-H (sp2)

#  - -
angle_coeff 9  60.0  109.5   # C-O-C ( )
angle_coeff 10  60.0  124.0   # C-O-C ( )

#  - -
angle_coeff 11   80.0  123.0   # O-C=O (  )
angle_coeff 12  80.0  120.4   # O-C-O ( )

#  - -
angle_coeff 13        50.0  109.5   # C-C-O

#  - -
angle_coeff 14        50.0  109.5   # C-O-H ( )

#  - -
angle_coeff 15        50.0  109.5   # C-N-C ( )
angle_coeff 16  50.0  120.0   # C-N-C (  )

#  - -    (PF6)
angle_coeff 17        80.0   90.0   # F-P-F (     )
angle_coeff 18    80.0  180.0   # F-P-F (  )
#  - - -

#  - - -

#  - - -

#  - - -

#  - - -

#  - - -

#  - - =
#

#
pair_coeff 31 31 0.00034 2.126
neighbor        2.0 bin
neigh_modify    every 1 delay 0 check yes
timestep        0.25
fix             nve_limit all nve/limit 0.2
run             500
Generated 465 of 465 mixed pair_coeff terms from geometric mixing rule
WARNING: Dihedrals are defined but no dihedral style is set (../force.cpp:202)
WARNING: Likewise 1-4 special neighbor interactions != 1.0 (../force.cpp:204)
Per MPI rank memory allocation (min/avg/max) = 12.83 | 12.83 | 12.83 Mbytes
   Step          Temp          PotEng         KinEng         TotEng         Press          Volume        Density    
      1500   717.48236     -2027.2698      1644.6439     -382.62594      36526.33       8000           1.3463241    
      1600   709.2374      -1592.9636      1625.7444      32.780827      43748.425      8000           1.3463241    
      1700   682.00484     -1748.7848      1563.3208     -185.46405      38981.979      8000           1.3463241    
      1800   727.45179     -1982.056       1667.4962     -314.55981      38770.947      8000           1.3463241    
      1900   730.60934     -2108.7636      1674.7341     -434.02949      35710.931      8000           1.3463241    
      2000   732.47704     -1615.7637      1679.0153      63.251601      35409.374      8000           1.3463241    
Loop time of 0.589475 on 1 procs for 500 steps with 770 atoms

Performance: 18.321 ns/day, 1.310 hours/ns, 848.213 timesteps/s
99.8% CPU use with 1 MPI tasks x no OpenMP threads

MPI task timing breakdown:
Section |  min time  |  avg time  |  max time  |%varavg| %total
---------------------------------------------------------------
Pair    | 0.53195    | 0.53195    | 0.53195    |   0.0 | 90.24
Bond    | 0.019143   | 0.019143   | 0.019143   |   0.0 |  3.25
Neigh   | 0.025846   | 0.025846   | 0.025846   |   0.0 |  4.38
Comm    | 0.0071132  | 0.0071132  | 0.0071132  |   0.0 |  1.21
Output  | 0.0011255  | 0.0011255  | 0.0011255  |   0.0 |  0.19
Modify  | 0.0022307  | 0.0022307  | 0.0022307  |   0.0 |  0.38
Other   |            | 0.002062   |            |       |  0.35

Nlocal:            770 ave         770 max         770 min
Histogram: 1 0 0 0 0 0 0 0 0 0
Nghost:           5390 ave        5390 max        5390 min
Histogram: 1 0 0 0 0 0 0 0 0 0
Neighs:         152544 ave      152544 max      152544 min
Histogram: 1 0 0 0 0 0 0 0 0 0

Total # of neighbors = 152544
Ave neighs/atom = 198.10909
Ave special neighs/atom = 6.7376623
Neighbor list builds = 9
Dangerous builds = 0
unfix           nve_limit

# =============================================================================
# Phase 4: NVT equilibration
# =============================================================================
velocity        all create 353.0 64982 dist gaussian
fix             nvt all nvt temp 353.0 353.0 100.0
timestep        1.0

# Trajectory output
dump            1 all custom 50 dump.equilibrium.lammpstrj id mol type x y z vx vy vz

run             500
Generated 465 of 465 mixed pair_coeff terms from geometric mixing rule
WARNING: Dihedrals are defined but no dihedral style is set (../force.cpp:202)
WARNING: Likewise 1-4 special neighbor interactions != 1.0 (../force.cpp:204)
Per MPI rank memory allocation (min/avg/max) = 14.14 | 14.14 | 14.14 Mbytes
   Step          Temp          PotEng         KinEng         TotEng         Press          Volume        Density    
      2000   353           -1615.7637      809.16175     -806.60195      30439.001      8000           1.3463241    
      2100   467.63606     -2121.7851      1071.9355     -1049.8497      27818.601      8000           1.3463241    
      2200   440.05216     -2384.9305      1008.7065     -1376.224       19979.501      8000           1.3463241    
      2300   398.29849     -2751.4794      912.9969      -1838.4825      13023.266      8000           1.3463241    
      2400   367.7118      -3278.0914      842.88478     -2435.2066      12255.567      8000           1.3463241    
      2500   353.59045     -3035.015       810.5152      -2224.4998      7581.6421      8000           1.3463241    
Loop time of 0.653105 on 1 procs for 500 steps with 770 atoms

Performance: 66.146 ns/day, 0.363 hours/ns, 765.573 timesteps/s
95.9% CPU use with 1 MPI tasks x no OpenMP threads

MPI task timing breakdown:
Section |  min time  |  avg time  |  max time  |%varavg| %total
---------------------------------------------------------------
Pair    | 0.52503    | 0.52503    | 0.52503    |   0.0 | 80.39
Bond    | 0.018928   | 0.018928   | 0.018928   |   0.0 |  2.90
Neigh   | 0.057173   | 0.057173   | 0.057173   |   0.0 |  8.75
Comm    | 0.0087071  | 0.0087071  | 0.0087071  |   0.0 |  1.33
Output  | 0.037073   | 0.037073   | 0.037073   |   0.0 |  5.68
Modify  | 0.0042269  | 0.0042269  | 0.0042269  |   0.0 |  0.65
Other   |            | 0.001973   |            |       |  0.30

Nlocal:            770 ave         770 max         770 min
Histogram: 1 0 0 0 0 0 0 0 0 0
Nghost:           5390 ave        5390 max        5390 min
Histogram: 1 0 0 0 0 0 0 0 0 0
Neighs:         153032 ave      153032 max      153032 min
Histogram: 1 0 0 0 0 0 0 0 0 0

Total # of neighbors = 153032
Ave neighs/atom = 198.74286
Ave special neighs/atom = 6.7376623
Neighbor list builds = 20
Dangerous builds = 0
unfix           nvt

# =============================================================================
# Phase 5: NPT equilibration
# =============================================================================
fix             npt all npt temp 353.0 353.0 100.0 iso 1.0 1.0 1000.0
timestep        1.0
run             500
Generated 465 of 465 mixed pair_coeff terms from geometric mixing rule
WARNING: Dihedrals are defined but no dihedral style is set (../force.cpp:202)
WARNING: Likewise 1-4 special neighbor interactions != 1.0 (../force.cpp:204)
Per MPI rank memory allocation (min/avg/max) = 14.14 | 14.14 | 14.14 Mbytes
   Step          Temp          PotEng         KinEng         TotEng         Press          Volume        Density    
      2500   353.59045     -3035.015       810.5152      -2224.4998      7581.6421      8000           1.3463241    
      2600   341.20629     -3134.9749      782.1277      -2352.8472      3431.653       8286.0253      1.2998503    
      2700   361.73882     -3480.0867      829.19325     -2650.8935      1272.0887      8742.0398      1.2320457    
      2800   351.41055     -3353.4459      805.51836     -2547.9275      2396.0468      9047.5867      1.1904382    
      2900   356.67031     -3881.862       817.57499     -3064.287       303.51085      9272.7287      1.1615343    
      3000   360.33592     -3392.9835      825.97747     -2567.0061      1530.7509      9385.8074      1.1475403    
Loop time of 0.629096 on 1 procs for 500 steps with 770 atoms

Performance: 68.670 ns/day, 0.349 hours/ns, 794.791 timesteps/s
94.8% CPU use with 1 MPI tasks x no OpenMP threads

MPI task timing breakdown:
Section |  min time  |  avg time  |  max time  |%varavg| %total
---------------------------------------------------------------
Pair    | 0.4852     | 0.4852     | 0.4852     |   0.0 | 77.13
Bond    | 0.022698   | 0.022698   | 0.022698   |   0.0 |  3.61
Neigh   | 0.060414   | 0.060414   | 0.060414   |   0.0 |  9.60
Comm    | 0.00723    | 0.00723    | 0.00723    |   0.0 |  1.15
Output  | 0.042647   | 0.042647   | 0.042647   |   0.0 |  6.78
Modify  | 0.0089274  | 0.0089274  | 0.0089274  |   0.0 |  1.42
Other   |            | 0.001982   |            |       |  0.32

Nlocal:            770 ave         770 max         770 min
Histogram: 1 0 0 0 0 0 0 0 0 0
Nghost:           4876 ave        4876 max        4876 min
Histogram: 1 0 0 0 0 0 0 0 0 0
Neighs:         130309 ave      130309 max      130309 min
Histogram: 1 0 0 0 0 0 0 0 0 0

Total # of neighbors = 130309
Ave neighs/atom = 169.23247
Ave special neighs/atom = 6.7376623
Neighbor list builds = 22
Dangerous builds = 0
unfix           npt

# Output equilibrated configuration
write_data      equilibrated.data
System init for write_data ...
Generated 465 of 465 mixed pair_coeff terms from geometric mixing rule
WARNING: Dihedrals are defined but no dihedral style is set (../force.cpp:202)
WARNING: Likewise 1-4 special neighbor interactions != 1.0 (../force.cpp:204)
Total wall time: 0:00:02
LAMMPS (23 Jun 2022 - Update 4)
# =============================================================================
# LAMMPS Production Simulation Input Script
# Generated by Jinja2 template engine
# Generation time: 2026-06-29T22:49:53.347544600
# Job ID: 1290003
# Target properties: density, conductivity
# =============================================================================

# Initialization settings
units           real
atom_style      full
dimension       3
boundary        p p p

# Force field styles (using cutoff Coulomb to handle non-neutral system charge)
# Note: PPPM requires charge neutrality. The current force field gives DMC
# molecules a net charge of +0.12 each, making the system non-neutral.
# Using lj/cut/coul/cut with no kspace as a workaround.
bond_style      harmonic
angle_style     harmonic
dihedral_style  none
improper_style  none
pair_style      lj/cut/coul/cut 8.0 8.0
special_bonds   lj 0.0 0.0 0.5 coul 0.0 0.0 0.5
kspace_style    none

# Read equilibrated configuration
read_data       equilibrated.data
Reading data file ...
  orthogonal box = (-0.54695801 -0.54695801 -0.54695801) to (20.546958 20.546958 20.546958)
  1 by 1 by 1 MPI processor grid
  reading atoms ...
  770 atoms
  reading velocities ...
  770 velocities
  scanning bonds ...
  6 = max bonds/atom
  scanning angles ...
  15 = max angles/atom
  scanning dihedrals ...
  3 = max dihedrals/atom
  reading bonds ...
  715 bonds
  reading angles ...
  1087 angles
  reading dihedrals ...
  455 dihedrals
Finding 1-2 1-3 1-4 neighbors ...
  special bond factors lj:    0        0        0.5     
  special bond factors coul:  0        0        0.5     
     6 = max # of 1-2 neighbors
     5 = max # of 1-3 neighbors
     9 = max # of 1-4 neighbors
    11 = max # of special neighbors
  special bonds CPU = 0.000 seconds
  read_data CPU = 0.035 seconds

# Force field parameters (PPPM auto-selects grid size)
include         system.in.settings
pair_coeff 1 1 0.066 3.50
pair_coeff 2 2 0.066 3.50
pair_coeff 3 3 0.066 3.50
pair_coeff 4 4 0.066 3.50
pair_coeff 5 5 0.070 3.55
pair_coeff 6 6 0.070 3.55
pair_coeff 7 7 0.070 3.55
pair_coeff 8 8 0.070 3.55
pair_coeff 9 9 0.105 3.75
pair_coeff 10 10 0.105 3.75
pair_coeff 11 11 0.030 2.50
pair_coeff 12 12 0.030 2.50
pair_coeff 13 13 0.030 2.50
pair_coeff 14 14 0.030 2.42
pair_coeff 15 15 0.030 2.50
pair_coeff 16 16 0.030 2.50
pair_coeff 17 17 0.030 2.50
pair_coeff 18 18 0.170 3.00
pair_coeff 19 19 0.170 3.00
pair_coeff 20 20 0.170 2.96
pair_coeff 21 21 0.170 3.00
pair_coeff 22 22 0.170 3.25
pair_coeff 23 23 0.170 3.25
pair_coeff 24 24 0.170 3.25
pair_coeff 25 25 0.170 3.25
pair_coeff 26 26 0.255 2.95
pair_coeff 27 27 0.200 3.70
pair_coeff 28 28 0.0025 1.506
pair_coeff 29 29 0.250 3.55
pair_coeff 30 30 0.250 3.55
#  -
bond_coeff 1  268.0  1.529   # C-C   (sp3-sp3)
bond_coeff 2  414.0  1.330   # C=C   (sp2-sp2)
bond_coeff 3 320.0  1.400   #   C-C

#  -
bond_coeff 4     340.0  1.090   # C-H  (sp3 )
bond_coeff 5     340.0  1.080   # C-H  (sp2 )
bond_coeff 6    340.0  1.080   # C-H  (   )

#  -
bond_coeff 7  320.0  1.410   # C-O   (   )
bond_coeff 8  570.0  1.229   # C=O   (  )
bond_coeff 9    320.0  1.360   # C-O  (  )

#  -
bond_coeff 10  300.0  1.470   # C-N   ( )
bond_coeff 11  440.0  1.270   # C=N   (  )
bond_coeff 12   350.0  1.340   # C-N  (  )

#  -
bond_coeff 13         340.0  0.960   # O-H  (    )

#  -
bond_coeff 14         340.0  1.010   # N-H  ( )

#  -   (PF6)
bond_coeff 15         420.0  1.560   # P-F  (     )

#  -
bond_coeff 16         200.0  1.810   # S-C  (  )

#  -
bond_coeff 17         300.0  1.430   # S-O  (   )
#  - -
angle_coeff 1    50.0  109.5   # C-C-C (sp3)
angle_coeff 2    80.0  120.0   # C-C-C (sp2)
angle_coeff 3   60.0  120.0   # C-C-C (  )

#  - -
angle_coeff 4    37.5  110.7   # C-C-H (sp3)
angle_coeff 5    40.0  120.0   # C-C-H (sp2)

#  - -
angle_coeff 6    33.0  106.4   # H-C-H (sp3   )
angle_coeff 7   33.0  107.8   # H-C-H (sp3  )
angle_coeff 8    35.0  120.0   # H-C-H (sp2)

#  - -
angle_coeff 9  60.0  109.5   # C-O-C ( )
angle_coeff 10  60.0  124.0   # C-O-C ( )

#  - -
angle_coeff 11   80.0  123.0   # O-C=O (  )
angle_coeff 12  80.0  120.4   # O-C-O ( )

#  - -
angle_coeff 13        50.0  109.5   # C-C-O

#  - -
angle_coeff 14        50.0  109.5   # C-O-H ( )

#  - -
angle_coeff 15        50.0  109.5   # C-N-C ( )
angle_coeff 16  50.0  120.0   # C-N-C (  )

#  - -    (PF6)
angle_coeff 17        80.0   90.0   # F-P-F (     )
angle_coeff 18    80.0  180.0   # F-P-F (  )
#  - - -

#  - - -

#  - - -

#  - - -

#  - - -

#  - - -

#  - - =
#

#
pair_coeff 31 31 0.00034 2.126

# Neighbor list settings (delay 5 to reduce overhead)
neighbor        2.0 bin
neigh_modify    every 1 delay 5 check yes

# Thermodynamic output
thermo          1000

thermo_style    custom step temp pe ke etotal press vol density


# Output thermodynamic data to thermo.out file (for post-processing analysis)
# Format: step temp pe ke etotal press vol density
variable        s_out equal step
variable        t_out equal temp
variable        pe_out equal pe
variable        ke_out equal ke
variable        et_out equal etotal
variable        pr_out equal press
variable        v_out equal vol
variable        d_out equal density
fix             thermo_out all print 1000 "${s_out} ${t_out} ${pe_out} ${ke_out} ${et_out} ${pr_out} ${v_out} ${d_out}" file thermo.out screen no

# Trajectory output (production)
dump            1 all custom 50 dump.trajectory.lammpstrj id mol type x y z vx vy vz


# Conductivity/Dielectric: output trajectory with charges
compute         charge all property/atom q
dump            2 all custom 50 dump.charge.lammpstrj id type x y z c_charge








# NPT production simulation
timestep        1.0
fix             1 all npt temp 353.0 353.0 100.0 iso 1.0 1.0 1000.0
run             1000
Generated 465 of 465 mixed pair_coeff terms from geometric mixing rule
WARNING: Dihedrals are defined but no dihedral style is set (../force.cpp:202)
WARNING: Likewise 1-4 special neighbor interactions != 1.0 (../force.cpp:204)
Neighbor list info ...
  update every 1 steps, delay 5 steps, check yes
  max neighbors/atom: 2000, page size: 100000
  master list distance cutoff = 10
  ghost atom cutoff = 10
  binsize = 5, bins = 5 5 5
  1 neighbor lists, perpetual/occasional/extra = 1 0 0
  (1) pair lj/cut/coul/cut, perpetual
      attributes: half, newton on
      pair build: half/bin/newton
      stencil: half/bin/3d
      bin: standard
Per MPI rank memory allocation (min/avg/max) = 15.5 | 15.5 | 15.5 Mbytes
   Step          Temp          PotEng         KinEng         TotEng         Press          Volume        Density    
         0   360.33592     -3392.9835      825.97747     -2567.0061      1530.7509      9385.8074      1.1475403    
      1000   350.24759     -2963.4657      802.85256     -2160.6131      2050.7198      9458.8183      1.1386827    
Loop time of 1.35983 on 1 procs for 1000 steps with 770 atoms

Performance: 63.537 ns/day, 0.378 hours/ns, 735.387 timesteps/s
90.8% CPU use with 1 MPI tasks x no OpenMP threads

MPI task timing breakdown:
Section |  min time  |  avg time  |  max time  |%varavg| %total
---------------------------------------------------------------
Pair    | 1.008      | 1.008      | 1.008      |   0.0 | 74.13
Bond    | 0.04884    | 0.04884    | 0.04884    |   0.0 |  3.59
Neigh   | 0.11214    | 0.11214    | 0.11214    |   0.0 |  8.25
Comm    | 0.015751   | 0.015751   | 0.015751   |   0.0 |  1.16
Output  | 0.14847    | 0.14847    | 0.14847    |   0.0 | 10.92
Modify  | 0.022169   | 0.022169   | 0.022169   |   0.0 |  1.63
Other   |            | 0.00447    |            |       |  0.33

Nlocal:            770 ave         770 max         770 min
Histogram: 1 0 0 0 0 0 0 0 0 0
Nghost:           4910 ave        4910 max        4910 min
Histogram: 1 0 0 0 0 0 0 0 0 0
Neighs:         129122 ave      129122 max      129122 min
Histogram: 1 0 0 0 0 0 0 0 0 0

Total # of neighbors = 129122
Ave neighs/atom = 167.69091
Ave special neighs/atom = 6.7376623
Neighbor list builds = 38
Dangerous builds = 0
unfix           1

# Output final configuration
write_data      final.data
System init for write_data ...
Generated 465 of 465 mixed pair_coeff terms from geometric mixing rule
WARNING: Dihedrals are defined but no dihedral style is set (../force.cpp:202)
WARNING: Likewise 1-4 special neighbor interactions != 1.0 (../force.cpp:204)
Total wall time: 0:00:01
