LAMMPS data file via write_data, version 23 Jun 2022, timestep = 1821

770 atoms
31 atom types
715 bonds
17 bond types
1087 angles
18 angle types
455 dihedrals
9 dihedral types
0 impropers
2 improper types

0 20 xlo xhi
0 20 ylo yhi
0 20 zlo zhi

Masses

1 12.011
2 12.011
3 12.011
4 12.011
5 12.011
6 12.011
7 12.011
8 12.011
9 12.011
10 12.011
11 1.008
12 1.008
13 1.008
14 1.008
15 1.008
16 1.008
17 1.008
18 15.999
19 15.999
20 15.999
21 15.999
22 14.007
23 14.007
24 14.007
25 14.007
26 18.998
27 30.974
28 6.941
29 32.065
30 32.065
31 6.941

Atoms # full

574 49 19 -0.35 4.032290614211494 0.8519415152948194 1.5300239787891536 0 0 0
575 49 2 0.22 4.444864337850207 2.175385147756103 1.2705362560080833 0 0 0
580 49 11 0.06 5.214577328357671 2.0561170590303752 0.5076690147998969 0 0 0
544 46 19 -0.35 12.362578884982804 1.2164622962163423 1.4629347417277347 0 0 0
549 46 11 0.06 10.898725290369013 1.769072058120273 2.3453348751373704 0 0 0
550 46 11 0.06 10.291679807317662 1.6262269598468282 0.7207967038551457 0 0 0
545 46 2 0.22 11.160847268477433 1.941050817429937 1.3015775503826574 0 0 0
541 46 9 0.52 13.36925323666787 2.082297224585632 1.0026355854751845 0 0 0
542 46 20 -0.5 14.549445682289731 1.746619139070335 0.934572001247551 0 0 0
204 17 11 0.06 1.2240651706405217 3.8651879113730687 1.1798823949174089 0 0 0
198 17 1 0.22 1.1945038501385208 4.883970611897698 0.79581891454815 0 0 0
579 49 11 0.06 3.6421858270200484 2.7641117107358015 0.8179222340360301 0 0 0
226 19 11 0.06 7.682278944029422 4.280331993484735 2.2229241164298505 0 0 0
546 46 2 0.22 11.581561636040332 3.398557539513069 1.003894800646696 0 0 0
547 46 11 0.06 11.034179450400444 4.141671297924373 1.5883375949984524 0 0 0
548 46 11 0.06 11.492955591385403 3.674675144258661 19.951645820779763 0 0 -1
543 46 19 -0.35 12.9181968493828 3.3343406214314455 0.5602287301855057 0 0 0
212 18 11 0.06 17.236107761794514 4.5894415664276496 0.14382127193612293 0 0 0
196 17 19 -0.35 0.6038939599230024 5.784586985101691 1.7245517334607792 0 0 0
203 17 11 0.06 2.2046428891498935 5.142107824121836 0.48229723659800255 0 0 0
47 4 11 0.06 4.448459312436816 6.788951297713875 0.9943165107085787 0 0 0
48 4 11 0.06 2.8723846386489797 7.509122015805589 0.9202035896982148 0 0 0
222 19 1 0.22 7.196800287549196 5.209587289369332 1.9431183168392274 0 0 0
227 19 11 0.06 6.417638454310483 5.043174423002428 1.2024939499547431 0 0 0
228 19 11 0.06 7.94083250676727 5.819070054756834 1.442589749008061 0 0 0
270 23 1 0.22 11.72990486728739 7.305366591311993 0.36605519731347985 0 0 0
275 23 11 0.06 11.22970172200382 6.556852087980392 0.9771933265763939 0 0 0
35 3 11 0.06 13.500802834450328 5.306077558375033 1.9786279348414013 0 0 0
274 23 11 0.06 12.800904175729166 7.108498150419695 0.39561361842947884 0 0 0
206 18 20 -0.5 15.260143203814236 7.283908266653882 1.8951692477517392 0 0 0
207 18 19 -0.35 16.38995884640349 6.47166606492591 0.06450182709125366 0 0 0
209 18 1 0.22 16.939657024556087 5.403709543912705 0.8042856553995368 0 0 0
211 18 11 0.06 16.219617479303214 5.0065943902502905 1.519981561346942 0 0 0
213 18 11 0.06 17.824660946896003 5.724371204878893 1.3527639037818429 0 0 0
38 4 20 -0.5 2.3964457069259666 9.892748637975872 1.4880091674959472 0 0 0
37 4 9 0.52 3.622397814240835 9.965185003609632 1.4205095385049054 0 0 0
40 4 19 -0.35 4.453131549231636 8.82777017856951 1.280288630454304 0 0 0
42 4 1 0.22 3.910408761438371 7.678248052659738 0.665222817906785 0 0 0
218 19 20 -0.5 6.554929248319077 7.783922372776149 2.1264521103059697 0 0 0
730 64 11 0.06 9.028317089200613 7.810668985723293 2.4808036942607936 0 0 0
266 23 20 -0.5 9.320591061642611 8.342784144194232 0.06134287472576192 0 0 0
265 23 9 0.52 10.174052308383754 9.067908801468095 0.576494167158892 0 0 0
268 23 19 -0.35 11.476684229726388 8.595421876302806 0.865805489905585 0 0 0
215 18 11 0.06 14.327229730347106 9.315078772369995 0.46529615741056146 0 0 0
205 18 9 0.52 15.990283288960585 7.509681522623691 0.9326170951747546 0 0 0
208 18 19 -0.35 16.34482738061021 8.831923831084167 0.5945895761520287 0 0 0
210 18 1 0.22 15.265495225597418 9.699064091728907 0.8668424368686053 0 0 0
216 18 11 0.06 15.139070382695156 9.84294473855905 1.9364686175450316 0 0 0
39 4 19 -0.35 4.293054102367007 11.162667851762501 1.748084080971535 0 0 0
41 4 1 0.22 3.417146078121852 12.257991205940836 1.885584127194884 0 0 0
278 24 20 -0.5 6.113509231675266 12.464533182547877 0.6378558671657264 0 0 1
269 23 1 0.22 8.659668103144375 10.913089714287786 1.0150813844380333 0 0 0
271 23 11 0.06 7.873357619797873 10.161972906814988 0.9709593889024323 0 0 0
272 23 11 0.06 8.556900220298612 11.49774231416268 1.9218194766575019 0 0 0
273 23 11 0.06 8.453663307545215 11.662607329273126 0.2776734282761568 0 0 0
267 23 19 -0.35 9.981539258409162 10.453074714333 0.8132275514283483 0 0 0
539 45 11 0.06 13.728073504928684 12.257100064544804 1.3413855185747163 0 0 0
214 18 11 0.06 15.44063783221573 10.679893877390812 0.4331469613937617 0 0 0
44 4 11 0.06 3.98213868922892 13.147262996363633 2.166552364341069 0 0 0
45 4 11 0.06 2.8995616947783023 12.475340383398285 0.9517401468029029 0 0 0
283 24 11 0.06 7.1505742273328705 14.727027818667393 0.8180506901941703 0 0 1
284 24 11 0.06 8.764377159238029 14.132437723178995 0.5001774940117033 0 0 1
538 45 11 0.06 12.128514199332024 12.922707203919883 1.525544721127731 0 0 0
529 45 9 0.52 15.005482755955375 14.366954092549852 2.2370200088520464 0 0 0
532 45 19 -0.35 13.642277376432034 14.28405353563958 1.863349463363289 0 0 0
534 45 1 0.22 13.141254852014926 12.96269699825707 1.9263361926919762 0 0 0
346 29 11 0.06 0.5465421423098562 16.313079222352243 0.8752840683662492 0 0 1
640 55 11 0.06 4.708009688435382 15.249566067469832 0.7569206275056063 0 0 1
311 26 11 0.06 11.562002556479413 17.414284049768984 2.1910707962309814 0 0 0
600 51 11 0.06 10.29186633084609 16.38168330911455 0.26747045990501983 0 0 1
594 51 19 -0.35 12.180986202172718 15.508970642897372 0.23308348640628068 0 0 1
156 13 11 0.06 16.63054275259391 17.527890538547233 0.7890592419593471 0 0 1
531 45 19 -0.35 15.633903227653901 15.630021182531895 2.0763543621840936 0 0 0
536 45 11 0.06 17.71205314197718 15.605797877906276 2.1072635537263222 0 0 0
698 61 11 0.06 2.2621155045460988 17.727195751489734 2.013999235212909 0 0 0
140 12 11 0.06 8.430250689066066 19.666609389931175 0.22421897541489666 0 0 1
141 12 11 0.06 8.406897182822322 17.970767513334238 0.6747855916228762 0 0 1
310 26 11 0.06 12.49436415243511 18.894140088973558 2.3778634610312848 0 0 0
571 49 9 0.52 4.405523284039581 0.6118585961407565 2.8633774006395867 0 0 0
573 49 19 -0.35 5.141603815657268 1.6401287135163605 3.4694643590914476 0 0 0
488 41 11 0.06 11.288553050596855 0.9500859681149595 4.673049072064476 0 0 0
489 41 11 0.06 12.700817262905423 1.9776593283001604 4.500587690085768 0 0 0
295 25 11 0.06 15.319081480089622 0.13643348512918854 4.65416057436669 0 1 0
257 22 1 0.22 1.2705960316480231 3.9260146809877896 4.4023588957348245 0 0 0
260 22 11 0.06 0.5824985144531645 4.112038177084739 3.581790892451946 0 0 0
261 22 11 0.06 0.8918166187516029 3.0560247120208195 4.926524596678644 0 0 0
576 49 2 0.22 4.982565558978344 2.741069563091848 2.608554280273337 0 0 0
255 22 19 -0.35 2.575364829063225 3.649626577735335 3.930274943507056 0 0 0
577 49 11 0.06 4.863672539467686 3.8159939553235596 2.7198122714472692 0 0 0
253 22 9 0.52 3.575374562103961 4.0562655060606865 4.84358140311593 0 0 0
578 49 11 0.06 6.028313343693769 2.5072102885903047 2.8230516488387756 0 0 0
263 22 11 0.06 6.137124191304698 4.038943638474194 4.863646564668464 0 0 0
30 3 1 0.22 13.409041479084939 4.899424961354144 2.9821210604119393 0 0 0
34 3 11 0.06 13.55138976164409 3.819867426677933 2.929205429786705 0 0 0
719 63 11 0.06 16.443883552121108 3.1629409546873957 3.9695288048149107 0 0 0
715 63 2 0.22 17.324082713581408 3.706544610166911 3.612289331179841 0 0 0
716 63 2 0.22 17.896675012835907 4.871509279594585 4.447623409164044 0 0 0
720 63 11 0.06 18.003682004196648 3.121367678586865 2.9873242318212827 0 0 0
714 63 19 -0.35 17.768095281841127 2.524107659430237 4.2647530024198845 0 0 0
193 17 9 0.52 1.5069055968224265 6.3512183606719566 2.6628089781866078 0 0 0
194 17 20 -0.5 2.63445896963081 5.8899728424431865 2.8255655476719537 0 0 0
254 22 20 -0.5 3.9412427405242916 5.230916446397782 4.851855020371068 0 0 0
217 19 9 0.52 6.0608821586928325 6.9884220276717715 2.919218691669524 0 0 0
220 19 19 -0.35 6.693114382135993 5.757052267410236 3.137120280514384 0 0 0
219 19 19 -0.35 4.7537740534857 7.147528457281613 3.448325544956321 0 0 0
729 64 11 0.06 8.794092261725295 6.894279186233368 3.86974275809376 0 0 0
25 3 9 0.52 12.05400902844581 6.604286988107888 3.786986568403438 0 0 0
28 3 19 -0.35 12.157736013027378 5.214053921119245 3.5555012434266233 0 0 0
27 3 19 -0.35 11.120097466332323 7.023551144273202 4.774070943820456 0 0 0
26 3 20 -0.5 12.530609765385359 7.386487958449467 2.966333037758837 0 0 0
36 3 11 0.06 14.230998638007925 5.316121357146543 3.5558347653592213 0 0 0
718 63 11 0.06 17.960655747210822 5.778822757721443 3.8480281743944604 0 0 0
195 17 19 -0.35 1.1612564668589302 7.604085576926845 3.2265284235159912 0 0 0
197 17 1 0.22 1.3106393064075446 7.62409277534805 4.635253022122322 0 0 0
200 17 11 0.06 1.4077830360904637 8.649512322691937 4.993024300605299 0 0 0
221 19 1 0.22 4.467107611685914 8.440991043730564 3.9503376111523916 0 0 0
224 19 11 0.06 3.4831831852774657 8.755352561063926 3.6036107487581597 0 0 0
225 19 11 0.06 4.442897544228227 8.443900421294085 5.040019184702389 0 0 0
223 19 11 0.06 5.171372487593876 9.208545401137398 3.642979030512873 0 0 0
727 64 11 0.06 7.3861697138729445 8.720347906219747 4.812741326460965 0 0 0
728 64 11 0.06 7.6178842632859425 9.64999560447161 3.403038929474397 0 0 0
725 64 2 0.22 9.054480361767688 7.906539632260705 3.5575426768025573 0 0 0
726 64 2 0.22 8.167352271099368 9.04892322229021 4.1315029829997085 0 0 0
31 3 11 0.06 11.928510558354434 9.029642998934568 4.744291626347232 0 0 0
721 64 9 0.52 10.091265035148181 9.905064342922044 3.2980992414563115 0 0 0
724 64 19 -0.35 10.199577723168748 8.53127828212265 3.0115964603478567 0 0 0
515 43 11 0.06 14.313034197942194 8.77510156876674 4.039707280515888 0 0 0
510 43 1 0.22 15.077252153606475 8.987519237809185 4.7856215425224855 0 0 0
514 43 11 0.06 15.832104587930157 9.625736350446095 4.327545284342642 0 0 0
43 4 11 0.06 2.674968778895406 12.080917054603601 2.6631747200745584 0 0 0
723 64 19 -0.35 8.936402791635972 10.229497480801005 4.035087193464383 0 0 0
722 64 20 -0.5 11.002404655091027 10.700598420672828 3.080942251356202 0 0 0
20 2 11 0.06 19.82985347928889 10.276612251665421 3.938723799918438 0 0 0
15 2 19 -0.35 18.975705169304437 12.06972375377765 4.512633632015546 0 0 0
17 2 1 0.22 19.204078701124356 10.69313030009192 4.727935679655308 0 0 0
19 2 11 0.06 18.266425343640563 10.140442602145296 4.723399094529247 0 0 0
690 60 11 0.06 9.645536455555012 12.620989112002833 3.929370913678719 0 0 0
689 60 11 0.06 10.916735391110501 13.684288676723064 3.574022185731786 0 0 0
685 60 2 0.22 10.393390457223125 13.243192530656444 4.418575915365195 0 0 0
540 45 11 0.06 13.11203729433279 12.60393008169914 2.9534362988531417 0 0 0
530 45 20 -0.5 15.646294823328322 13.351919492368781 2.5079743942663875 0 0 0
695 61 2 0.22 2.201989712622233 15.943797364485782 3.3999505287443847 0 0 0
700 61 11 0.06 2.135062704513513 15.28911690821002 2.5267559235352355 0 0 0
696 61 2 0.22 2.4696299131000674 17.433331417948065 3.044088009779622 0 0 0
699 61 11 0.06 1.2872530266869702 15.765823956340286 3.97248892054873 0 0 0
691 61 9 0.52 4.373566835492725 16.29109853746177 3.002736106813963 0 0 0
694 61 19 -0.35 3.469747007184644 15.321129448741413 3.470553969638653 0 0 0
692 61 20 -0.5 5.585074410217165 16.09445078360067 2.940227070920406 0 0 0
301 26 9 0.52 13.606364195935736 16.103243474825145 3.5958643568693174 0 0 0
302 26 20 -0.5 12.557551165603687 15.539813901424104 3.88539881414546 0 0 0
303 26 19 -0.35 14.761832693230366 16.009501136924065 4.414387754049441 0 0 0
304 26 19 -0.35 13.564605370952073 17.140137087842934 2.638494349078486 0 0 0
533 45 1 0.22 16.863503212849793 15.783238622369481 2.7676155960807125 0 0 0
535 45 11 0.06 16.978480581839914 15.13888927452131 3.6316908446904597 0 0 0
537 45 11 0.06 16.957467853373956 16.796566916997946 3.155018755753645 0 0 0
697 61 11 0.06 1.9477861529489247 18.151503285032188 3.6837081412934634 0 0 0
693 61 19 -0.35 3.779569116309237 17.464788426140597 2.5210455558483806 0 0 0
572 49 20 -0.5 3.8691122392737136 19.74289061865638 3.5373374026807047 0 -1 0
306 26 1 0.22 12.36185248308433 17.885259644307688 2.7622386910935974 0 0 0
312 26 11 0.06 12.008187277084964 18.005565598742532 3.7897609094097913 0 0 0
297 25 11 0.06 14.313724593772598 18.77999358078682 4.367008874578104 0 0 0
293 25 1 0.22 15.346351751956583 19.107699434726566 4.3069118367039065 0 0 0
296 25 11 0.06 15.632617160442132 19.106925848885407 3.255456692395827 0 0 0
565 48 2 0.22 2.05314625104647 0.45975382221363964 6.485433875120218 0 0 0
566 48 2 0.22 2.2677946106761326 1.65497569959823 7.430329469402161 0 0 0
569 48 11 0.06 1.1072026429560549 0.5808703682988553 5.958668188337758 0 0 0
570 48 11 0.06 2.8135464304894744 0.3660489483393636 5.71305580201352 0 0 0
416 35 11 0.06 5.156603695425822 0.7178553166126561 6.762972653147627 0 0 0
483 41 19 -0.35 11.577417015827102 2.220949963665983 6.236272401900496 0 0 0
485 41 1 0.22 12.11960297716277 1.395007839894212 5.215266445530304 0 0 0
487 41 11 0.06 12.735598372909651 0.5543709189896097 5.522128873184869 0 0 0
464 39 11 0.06 16.28315767794811 1.8756408021064166 6.166784732292075 0 0 0
461 39 1 0.22 16.015116539748135 2.1727327363022653 7.1736536944903335 0 0 0
712 63 20 -0.5 18.958677510416326 2.1469895375638 6.223495602028464 0 0 0
259 22 11 0.06 1.2035600283222316 4.794129874166328 5.060219971469087 0 0 0
567 48 11 0.06 2.41384504405589 2.5518745118400568 6.841416068931698 0 0 0
256 22 19 -0.35 4.39263060921758 3.043581890819635 5.396706511979369 0 0 0
755 72 26 -0.39 3.233652337008796 4.8806263621092585 7.220701443933521 0 0 0
258 22 1 0.22 5.663877236479598 3.5607539830447634 5.717504660239205 0 0 0
262 22 11 0.06 6.355047113441907 2.7953449084257125 6.064644904014388 0 0 0
264 22 11 0.06 5.555527081553317 4.288555303343189 6.511928330325537 0 0 0
512 43 11 0.06 13.559724559900328 4.0493927088253505 5.603878726263673 0 0 0
509 43 1 0.22 13.642135866470372 4.9676422069083035 6.183042933452325 0 0 0
513 43 11 0.06 13.523158019824294 4.717269736531008 7.227177152772949 0 0 0
463 39 11 0.06 15.175017640014662 2.848590980359517 7.085337362467359 0 0 0
711 63 9 0.52 18.448648773433764 2.9390695495260717 5.433549252903211 0 0 0
713 63 19 -0.35 18.61331653670042 4.328917904780934 5.539483906257722 0 0 0
199 17 11 0.06 2.195908110233066 7.086865570306239 4.974209308262782 0 0 0
359 30 11 0.06 7.011779617459017 6.361004282461488 5.539664308619973 0 0 0
354 30 1 0.22 7.732436811102906 6.0513955136188615 6.288128545973247 0 0 0
358 30 11 0.06 8.1452660906765 5.096684975123203 5.966087012181644 0 0 0
360 30 11 0.06 8.549043408256834 6.7649947722489285 6.350729709249249 0 0 0
511 43 11 0.06 12.770913457974698 5.568226182689868 5.951467038028004 0 0 0
505 43 9 0.52 14.802913571980659 7.008553903258196 6.025951078383797 0 0 0
507 43 19 -0.35 14.889400009718523 5.601108359443463 5.948012437593477 0 0 0
717 63 11 0.06 17.25180275747391 5.12595594266384 5.288056421886961 0 0 0
467 39 11 0.06 17.8673482030627 6.470265577060101 7.3038868297434005 0 0 0
201 17 11 0.06 0.44237297413455756 7.189114197798383 5.130202742857808 0 0 0
350 30 20 -0.5 5.829407647218405 7.862249241114763 7.228242743952951 0 0 0
29 3 1 0.22 11.303034427568498 8.332867294213079 5.297798947966126 0 0 0
32 3 11 0.06 10.337533003559644 8.78578842809201 5.517320160626249 0 0 0
33 3 11 0.06 11.800905911926215 8.292980213120178 6.242603070179997 0 0 0
506 43 20 -0.5 14.09129141084322 7.520922073576525 6.878603019862178 0 0 0
516 43 11 0.06 14.610283031848809 9.583708096403294 5.570762450911847 0 0 0
508 43 19 -0.35 15.682164227849656 7.789861797667864 5.2425955896434635 0 0 0
749 71 26 -0.39 16.850651291768738 9.474301022465799 6.67172824942562 0 0 0
501 42 11 0.06 1.6279765321236506 12.310605355674921 6.211884246665736 0 0 0
430 36 11 0.06 4.578248368488234 10.093186129293109 6.9308028856798405 0 0 0
426 36 1 0.22 3.562478204248671 10.146024411514952 7.325403596881356 0 0 0
431 36 11 0.06 2.8823431247865394 10.154370747962126 6.473502105430354 0 0 0
496 42 19 -0.35 5.08700951081321 12.17382012601228 5.534920152771062 0 0 0
334 28 11 0.06 7.122365895379139 9.982956598745904 6.951011488623478 0 0 0
502 42 11 0.06 7.116700253642738 12.172937313217806 5.576308331313012 0 0 0
504 42 11 0.06 6.312002898786244 12.338750658513568 7.156748243671476 0 0 0
330 28 1 0.22 8.14431542233347 10.090250763302851 7.307061435877192 0 0 0
336 28 11 0.06 8.734308495447232 10.512836719590469 6.506253903445762 0 0 0
688 60 11 0.06 11.20079283769281 11.41746345806869 5.4661656362203015 0 0 0
686 60 2 0.22 11.31933418823419 12.501173004754667 5.423490085780517 0 0 0
683 60 19 -0.35 10.568906795625978 12.254517214255713 6.588987975987543 0 0 0
14 2 20 -0.5 17.15095795626622 12.347062814232265 5.878709253131072 0 0 0
21 2 11 0.06 19.702432237108628 10.514379919429203 5.681395339016433 0 0 0
500 42 11 0.06 1.038349644369194 13.404954948769591 4.96584242384716 0 0 0
497 42 1 0.22 1.7985357107219166 13.271588989675738 5.724786180243891 0 0 0
499 42 11 0.06 1.711880193372929 14.055030602880091 6.47617154031142 0 0 0
495 42 19 -0.35 3.0468459693628756 13.33764032574636 5.093568972773266 0 0 0
493 42 9 0.52 4.031539564298667 12.962366540159252 6.013935427996308 0 0 0
494 42 20 -0.5 4.0540061744038365 13.43489792979345 7.148473293252503 0 0 0
498 42 1 0.22 6.285966510393127 12.626827326809744 6.10585959262011 0 0 0
503 42 11 0.06 6.412240069460019 13.709690821622639 6.035003540669436 0 0 0
681 60 9 0.52 9.35564435756061 12.929749244625837 6.3881285853836625 0 0 0
682 60 20 -0.5 8.636043382721283 13.236378149588841 7.332794691934838 0 0 0
684 60 19 -0.35 9.186515103963508 13.493736419511045 5.108072811821244 0 0 0
248 21 11 0.06 10.870416102438831 14.61704657384352 7.432033765974731 0 0 0
687 60 11 0.06 12.385950550017935 12.717424433085698 5.342075309172307 0 0 0
305 26 1 0.22 14.789378560045359 14.91785417189487 5.325649936302091 0 0 0
307 26 11 0.06 13.860325447094922 14.675725010500251 5.828978081694656 0 0 0
308 26 11 0.06 15.137598112128162 13.992372453224156 4.8702217141521285 0 0 0
23 2 11 0.06 19.089088063537794 14.965114525993304 4.957313951210415 0 0 0
13 2 9 0.52 18.31594367638646 12.642515014589291 5.622384868258893 0 0 0
16 2 19 -0.35 19.04243591902975 13.513716389658263 6.465887312292058 0 0 0
18 2 1 0.22 18.938769380927592 14.855958484530998 6.029070223517215 0 0 0
557 47 11 0.06 7.027916064947899 16.171128094006292 6.392758114791031 0 0 0
556 47 2 0.22 7.533137504388774 16.454909177985517 7.315789228567845 0 0 0
657 57 11 0.06 11.369333705235793 16.501599034928507 5.868899115605721 0 0 0
656 57 2 0.22 12.107809351494467 17.078590577094133 6.428543475568483 0 0 0
653 57 19 -0.35 13.480674270827762 17.34556075884656 6.235516070767163 0 0 0
658 57 11 0.06 12.596687007626635 16.394153143664273 7.126032613216689 0 0 0
309 26 11 0.06 15.47019190201362 15.171617032626465 6.129905300786966 0 0 0
24 2 11 0.06 17.963292230701764 15.27390817546678 6.244427960452258 0 0 0
22 2 11 0.06 19.6653620519553 15.487123118605789 6.536585457717794 0 0 0
564 48 19 -0.35 1.7637863614706146 19.34599278152932 7.292411111513514 0 -1 0
415 35 11 0.06 4.359459054324583 19.287035846575694 7.3520769657506095 0 -1 0
417 35 11 0.06 6.08305690487333 19.37706402922296 7.284771887686923 0 -1 0
655 57 2 0.22 11.507118341931614 18.308522090608356 7.142088733030063 0 0 0
659 57 11 0.06 10.751947387592372 18.82377092682594 6.544481005141908 0 0 0
651 57 9 0.52 13.698817117486652 18.606289630152293 6.820900894077858 0 0 0
652 57 20 -0.5 14.832264595738273 19.042915991652528 6.991952786359398 0 0 0
289 25 9 0.52 17.21566239241293 18.859969814945096 5.770606985052282 0 0 0
291 25 19 -0.35 16.174358795532985 18.227660852973987 5.048307800312119 0 0 0
290 25 20 -0.5 17.685203676155787 19.943444612472515 5.42466032254952 0 0 0
292 25 19 -0.35 17.86711084219653 18.091485313453134 6.758551862334805 0 0 0
299 25 11 0.06 19.691027731567356 18.523440607649587 5.869565546036204 0 0 0
294 25 1 0.22 19.2136275022224 18.497032552139675 6.848768326929278 0 0 0
298 25 11 0.06 19.79998554293743 17.80911870609156 7.451172642334927 0 0 0
563 48 19 -0.35 1.7356512451258417 1.2636344862554043 8.680652887421921 0 0 0
568 48 11 0.06 3.179929084740455 1.5814371510667002 8.021330079783102 0 0 0
409 35 9 0.52 4.308996033478016 0.2550337032984144 9.813668811168311 0 0 0
411 35 19 -0.35 5.3064249731149165 0.5483728287546503 8.833131978541482 0 0 0
413 35 1 0.22 5.196807164786443 19.954036070686875 7.535375564628626 0 -1 0
63 6 19 -0.35 8.079708675486373 2.005567745239005 9.568438004607788 0 0 0
65 6 1 0.22 8.185913855162411 1.0445137752253204 8.548499557092352 0 0 0
67 6 11 0.06 7.62134991385116 1.3106170561229826 7.6567651712216716 0 0 0
68 6 11 0.06 9.20721920501717 0.8189482143241229 8.2460698451771 0 0 0
69 6 11 0.06 7.768209217652117 0.1402861117814073 8.962704115806687 0 0 0
481 41 9 0.52 12.235286613801147 2.2421588165115316 7.495698968356747 0 0 0
491 41 11 0.06 10.723109513651783 2.138894675358509 9.727459056716377 0 0 0
482 41 20 -0.5 13.181080127571033 1.5139303675818412 7.7806592725817625 0 0 0
465 39 11 0.06 15.66865133655145 1.2875713826718902 7.702171788115883 0 0 0
58 5 11 0.06 19.32684269294723 0.9963936051676108 9.761638123780884 0 0 0
752 72 26 -0.39 1.0626913050717584 4.53149540354733 7.541383544924419 0 0 0
753 72 26 -0.39 2.5431344067282384 3.7878170488178307 9.009313359128715 0 0 0
192 16 11 0.06 5.073336700468026 3.97379682508812 9.243290646750665 0 0 0
190 16 11 0.06 6.563833429719237 4.7827727677714655 9.660440715845334 0 0 0
61 6 9 0.52 8.491886596447513 3.2778603785267078 9.144954255525287 0 0 0
62 6 20 -0.5 8.152516212817375 3.7194766573177027 8.05045044563168 0 0 0
484 41 19 -0.35 11.842331471693917 3.2498568299148487 8.392515012708706 0 0 0
486 41 1 0.22 11.618200762897848 2.7467269532213456 9.693137873125794 0 0 0
56 5 11 0.06 13.774296460869744 4.202791286231923 9.656248512312118 0 0 0
457 39 9 0.52 17.215046945986487 4.10802758291907 7.923275437121209 0 0 0
459 39 19 -0.35 17.138677548149953 2.6954667711470996 7.845881798380937 0 0 0
458 39 20 -0.5 16.240825773580895 4.803794366374417 8.21055121871743 0 0 0
51 5 19 -0.35 15.417635780369002 2.9615991276970632 9.683508285291573 0 0 0
59 5 11 0.06 19.10277620136677 2.6508971374684585 9.38945531843121 0 0 0
460 39 19 -0.35 18.511506750000986 4.652340488398695 8.015136429337016 0 0 0
750 72 27 1.34 2.2231712638025845 5.169538370559861 8.36342846038868 0 0 0
754 72 26 -0.39 1.9096908150975347 6.549091904760837 7.709795839600592 0 0 0
756 72 26 -0.39 1.2162095304950054 5.4446609750513835 9.511159945710258 0 0 0
751 72 26 -0.39 3.3719416443513133 5.8242485699672475 9.189180614158282 0 0 0
349 30 9 0.52 6.62823304039431 7.241092170751956 7.925830549314367 0 0 0
352 30 19 -0.35 7.091038398815385 5.97261360549107 7.530182799528649 0 0 0
66 6 1 0.22 9.58756339212909 5.27672394326284 9.563037333481356 0 0 0
72 6 11 0.06 8.836341382794743 6.010752424575138 9.315375306920595 0 0 0
71 6 11 0.06 10.159466535740943 5.075720477106171 8.661726624491132 0 0 0
332 28 11 0.06 12.275304271100035 7.073605422231282 9.763617743672304 0 0 0
333 28 11 0.06 12.004858805298332 6.673164201095358 8.128896120861787 0 0 0
466 39 11 0.06 19.44093089180164 6.480439782248112 8.088029644867401 0 0 0
462 39 1 0.22 18.443696871833012 6.051736266347544 8.128267898033865 0 0 0
468 39 11 0.06 17.99850426486622 6.354394895228083 9.076701195363357 0 0 0
423 36 19 -0.35 1.6802333754380046 8.058750560714138 9.686111226471771 0 0 0
421 36 9 0.52 2.064717551375635 9.161295693801359 8.857605065223986 0 0 0
424 36 19 -0.35 3.3116866669733893 9.052335257008462 8.191315951193731 0 0 0
351 30 19 -0.35 7.01556339571896 7.715831975429034 9.197469818205525 0 0 0
355 30 11 0.06 5.765278322836412 9.335690041051478 9.24597711562048 0 0 0
353 30 1 0.22 5.95885948852144 8.414655578230592 9.796073490856335 0 0 0
356 30 11 0.06 5.065898774200066 7.789619459556563 9.797662591557094 0 0 0
328 28 19 -0.35 8.680932160799134 8.849040175911323 7.721263566529485 0 0 0
325 28 9 0.52 10.041835884734809 8.897353351204124 8.115365222618063 0 0 0
327 28 19 -0.35 10.489311266004297 7.859578599036017 8.98566145535705 0 0 0
329 28 1 0.22 11.853311724160728 7.474126712564165 8.850477412561425 0 0 0
331 28 11 0.06 12.50401296682875 8.306239081825257 8.636794712815455 0 0 0
743 71 27 1.34 17.17038887245442 9.549728959472729 8.192014863967454 0 0 0
744 71 26 -0.39 16.43717409612366 8.191405251890309 8.416665609528023 0 0 0
746 71 26 -0.39 18.51351236971084 8.797190118763863 7.9468410675462735 0 0 0
748 71 26 -0.39 17.495452900434906 9.620800154300172 9.70836554071213 0 0 0
422 36 20 -0.5 1.3100392214510728 10.09470413430888 8.586764675978724 0 0 0
432 36 11 0.06 3.4689667177243084 11.103558971430335 7.835285164278728 0 0 0
132 11 11 0.06 4.91012741772588 11.747738776571186 9.772353921249982 0 0 0
244 21 19 -0.35 9.773634496497193 11.405031813313897 9.832102107620777 0 0 0
335 28 11 0.06 8.074277981889338 10.82231936276684 8.10102085169152 0 0 0
326 28 20 -0.5 10.73332701089825 9.884547143502111 7.862761522285293 0 0 0
241 21 9 0.52 10.76722211948261 12.276903130592425 9.34454825277089 0 0 0
242 21 20 -0.5 11.875146141918307 11.851712042529918 9.021078549703889 0 0 0
747 71 26 -0.39 15.829183263016704 10.306093090375773 8.441123767627275 0 0 0
745 71 26 -0.39 17.899648082366106 10.910468045106258 7.971828121565959 0 0 0
647 56 11 0.06 7.900254535865185 14.117116679958814 9.780800514242072 0 0 0
243 21 19 -0.35 10.343593966146189 13.61269495299034 9.11865144728259 0 0 0
245 21 1 0.22 11.21342407989931 14.50239533590472 8.453721386591427 0 0 0
247 21 11 0.06 12.268489013003562 14.241398972051535 8.422680301944775 0 0 0
402 34 1 0.22 15.67523943397352 14.607776882524393 8.761170972522285 0 0 0
406 34 11 0.06 15.356919499303666 13.645497824075106 8.360057681697798 0 0 0
408 34 11 0.06 15.867636444846282 14.478226610322421 9.819007731436011 0 0 0
407 34 11 0.06 16.634430320024293 14.852594974640668 8.31716513733273 0 0 0
528 44 11 0.06 18.923270256697045 15.123045646938069 9.284052411612093 0 0 0
527 44 11 0.06 0.3764060280374571 15.965510181523499 9.806000556835805 1 0 0
559 47 11 0.06 5.66641279425551 17.117270790139674 8.262687863755799 0 0 0
560 47 11 0.06 6.137952382324804 15.520547300867793 8.698264083082279 0 0 0
555 47 2 0.22 6.539917661856666 16.511397110737075 8.490112019125014 0 0 0
558 47 11 0.06 8.31099724392298 15.709378917779935 7.478448543045089 0 0 0
553 47 19 -0.35 8.708184017843136 17.110550714676307 7.748924832454436 0 0 0
249 21 11 0.06 11.135603656058198 15.478054045767085 8.934195692674738 0 0 0
400 34 19 -0.35 14.695466466029009 15.597780821643791 8.516692367585565 0 0 0
397 34 9 0.52 15.056529865140616 16.844369672147565 9.077960130825273 0 0 0
398 34 20 -0.5 16.2286254317708 17.08916198215184 9.35506675175245 0 0 0
526 44 11 0.06 18.862873881171208 16.822250569417537 9.544456600913595 0 0 0
522 44 1 0.22 19.296131039063496 15.907977872870255 9.93810945970681 0 0 0
561 48 9 0.52 1.4070573802717277 19.902926849992877 8.528094846145438 0 -1 0
562 48 20 -0.5 1.0454703050671494 19.206553681225266 9.469264569720654 0 -1 0
410 35 20 -0.5 3.5308631333446865 19.311168848448382 9.7022363034894 0 -1 0
554 47 19 -0.35 7.000552851906798 17.549588065918183 9.327791169427172 0 0 0
551 47 9 0.52 8.349271578450285 17.714300597419996 8.965899073405312 0 0 0
552 47 20 -0.5 9.185145884929236 18.121355467650496 9.770144439358281 0 0 0
660 57 11 0.06 11.048573091326784 18.08603787701033 8.105978436872528 0 0 0
399 34 19 -0.35 14.042981623539031 17.832030654174687 9.171238667112593 0 0 0
404 34 11 0.06 13.703019742016878 19.807902074285014 9.673584898598131 0 0 0
654 57 19 -0.35 12.60010892428376 19.096651093855545 7.546509855113609 0 0 0
401 34 1 0.22 14.460746374203344 19.033780338438017 9.793568131783703 0 0 0
403 34 11 0.06 15.390166940338698 19.441323920097172 9.395207233098708 0 0 0
300 25 11 0.06 19.26843309444259 19.48589940561098 7.3028988084386155 0 0 0
419 35 11 0.06 2.2985686360997635 1.2547278752344078 11.185547570130735 0 0 0
412 35 19 -0.35 4.375590130286637 0.9645553974951344 11.040884398009165 0 0 0
414 35 1 0.22 3.1544788450193675 0.9057542007892362 11.764678161755144 0 0 0
322 27 11 0.06 9.280011208557433 1.9682455339130729 11.759641189775937 0 0 0
492 41 11 0.06 12.434219404798416 2.13727998783725 10.081569060184199 0 0 0
323 27 11 0.06 10.99989009439524 1.9431115805435348 12.204807723609868 0 0 0
602 52 20 -0.5 12.736289521351555 0.16301487366372416 11.961312010628237 0 0 0
604 52 19 -0.35 14.79482792831724 1.1118882372983718 12.338073056644324 0 0 0
52 5 19 -0.35 17.39297799374365 1.6355659545860148 10.095372576910234 0 0 0
582 50 20 -0.5 17.068233375805427 0.08967262256598976 12.17488670951483 0 1 0
54 5 1 0.22 18.788753601358685 1.8775518432980915 10.087396720207918 0 0 0
60 5 11 0.06 19.144094998402277 2.1507258570970227 11.080918524223074 0 0 0
185 16 1 0.22 1.7070996000810335 4.665371018324537 12.297567979518568 0 0 0
187 16 11 0.06 1.2629909072005212 3.8433324330800986 11.735202412439712 0 0 0
181 16 9 0.52 3.788739024267746 4.559449872977235 11.30508211891314 0 0 0
182 16 20 -0.5 3.656029227959631 3.353112614777478 11.203136663835757 0 0 0
186 16 1 0.22 5.700345347230311 4.286613885669497 10.079776381462617 0 0 0
191 16 11 0.06 6.07538007085609 3.3986385546801747 10.590372936837712 0 0 0
64 6 19 -0.35 9.029664057014541 4.120602969618242 10.133853920286677 0 0 0
490 41 11 0.06 11.466210867843762 3.576841153261137 10.376268879784075 0 0 0
53 5 1 0.22 14.598830701339079 3.942429936745629 10.295303190577275 0 0 0
57 5 11 0.06 14.164009001119293 3.548703438853266 11.205970001687728 0 0 0
55 5 11 0.06 15.059218296076953 4.910618779999119 10.479606652093686 0 0 0
49 5 9 0.52 16.68727584854796 2.840456107192186 10.297368041363955 0 0 0
50 5 20 -0.5 17.304293631576027 3.837332079158009 10.651430413766306 0 0 0
183 16 19 -0.35 2.6679058301445937 5.370614703694907 11.543388695790055 0 0 0
184 16 19 -0.35 5.012078498917777 5.157731673152175 10.953999813404913 0 0 0
377 32 1 0.22 8.2671391910762 6.657180672238494 12.118962557342966 0 0 0
380 32 11 0.06 7.750743504270413 5.883056314811503 11.562663352762403 0 0 0
381 32 11 0.06 8.543318541771134 7.424167788964326 11.397973849329286 0 0 0
379 32 11 0.06 9.173757647834337 6.206494925512005 12.503605713244285 0 0 0
70 6 11 0.06 10.231087538178853 5.74494452062086 10.290606719236736 0 0 0
320 27 11 0.06 12.900800860887337 5.624988974424472 11.784737602164483 0 0 0
428 36 11 0.06 19.891982756281667 7.315988587921084 10.494056416998495 -1 0 0
739 70 26 -0.39 18.41345131757863 5.284145721308063 12.355068540273495 0 0 0
425 36 1 0.22 0.5340723055844168 8.190245576503175 10.525263102441732 0 0 0
429 36 11 0.06 0.8208465481822396 8.286461581347883 11.572488154322059 0 0 0
621 54 9 0.52 3.741113144779297 9.106948925810384 11.769203700847052 0 0 0
622 54 20 -0.5 3.7803389636863276 9.726478737035837 10.711364769634537 0 0 0
624 54 19 -0.35 3.332149849796933 7.767404733450759 11.820284071868526 0 0 0
357 30 11 0.06 6.2015883250364805 8.676443224956712 10.82640909729917 0 0 0
250 21 11 0.06 9.448044088092702 9.694319012481023 10.875990404345702 0 0 0
251 21 11 0.06 11.101751306981845 9.871380133332366 10.333686697089227 0 0 0
767 74 26 -0.39 12.784604688520046 8.433034361329737 11.793305015605902 0 0 0
764 74 27 1.34 14.164225608010277 9.097739742115106 11.508072106018671 0 0 0
770 74 26 -0.39 14.587509215723914 7.890400590293776 10.615532017992779 0 0 0
765 74 26 -0.39 13.598249710649975 9.843986370747274 10.26762973831772 0 0 0
768 74 26 -0.39 15.542039981658625 9.759459837320588 11.254596741397892 0 0 0
427 36 11 0.06 19.842168302299303 8.973776206179986 10.26277847550872 -1 0 0
5 1 1 0.22 1.4710116088414291 11.121437930569407 12.07234034446561 0 0 0
8 1 11 0.06 1.4937279255956843 10.645052998773021 11.104389873714698 0 0 0
9 1 11 0.06 1.118395569124502 12.106160925202575 11.80314375667515 0 0 0
7 1 11 0.06 2.4955486968394336 11.236748280945898 12.422936089552987 0 0 0
124 11 19 -0.35 4.909632559360565 12.166530961734555 11.802024703458759 0 0 0
121 11 9 0.52 6.1723511732670815 11.581781529875618 12.03146198430311 0 0 0
122 11 20 -0.5 6.993565946912933 11.466968090675882 11.122834807258455 0 0 0
246 21 1 0.22 10.245656030874533 10.414196502896797 10.711931372856846 0 0 0
252 21 11 0.06 10.536061023419395 10.826510042440983 11.669959281405282 0 0 0
769 74 26 -0.39 13.702877902726112 10.295426830342526 12.37659716190349 0 0 0
362 31 20 -0.5 15.498902056841068 12.206376389836496 11.741186500064536 0 0 0
477 40 11 0.06 17.59566021496247 12.226398313638835 10.280468423453419 0 0 0
473 40 1 0.22 18.507679364871205 12.182249255301583 10.876821607547635 0 0 0
476 40 11 0.06 19.104689970845456 11.344984715207614 10.533045404638624 0 0 0
471 40 19 -0.35 18.230118680262873 12.07032622229939 12.248906752205054 0 0 0
518 44 20 -0.5 0.7307503704949577 14.573794085028643 11.848681990325646 1 0 0
126 11 1 0.22 4.801920379129156 12.58369729859833 10.459363743127534 0 0 0
130 11 11 0.06 3.8293497051558565 13.03983647861788 10.276688064168457 0 0 0
131 11 11 0.06 5.573436116731053 13.30838847019552 10.206863975932396 0 0 0
641 56 9 0.52 7.000853184968835 14.321601458483142 12.097795838174958 0 0 0
645 56 2 0.22 9.104848330673207 13.98954354992133 11.691474607528374 0 0 0
646 56 2 0.22 8.53269478639398 14.698263901741099 10.45552965449645 0 0 0
649 56 11 0.06 9.861534883214262 13.229558464617451 11.537465940707822 0 0 0
650 56 11 0.06 9.47593227790894 14.69906741007906 12.422383173302448 0 0 0
644 56 19 -0.35 8.013818400034001 13.403172069845604 12.328900252020148 0 0 0
368 31 11 0.06 12.241249735110587 13.596487905677872 10.87105024858931 0 0 0
365 31 1 0.22 13.316145397051608 13.738511786425219 10.895800975721864 0 0 0
367 31 11 0.06 13.745595744002209 13.043705651204403 10.175956925516955 0 0 0
369 31 11 0.06 13.492947560393263 14.751486193366004 10.539779992839325 0 0 0
363 31 19 -0.35 13.767186491392746 13.640203269293192 12.232556586362142 0 0 0
470 40 20 -0.5 17.15966617934211 14.065976211703257 11.915586708826256 0 0 0
475 40 11 0.06 19.09840867074024 13.070291724506273 10.692847670588737 0 0 0
674 59 19 -0.35 2.6564607396957234 16.596518355343207 11.40325823727982 0 0 0
676 59 2 0.22 4.947522249015447 17.308131847172962 11.686409224234792 0 0 0
679 59 11 0.06 3.7909997817522556 16.83246777116624 9.890569515832432 0 0 0
680 59 11 0.06 4.374604728257564 15.433720648865853 10.745593696204729 0 0 0
675 59 2 0.22 3.9626634961551277 16.429329982177407 10.887177134212441 0 0 0
643 56 19 -0.35 7.2234397191520054 15.052767289016403 10.90058075901572 0 0 0
648 56 11 0.06 8.273595150189317 15.755421286539809 10.511350021348658 0 0 0
119 10 11 0.06 11.645582277239695 15.94120801562674 11.727950840321572 0 0 0
114 10 1 0.22 12.33847333719582 16.60130730334584 12.250781147456951 0 0 0
118 10 11 0.06 12.91114059894757 17.140556331154638 11.497519120717303 0 0 0
587 50 11 0.06 15.230748550529526 16.148584084770548 11.689536265959987 0 0 0
586 50 2 0.22 15.789311906150463 16.936602704449758 12.190939044967253 0 0 0
517 44 9 0.52 19.676287461969164 15.097666093392498 12.197019937809872 0 0 0
520 44 19 -0.35 18.844257701062908 15.791556600303242 11.277310282214554 0 0 0
164 14 11 0.06 0.217837863762725 17.873018592810215 11.411348235923137 1 0 0
420 35 11 0.06 2.9122779633132096 19.900971871668542 12.049392496953681 0 -1 0
677 59 11 0.06 4.930921365850619 18.390560882213133 11.554470460988766 0 0 0
177 15 11 0.06 7.2576426380645644 18.495371900816856 12.458765690049502 0 0 0
405 34 11 0.06 14.582141417666485 18.88725048047563 10.860700681602669 0 0 0
583 50 19 -0.35 16.71071006928983 17.86698448325771 11.680425214601827 0 0 0
581 50 9 0.52 16.5141655697808 19.02557905080551 12.440644113745778 0 0 0
161 14 1 0.22 19.561349480529596 18.63671604947405 11.80761911998898 0 0 0
163 14 11 0.06 0.19317339954808688 19.502730550928295 11.999079111282645 1 0 0
165 14 11 0.06 18.89171359618032 18.864261756989826 10.985476989734348 0 0 0
418 35 11 0.06 3.2027669735491444 1.424765297954688 12.724386462078424 0 0 0
318 27 1 0.22 10.022115127827751 2.339296427314353 12.461119849241424 0 0 0
324 27 11 0.06 9.780665043259601 1.8800807560020274 13.403276836217183 0 0 0
93 8 11 0.06 10.808943007020918 0.19613200207657075 14.934960929631053 0 1 0
601 52 9 0.52 13.416206250193943 0.9858701621157483 12.570343538107974 0 0 0
603 52 19 -0.35 12.966926943017652 1.5714162597868122 13.76458470045308 0 0 0
606 52 2 0.22 14.141805573485156 1.9185951190793062 14.464451677936434 0 0 0
609 52 11 0.06 15.603861957676623 2.362213302560884 12.865528011414364 0 0 0
605 52 2 0.22 15.342709980481928 1.5656405722891706 13.55876602921117 0 0 0
610 52 11 0.06 16.255580790952298 1.4148584974062943 14.132073769957861 0 0 0
158 14 20 -0.5 18.809439843014193 0.16689042630213363 13.966183152595839 0 1 0
188 16 11 0.06 2.135017218661459 4.264666417571582 13.216698753730192 0 0 0
437 37 1 0.22 7.030868608950557 4.18548681675747 14.00508396105055 0 0 0
441 37 11 0.06 7.065659896942593 3.3071147892923545 13.359971624723036 0 0 0
440 37 11 0.06 6.4433419957048335 4.9169593340097055 13.459445509886816 0 0 0
439 37 11 0.06 6.400029032231911 3.9239903272173 14.847027248561346 0 0 0
316 27 19 -0.35 10.000126394485992 3.751143693106454 12.529011209321645 0 0 0
435 37 19 -0.35 8.366721971827555 4.632264425956879 14.267641429811441 0 0 0
313 27 9 0.52 10.9851760877299 4.225395443299398 13.42236026092458 0 0 0
314 27 20 -0.5 11.453499735522081 3.5053710736854695 14.298957839915527 0 0 0
607 52 11 0.06 14.160598923016162 2.9493177711363425 14.816336011072142 0 0 0
319 27 11 0.06 13.414533293535309 4.756624346148715 13.259850263942623 0 0 0
741 70 26 -0.39 16.233697191627027 5.088346332787284 12.676913758873999 0 0 0
738 70 26 -0.39 17.623799221199427 3.764900160216709 13.756748139335954 0 0 0
189 16 11 0.06 0.9012249037882618 5.337429698708869 12.571139555855122 0 0 0
11 1 11 0.06 0.8967950900808124 6.721044849751818 14.651235393516869 0 0 0
629 54 11 0.06 4.359611798929554 6.289665591786802 13.259029062854237 0 0 0
630 54 11 0.06 2.8701266036620545 7.222791580174108 13.204293377856558 0 0 0
625 54 2 0.22 3.933802348301987 7.259723167975343 12.99069806745819 0 0 0
375 32 19 -0.35 7.415703784554385 7.190448768139082 13.111641013996877 0 0 0
373 32 9 0.52 7.914910307897859 7.153502315734427 14.437321538407339 0 0 0
315 27 19 -0.35 11.457715289394914 5.546088182916464 13.268489805281844 0 0 0
317 27 1 0.22 12.811845217794746 5.576230055077424 12.869069981009785 0 0 0
321 27 11 0.06 13.27724420292753 6.466678893838322 13.256133766214303 0 0 0
736 70 27 1.34 17.472665754067418 5.3089075187388 13.593371198652505 0 0 0
737 70 26 -0.39 17.329179461399523 6.850725746682272 13.417335665909068 0 0 0
740 70 26 -0.39 16.53535046426461 5.3512522024683555 14.839149802966265 0 0 0
742 70 26 -0.39 18.71017131886149 5.517941447994625 14.511148654498136 0 0 0
1 1 9 0.52 1.0739966014588591 9.466189108420172 13.80074808942133 0 0 0
2 1 20 -0.5 2.252172178352855 9.452513616244815 14.150285298257973 0 0 0
4 1 19 -0.35 0.1087777638371382 8.646754392396504 14.45014028216082 0 0 0
623 54 19 -0.35 4.4653038995823096 9.539456370555092 12.896321156759761 0 0 0
626 54 2 0.22 4.508171873665793 8.441687971826022 13.786103819837013 0 0 0
628 54 11 0.06 4.5539208231427954 8.201414512898879 14.85037020867485 0 0 0
627 54 11 0.06 5.508096269760633 8.754031080600962 13.493414917560022 0 0 0
374 32 20 -0.5 9.091400070825518 7.415607366344944 14.686843609005752 0 0 0
129 11 11 0.06 7.6997356404825785 9.629951699265524 12.660874842545315 0 0 0
128 11 11 0.06 7.882326722682495 10.05396542360798 14.351829717531327 0 0 0
620 53 11 0.06 12.059054703863389 8.18858991141856 14.630171082759428 0 0 0
731 65 31 1 10.461937223380772 8.338074147751044 12.71339098350889 0 0 0
766 74 26 -0.39 14.779849135999882 8.391329809987639 12.749298035052375 0 0 0
733 67 31 1 15.650507426467886 7.776017814431724 15.018648545981877 0 0 0
3 1 19 -0.35 0.5600630557659034 10.513401354124184 12.983413317541817 0 0 0
237 20 11 0.06 4.1248277125902675 11.485745499283924 14.424217226162861 0 0 0
123 11 19 -0.35 6.468025075943752 11.15291327481365 13.342128430320797 0 0 0
125 11 1 0.22 7.692655033081476 10.4559740701899 13.365905208345149 0 0 0
127 11 11 0.06 8.534477072088956 11.099616996631973 13.139620472544111 0 0 0
735 69 31 1 10.955014320663045 10.365501220502807 14.09077928784276 0 0 0
732 66 31 1 11.699112160665715 12.527658749759652 13.08115650761562 0 0 0
364 31 19 -0.35 14.60391367451192 12.066361401816092 13.891902572340765 0 0 0
371 31 11 0.06 14.918101609444136 10.118308674856822 14.548000954232124 0 0 0
366 31 1 0.22 15.477960102061934 11.006832463490001 14.297539699532658 0 0 0
372 31 11 0.06 16.239207515099743 10.692888070040187 13.583207080074219 0 0 0
454 38 11 0.06 2.4112353705950067 13.541748732168925 13.384625671035876 0 0 0
524 44 11 0.06 0.5922563908313514 14.234853745631575 14.951475652570368 1 0 0
450 38 1 0.22 3.1036963653035348 14.220247979319948 13.86153585370739 0 0 0
455 38 11 0.06 3.9955450484988915 14.258417801987331 13.245687210554674 0 0 0
456 38 11 0.06 3.338788984666626 13.819327344573558 14.838463598354222 0 0 0
642 56 20 -0.5 6.421077698574622 14.82063115985856 13.054924690595751 0 0 0
232 20 19 -0.35 7.695848450688488 12.841077044343779 14.737921938964137 0 0 0
238 20 11 0.06 9.685969839885662 13.189948868094053 14.402878922220332 0 0 0
361 31 9 0.52 14.668840221782029 12.589555571130857 12.558294227058793 0 0 0
111 10 19 -0.35 13.276761696353642 14.043451718220252 14.648455540211222 0 0 0
469 40 9 0.52 17.561784744562654 13.224819428718591 12.706812593597848 0 0 0
472 40 19 -0.35 16.884140720268846 13.082843967647012 13.91296609933716 0 0 0
474 40 1 0.22 16.27188900049996 14.260202643702643 14.363365717971229 0 0 0
480 40 11 0.06 15.511326340247292 14.647531850691406 13.702675028499874 0 0 0
523 44 11 0.06 19.926245057310577 13.145984628365929 13.735931771992892 0 0 0
521 44 1 0.22 19.726726906620573 14.0292701961317 14.333898416369957 0 0 0
448 38 19 -0.35 2.531859213685006 15.485704052901744 14.0038547963786 0 0 0
671 59 9 0.52 2.8248921744719486 17.451232099109447 12.49889522379876 0 0 0
445 38 9 0.52 3.351732512610195 16.315118803518363 14.78809694332382 0 0 0
678 59 11 0.06 5.265740846200279 17.002660717991567 12.683699456187615 0 0 0
734 68 31 1 9.270615151422176 16.31482292352617 15.010784131539392 0 0 0
110 10 20 -0.5 11.28552012738341 15.167756926666181 14.075814824280505 0 0 0
120 10 11 0.06 11.744609375976246 17.334422402415367 12.784710232518806 0 0 0
109 10 9 0.52 12.505303722093794 15.049757329845804 13.986319409291797 0 0 0
112 10 19 -0.35 13.20708697489935 15.919919295561646 13.134144067743483 0 0 0
479 40 11 0.06 16.96463536217954 15.082043642080023 14.483239879706499 0 0 0
588 50 11 0.06 16.76039008764241 16.518573640406327 12.448758045187205 0 0 0
519 44 19 -0.35 19.312753557315084 15.156322602174965 13.571354519139385 0 0 0
672 59 20 -0.5 1.9077667415678394 17.783757775641007 13.245393766962932 0 0 0
673 59 19 -0.35 4.162860908306543 17.849313866868194 12.737638512934952 0 0 0
171 15 19 -0.35 7.323390975082747 18.08258599540112 14.49736348804696 0 0 0
169 15 9 0.52 6.578472974070495 19.12742947350258 15.09860430768938 0 0 0
170 15 20 -0.5 5.99000466834582 19.941726114384352 14.389393679562488 0 0 0
175 15 11 0.06 8.413649059998843 19.45408644479669 13.37543768228587 0 0 0
176 15 11 0.06 8.729958661717818 17.75238491981273 13.022354658809833 0 0 0
173 15 1 0.22 7.954442455937547 18.470144500782183 13.292709363928429 0 0 0
91 8 11 0.06 10.50750298924188 18.51439862472659 14.604900650628641 0 0 0
87 8 19 -0.35 12.513024306593218 19.050613988676876 14.871392218211554 0 0 0
589 50 11 0.06 14.28025808314778 18.285595695899435 13.267346323743164 0 0 0
585 50 2 0.22 15.07756063712612 17.55341194903134 13.416427202382575 0 0 0
584 50 19 -0.35 15.56489549869765 18.889043340760793 13.482634732503957 0 0 0
590 50 11 0.06 15.633816944853987 17.683910178998946 14.347823880404551 0 0 0
157 14 9 0.52 18.492837589389048 18.977312269536423 13.966218287306662 0 0 0
159 14 19 -0.35 18.869138716221624 18.09164363475019 12.91992748806735 0 0 0
345 29 11 0.06 1.449103932274645 0.38147989235191737 15.980992886660559 0 1 0
174 15 1 0.22 5.7828792347101805 0.12066887627943403 17.20671659630899 0 1 0
180 15 11 0.06 5.380879548316035 0.929840901070104 16.59866827104607 0 1 0
707 62 11 0.06 8.625970570328997 0.007158295511401603 16.228114812948938 0 0 0
705 62 2 0.22 8.327538775146177 2.2500153893277823 16.39624342814396 0 0 0
706 62 2 0.22 8.700891612632162 0.8509484006249202 16.90651976309143 0 0 0
703 62 19 -0.35 10.008283060452309 1.0004099955823904 17.40784564193948 0 0 0
701 62 9 0.52 10.529677515551205 2.027923044605128 16.61022027246842 0 0 0
702 62 20 -0.5 11.72657947320822 2.088202823674635 16.33879626920927 0 0 0
608 52 11 0.06 14.080656331730316 1.2821412104237377 15.349875152715814 0 0 0
168 14 11 0.06 17.380570779027675 0.21320147315704643 16.01103239400064 0 1 0
763 73 26 -0.39 15.709544847922581 1.517721271964698 17.335785528773584 0 0 0
344 29 11 0.06 19.806321087716647 0.7162089491457501 16.340735957193534 -1 1 0
391 33 11 0.06 4.499497063802599 4.33579832212721 16.475802467148597 0 0 0
710 62 11 0.06 7.315336523447372 2.5093349042918804 16.690340043966675 0 0 0
704 62 19 -0.35 9.552672046352498 2.7141683353874058 15.86613049536062 0 0 0
709 62 11 0.06 8.244109147498015 2.3019202026496512 15.321333130478099 0 0 0
434 37 20 -0.5 7.94624452688425 4.923622041081941 16.53343150925979 0 0 0
760 73 26 -0.39 14.55773719784528 3.396891611844683 17.242788186218792 0 0 0
757 73 27 1.34 16.049389843699227 3.0297992056713983 17.51295030590714 0 0 0
758 73 26 -0.39 16.359950851762253 3.138265973084042 15.988346097153567 0 0 0
6 1 1 0.22 0.6188476103381478 7.584354510680893 15.246925066695741 0 0 0
389 33 1 0.22 4.493469253552712 5.284013410254502 17.013664242707705 0 0 0
393 33 11 0.06 4.244046550860476 6.0529681688313035 16.2818744322043 0 0 0
376 32 19 -0.35 6.9693471261465945 6.965192635535673 15.478142958792407 0 0 0
433 37 9 0.52 8.715414364951238 5.050102540505972 15.588913003338119 0 0 0
383 32 11 0.06 7.6999079884151795 7.2431212819236555 17.42062560752737 0 0 0
436 37 19 -0.35 10.074352004096667 5.390987413221273 15.839291834012876 0 0 0
438 37 1 0.22 10.417511332422979 5.315143733151631 17.220235497794828 0 0 0
614 53 19 -0.35 12.046190053900787 6.912010182447729 15.381794388555722 0 0 0
611 53 9 0.52 13.266113073068475 6.4292766817736595 15.91727532200854 0 0 0
612 53 20 -0.5 13.66392783172205 5.279150653007422 15.748033470271864 0 0 0
613 53 19 -0.35 13.91612437326248 7.342020205411719 16.763006059838677 0 0 0
10 1 11 0.06 19.842004192382763 7.237796199141747 15.924248215641082 -1 0 0
12 1 11 0.06 1.4655716227835425 7.835630628995766 15.881083977671972 0 0 0
74 7 20 -0.5 2.3077629958446453 9.632994657404609 17.398135629073465 0 0 0
73 7 9 0.52 1.1089046949139933 9.796066042578127 17.61545973289258 0 0 0
378 32 1 0.22 7.194103447941026 7.778967136068326 16.620187425943246 0 0 0
382 32 11 0.06 6.24505302300298 8.124891139327199 17.028178162299778 0 0 0
384 32 11 0.06 7.793390037034199 8.659358008437367 16.419806447614846 0 0 0
619 53 11 0.06 11.152152880831517 7.726763885090339 16.157842507201522 0 0 0
615 53 2 0.22 11.979513081860656 8.289452696542586 15.71403233490565 0 0 0
616 53 2 0.22 13.263631024445496 8.575354958916373 16.533017054940114 0 0 0
617 53 11 0.06 13.205696884365945 8.283263260491076 17.584009407430624 0 0 0
618 53 11 0.06 13.496561239293435 9.639763081723146 16.541737004847683 0 0 0
77 7 1 0.22 0.460855802413098 11.786815480029373 16.698346144080933 0 0 0
79 7 11 0.06 1.347960989239702 11.748573193411497 16.07310860259105 0 0 0
233 20 1 0.22 4.615808220956142 11.508184599948835 15.39494990388658 0 0 0
236 20 11 0.06 3.836687524957865 11.553281263512773 16.14921890553823 0 0 0
229 20 9 0.52 6.803510147036268 12.360131383920221 15.704959645822834 0 0 0
230 20 20 -0.5 7.154301433525097 11.544327973917602 16.54847960537811 0 0 0
235 20 11 0.06 5.113084846316136 10.544886404147297 15.509532831902865 0 0 0
240 20 11 0.06 9.361055078963583 11.777407020582578 15.399507656352439 0 0 0
116 10 11 0.06 12.606445634381835 12.189526296379531 15.384896740449756 0 0 0
370 31 11 0.06 15.946853879268518 11.208138891528055 15.263691640606284 0 0 0
80 7 11 0.06 19.62619483769231 11.435754700155046 16.09332000067187 -1 0 0
107 9 11 0.06 17.51443044366519 11.769953483149031 17.3854998728559 0 0 0
81 7 11 0.06 0.2931045283425347 12.812619952306429 16.985537694438378 0 0 0
632 55 20 -0.5 2.4720502233475314 14.02007659387062 17.172849545621194 0 0 0
231 20 19 -0.35 5.439374277190051 12.656579349384128 15.524731253504523 0 0 0
142 12 11 0.06 5.967513842735004 14.85723470384796 16.73664662256397 0 0 0
234 20 1 0.22 9.03196507886867 12.790077640134554 15.16916475674852 0 0 0
239 20 11 0.06 9.167310367597375 13.417480735326057 16.037449573339735 0 0 0
115 10 11 0.06 11.661039380847969 13.519599510440438 15.899710684472112 0 0 0
113 10 1 0.22 12.668080295848032 13.243318133372064 15.65370235760296 0 0 0
117 10 11 0.06 13.249264094840663 13.293556521975278 16.574569514447305 0 0 0
478 40 11 0.06 15.80832824952518 14.000395410336468 15.309616847911549 0 0 0
525 44 11 0.06 18.990415011150485 13.744125821492036 15.07190056297426 0 0 0
99 9 19 -0.35 17.52388689536405 14.861319888319603 16.908138841437726 0 0 0
338 29 20 -0.5 0.8921834470688201 17.299793112631686 17.29643384269108 0 0 0
446 38 20 -0.5 4.5539211707036955 16.07960922556138 14.894465055181982 0 0 0
138 12 1 0.22 6.760335829920391 15.603436417922149 16.788015829834386 0 0 0
143 12 11 0.06 6.9158426998971265 15.97744953530811 15.779389155128655 0 0 0
144 12 11 0.06 7.667629585247207 15.10333500602434 17.10278056292762 0 0 0
134 12 20 -0.5 8.540215326026038 17.44016109055222 17.26122360778359 0 0 0
86 8 20 -0.5 12.18273688507891 16.941172016902044 15.588030624252225 0 0 0
597 51 11 0.06 11.29917335505591 15.508573865676217 17.433837413418583 0 0 0
90 8 1 0.22 14.41459038635142 16.681436762599024 16.84421210486261 0 0 0
96 8 11 0.06 14.397505963110751 15.90451367208645 16.088644310824403 0 0 0
94 8 11 0.06 15.42054699902558 16.674135990023863 17.25837712202731 0 0 0
103 9 11 0.06 19.559266434439248 15.196019432629724 17.065713016001453 0 0 0
101 9 1 0.22 18.64274242687876 15.714909844105875 16.8158631844323 0 0 0
104 9 11 0.06 18.80057419036629 16.11986720616425 15.820557929205401 0 0 0
105 9 11 0.06 18.503108654471667 16.57495942661676 17.455555927884436 0 0 0
341 29 1 0.22 0.5560322811271623 19.93043250155617 16.413593372827446 0 0 0
343 29 11 0.06 0.24534679413406166 19.13489146352092 15.741038663204165 0 0 0
447 38 19 -0.35 2.690475704357628 17.288742541096273 15.566436389034422 0 0 0
449 38 1 0.22 3.5472204818559483 18.149529394212266 16.27491084157979 0 0 0
451 38 11 0.06 4.3059786936374715 17.622287711909635 16.84115801739663 0 0 0
452 38 11 0.06 4.015746781024052 18.888670110420055 15.624986293298603 0 0 0
453 38 11 0.06 2.9492605505170864 18.673361335574032 17.01068476524405 0 0 0
172 15 19 -0.35 6.351459221562972 19.01537206324532 16.50576784420353 0 0 0
92 8 11 0.06 10.908338411019963 18.996901497936722 16.220309456505884 0 0 0
89 8 1 0.22 11.136730353919832 19.19205288007737 15.173166211132436 0 0 0
85 8 9 0.52 12.982243487492598 17.860826293621447 15.455175884105357 0 0 0
88 8 19 -0.35 14.104619468892714 17.94877092932998 16.30558236619096 0 0 0
166 14 11 0.06 16.491559857672055 18.800028842322686 16.491449077801512 0 0 0
162 14 1 0.22 17.477781038053298 19.14630829908192 16.189262954446427 0 0 0
160 14 19 -0.35 17.921948627846046 18.345729241416233 15.10423457165446 0 0 0
167 14 11 0.06 18.123668481969332 19.013224192913963 17.056599955095646 0 0 0
179 15 11 0.06 6.452353260899737 0.5383550419418409 17.94632630651809 0 1 0
708 62 11 0.06 8.94861260388388 0.6285339143003068 17.94536139623414 0 0 0
151 13 11 0.06 13.079841096671789 0.5985220454790406 19.01285256957313 0 1 0
202 17 11 0.06 0.5963444898898769 4.856588959550555 19.885481422836133 0 0 -1
386 33 20 -0.5 5.687586614746605 3.4449116391495354 18.484108603234525 0 0 0
385 33 9 0.52 6.28967159801097 4.509523326612192 18.3583771630132 0 0 0
388 33 19 -0.35 7.539150928792766 4.744497204840588 18.990559339098695 0 0 0
395 33 11 0.06 7.513874717185743 2.953438887132929 0.11489455617946831 0 0 1
390 33 1 0.22 8.168123273871494 3.593533086756727 19.52808382349342 0 0 0
394 33 11 0.06 9.010462222387437 3.8985099119380267 0.14282499477578625 0 0 1
396 33 11 0.06 8.606981511006193 2.9584591164294225 18.77709101153337 0 0 0
444 37 11 0.06 10.35292528928018 4.310183974587375 17.612384670404296 0 0 0
762 73 26 -0.39 16.387636827795596 4.5424933349176895 17.688470015336886 0 0 0
759 73 26 -0.39 15.74072623833186 2.9194097583194893 19.03766926320591 0 0 0
761 73 26 -0.39 17.54088289388505 2.6638362203974317 17.785967070220526 0 0 0
82 7 11 0.06 0.06919076268033417 7.237227529460186 19.33352104484065 0 0 0
392 33 11 0.06 3.6875349331124703 5.263410442611811 17.747840337597278 0 0 0
46 4 11 0.06 4.027370975007872 7.720375165882247 19.58386208059926 0 0 -1
387 33 19 -0.35 5.738133241038728 5.5856919358306305 17.617811460261624 0 0 0
443 37 11 0.06 9.80104201770952 5.959764875495359 17.84453726724651 0 0 0
442 37 11 0.06 11.451296156621728 5.587429836874825 17.413718516138935 0 0 0
276 23 11 0.06 11.413259014250803 7.189944225581965 19.33136235505993 0 0 -1
76 7 19 -0.35 0.26005451477117847 8.711013768386708 17.89691868813197 0 0 0
78 7 1 0.22 0.7646545338801324 8.006541818458551 19.001944278128793 0 0 0
83 7 11 0.06 1.6930037108633718 7.516953656205129 18.717145638444922 0 0 0
84 7 11 0.06 0.9459863264795603 8.678852133303982 19.842272134866867 0 0 0
663 58 19 -0.35 9.959780361906976 9.509581089226332 17.951579403526956 0 0 0
668 58 11 0.06 11.218540561260715 9.799955457757296 17.55538690107063 0 0 0
75 7 19 -0.35 0.6074367286945032 11.070695446698068 17.894313444002822 0 0 0
282 24 1 0.22 4.97115821100985 10.854343177997032 18.8175137861107 0 0 0
286 24 11 0.06 4.860764034197541 10.181410445040278 17.969283072873957 0 0 0
288 24 11 0.06 3.9707207771998143 11.052286644244383 19.197832705533322 0 0 0
287 24 11 0.06 5.531163054149747 10.28876253444336 19.561705176450975 0 0 0
280 24 19 -0.35 5.585833266998483 12.068142261605992 18.422148530616994 0 0 0
662 58 20 -0.5 7.77211418118465 10.074480557980174 18.476060708671227 0 0 0
661 58 9 0.52 8.850068106981176 10.390234645862208 17.97289716979965 0 0 0
664 58 19 -0.35 9.263071728148306 11.723385404746049 17.91879556616834 0 0 0
667 58 11 0.06 12.034301370406068 10.15465943786945 18.995089292985394 0 0 0
670 58 11 0.06 10.56426641641028 12.191234358754423 17.703752196132342 0 0 0
665 58 2 0.22 10.479908610816913 11.671748977734776 18.635715903243227 0 0 0
666 58 2 0.22 11.04037666123042 10.226181521119152 18.542122505977495 0 0 0
669 58 11 0.06 10.880773514598841 12.321239271048102 19.420004833534524 0 0 0
106 9 11 0.06 15.99858347687947 11.235062212724605 18.06165183047611 0 0 0
102 9 1 0.22 16.832574742637966 11.917797732632081 18.21949489770066 0 0 0
108 9 11 0.06 17.352990353093414 11.62799298818428 19.1326109599618 0 0 0
631 55 9 0.52 3.1096886180352494 14.68609396904949 17.980935339625066 0 0 0
634 55 19 -0.35 4.029432106869823 14.103213975579923 18.86247118131068 0 0 0
277 24 9 0.52 6.335670531953849 12.6930733395746 19.45030032790137 0 0 0
279 24 19 -0.35 7.388278540442754 13.55732614538167 19.04525463395554 0 0 0
639 55 11 0.06 5.306747588708954 14.947650803198782 19.145370173756973 0 0 0
281 24 1 0.22 7.850026757164683 14.483542470190375 0.022467829580534726 0 0 1
598 51 11 0.06 10.142501449874414 14.535756538006796 18.454988093726016 0 0 0
591 51 9 0.52 12.463811799383183 14.449450507469672 19.364124218535974 0 0 0
593 51 19 -0.35 11.61510928284296 14.396468264942508 18.23706924366347 0 0 0
592 51 20 -0.5 13.522370474237643 13.827818951115985 19.408474313950027 0 0 0
100 9 19 -0.35 16.378108354409882 13.25260289938275 18.299297660004353 0 0 0
97 9 9 0.52 17.453195410160053 14.15211990263564 18.131567562008943 0 0 0
98 9 20 -0.5 18.295942988531834 14.285886219002133 19.017152595399534 0 0 0
342 29 1 0.22 0.2495558748558348 16.564420539440977 19.86001808844846 0 0 0
348 29 11 0.06 0.6448632014937982 15.75553654933574 19.247362404097814 0 0 0
633 55 19 -0.35 2.879795221034568 16.0586360501429 18.168172732726365 0 0 0
635 55 2 0.22 4.4094610460227806 15.155341332915052 19.71814905214144 0 0 0
636 55 2 0.22 3.7528915722601046 16.44278947682004 19.208741819983068 0 0 0
637 55 11 0.06 4.438904399137216 17.28468318345087 19.31400080684722 0 0 0
638 55 11 0.06 2.890309979205224 16.69125677261654 19.822226403363015 0 0 0
136 12 19 -0.35 6.437971882656859 16.635966382312283 17.691978064425545 0 0 0
133 12 9 0.52 7.562884583366488 17.427876519697712 18.008242278378443 0 0 0
285 24 11 0.06 8.082681752901143 15.435286745491869 19.545379669599253 0 0 0
595 51 2 0.22 11.135241413393269 16.219184946916613 19.600373113056914 0 0 0
596 51 2 0.22 10.690466389054892 15.46676357953158 18.33802798743885 0 0 0
599 51 11 0.06 11.52899617320199 17.194829722847224 19.33079727828596 0 0 0
95 8 11 0.06 13.705203165960736 16.397846991864334 17.62151102440877 0 0 0
148 13 19 -0.35 14.951083314261226 17.07493734004786 19.679534506648938 0 0 0
150 13 1 0.22 16.35090998429158 17.05465452908841 19.85267308849523 0 0 0
154 13 11 0.06 16.711104519066406 16.02709073617085 19.85609572444193 0 0 0
155 13 11 0.06 16.885067917144394 17.582986901840886 19.068358325057478 0 0 0
347 29 11 0.06 19.164314858713283 16.5062187343903 19.862630235552775 -1 0 0
337 29 9 0.52 0.6704718879161933 18.177973718385353 18.125235845709177 0 0 0
339 29 19 -0.35 0.7456835325099161 19.563650132262783 17.78142877888617 0 0 0
340 29 19 -0.35 0.7070687519883257 17.868125575674146 19.51342063120173 0 0 0
178 15 11 0.06 5.004840602172564 19.788745015468024 17.877749011754677 0 0 0
135 12 19 -0.35 7.358820618189262 18.446591626673218 18.96493417313988 0 0 0
137 12 1 0.22 8.456248343117075 18.652014124532755 19.826950211002433 0 0 0
139 12 11 0.06 9.41670782407199 18.530278141774826 19.330613520859906 0 0 0
153 13 11 0.06 11.575827891392882 19.830134359352666 19.537853388582537 0 0 0
149 13 1 0.22 12.576371664864034 19.64305041763505 19.14847735284549 0 0 0
152 13 11 0.06 12.4654571499504 19.19632901311953 18.16315877190372 0 0 0
145 13 9 0.52 14.485246305384063 18.374022545293172 19.379447974634633 0 0 0
146 13 20 -0.5 14.943090321882572 19.02154883670437 18.44052820965443 0 0 0
147 13 19 -0.35 13.309538586754687 18.808365882577952 0.017774230978076844 0 0 1

Velocities

574 0 0 0
575 0 0 0
580 0 0 0
544 0 0 0
549 0 0 0
550 0 0 0
545 0 0 0
541 0 0 0
542 0 0 0
204 0 0 0
198 0 0 0
579 0 0 0
226 0 0 0
546 0 0 0
547 0 0 0
548 0 0 0
543 0 0 0
212 0 0 0
196 0 0 0
203 0 0 0
47 0 0 0
48 0 0 0
222 0 0 0
227 0 0 0
228 0 0 0
270 0 0 0
275 0 0 0
35 0 0 0
274 0 0 0
206 0 0 0
207 0 0 0
209 0 0 0
211 0 0 0
213 0 0 0
38 0 0 0
37 0 0 0
40 0 0 0
42 0 0 0
218 0 0 0
730 0 0 0
266 0 0 0
265 0 0 0
268 0 0 0
215 0 0 0
205 0 0 0
208 0 0 0
210 0 0 0
216 0 0 0
39 0 0 0
41 0 0 0
278 0 0 0
269 0 0 0
271 0 0 0
272 0 0 0
273 0 0 0
267 0 0 0
539 0 0 0
214 0 0 0
44 0 0 0
45 0 0 0
283 0 0 0
284 0 0 0
538 0 0 0
529 0 0 0
532 0 0 0
534 0 0 0
346 0 0 0
640 0 0 0
311 0 0 0
600 0 0 0
594 0 0 0
156 0 0 0
531 0 0 0
536 0 0 0
698 0 0 0
140 0 0 0
141 0 0 0
310 0 0 0
571 0 0 0
573 0 0 0
488 0 0 0
489 0 0 0
295 0 0 0
257 0 0 0
260 0 0 0
261 0 0 0
576 0 0 0
255 0 0 0
577 0 0 0
253 0 0 0
578 0 0 0
263 0 0 0
30 0 0 0
34 0 0 0
719 0 0 0
715 0 0 0
716 0 0 0
720 0 0 0
714 0 0 0
193 0 0 0
194 0 0 0
254 0 0 0
217 0 0 0
220 0 0 0
219 0 0 0
729 0 0 0
25 0 0 0
28 0 0 0
27 0 0 0
26 0 0 0
36 0 0 0
718 0 0 0
195 0 0 0
197 0 0 0
200 0 0 0
221 0 0 0
224 0 0 0
225 0 0 0
223 0 0 0
727 0 0 0
728 0 0 0
725 0 0 0
726 0 0 0
31 0 0 0
721 0 0 0
724 0 0 0
515 0 0 0
510 0 0 0
514 0 0 0
43 0 0 0
723 0 0 0
722 0 0 0
20 0 0 0
15 0 0 0
17 0 0 0
19 0 0 0
690 0 0 0
689 0 0 0
685 0 0 0
540 0 0 0
530 0 0 0
695 0 0 0
700 0 0 0
696 0 0 0
699 0 0 0
691 0 0 0
694 0 0 0
692 0 0 0
301 0 0 0
302 0 0 0
303 0 0 0
304 0 0 0
533 0 0 0
535 0 0 0
537 0 0 0
697 0 0 0
693 0 0 0
572 0 0 0
306 0 0 0
312 0 0 0
297 0 0 0
293 0 0 0
296 0 0 0
565 0 0 0
566 0 0 0
569 0 0 0
570 0 0 0
416 0 0 0
483 0 0 0
485 0 0 0
487 0 0 0
464 0 0 0
461 0 0 0
712 0 0 0
259 0 0 0
567 0 0 0
256 0 0 0
755 0 0 0
258 0 0 0
262 0 0 0
264 0 0 0
512 0 0 0
509 0 0 0
513 0 0 0
463 0 0 0
711 0 0 0
713 0 0 0
199 0 0 0
359 0 0 0
354 0 0 0
358 0 0 0
360 0 0 0
511 0 0 0
505 0 0 0
507 0 0 0
717 0 0 0
467 0 0 0
201 0 0 0
350 0 0 0
29 0 0 0
32 0 0 0
33 0 0 0
506 0 0 0
516 0 0 0
508 0 0 0
749 0 0 0
501 0 0 0
430 0 0 0
426 0 0 0
431 0 0 0
496 0 0 0
334 0 0 0
502 0 0 0
504 0 0 0
330 0 0 0
336 0 0 0
688 0 0 0
686 0 0 0
683 0 0 0
14 0 0 0
21 0 0 0
500 0 0 0
497 0 0 0
499 0 0 0
495 0 0 0
493 0 0 0
494 0 0 0
498 0 0 0
503 0 0 0
681 0 0 0
682 0 0 0
684 0 0 0
248 0 0 0
687 0 0 0
305 0 0 0
307 0 0 0
308 0 0 0
23 0 0 0
13 0 0 0
16 0 0 0
18 0 0 0
557 0 0 0
556 0 0 0
657 0 0 0
656 0 0 0
653 0 0 0
658 0 0 0
309 0 0 0
24 0 0 0
22 0 0 0
564 0 0 0
415 0 0 0
417 0 0 0
655 0 0 0
659 0 0 0
651 0 0 0
652 0 0 0
289 0 0 0
291 0 0 0
290 0 0 0
292 0 0 0
299 0 0 0
294 0 0 0
298 0 0 0
563 0 0 0
568 0 0 0
409 0 0 0
411 0 0 0
413 0 0 0
63 0 0 0
65 0 0 0
67 0 0 0
68 0 0 0
69 0 0 0
481 0 0 0
491 0 0 0
482 0 0 0
465 0 0 0
58 0 0 0
752 0 0 0
753 0 0 0
192 0 0 0
190 0 0 0
61 0 0 0
62 0 0 0
484 0 0 0
486 0 0 0
56 0 0 0
457 0 0 0
459 0 0 0
458 0 0 0
51 0 0 0
59 0 0 0
460 0 0 0
750 0 0 0
754 0 0 0
756 0 0 0
751 0 0 0
349 0 0 0
352 0 0 0
66 0 0 0
72 0 0 0
71 0 0 0
332 0 0 0
333 0 0 0
466 0 0 0
462 0 0 0
468 0 0 0
423 0 0 0
421 0 0 0
424 0 0 0
351 0 0 0
355 0 0 0
353 0 0 0
356 0 0 0
328 0 0 0
325 0 0 0
327 0 0 0
329 0 0 0
331 0 0 0
743 0 0 0
744 0 0 0
746 0 0 0
748 0 0 0
422 0 0 0
432 0 0 0
132 0 0 0
244 0 0 0
335 0 0 0
326 0 0 0
241 0 0 0
242 0 0 0
747 0 0 0
745 0 0 0
647 0 0 0
243 0 0 0
245 0 0 0
247 0 0 0
402 0 0 0
406 0 0 0
408 0 0 0
407 0 0 0
528 0 0 0
527 0 0 0
559 0 0 0
560 0 0 0
555 0 0 0
558 0 0 0
553 0 0 0
249 0 0 0
400 0 0 0
397 0 0 0
398 0 0 0
526 0 0 0
522 0 0 0
561 0 0 0
562 0 0 0
410 0 0 0
554 0 0 0
551 0 0 0
552 0 0 0
660 0 0 0
399 0 0 0
404 0 0 0
654 0 0 0
401 0 0 0
403 0 0 0
300 0 0 0
419 0 0 0
412 0 0 0
414 0 0 0
322 0 0 0
492 0 0 0
323 0 0 0
602 0 0 0
604 0 0 0
52 0 0 0
582 0 0 0
54 0 0 0
60 0 0 0
185 0 0 0
187 0 0 0
181 0 0 0
182 0 0 0
186 0 0 0
191 0 0 0
64 0 0 0
490 0 0 0
53 0 0 0
57 0 0 0
55 0 0 0
49 0 0 0
50 0 0 0
183 0 0 0
184 0 0 0
377 0 0 0
380 0 0 0
381 0 0 0
379 0 0 0
70 0 0 0
320 0 0 0
428 0 0 0
739 0 0 0
425 0 0 0
429 0 0 0
621 0 0 0
622 0 0 0
624 0 0 0
357 0 0 0
250 0 0 0
251 0 0 0
767 0 0 0
764 0 0 0
770 0 0 0
765 0 0 0
768 0 0 0
427 0 0 0
5 0 0 0
8 0 0 0
9 0 0 0
7 0 0 0
124 0 0 0
121 0 0 0
122 0 0 0
246 0 0 0
252 0 0 0
769 0 0 0
362 0 0 0
477 0 0 0
473 0 0 0
476 0 0 0
471 0 0 0
518 0 0 0
126 0 0 0
130 0 0 0
131 0 0 0
641 0 0 0
645 0 0 0
646 0 0 0
649 0 0 0
650 0 0 0
644 0 0 0
368 0 0 0
365 0 0 0
367 0 0 0
369 0 0 0
363 0 0 0
470 0 0 0
475 0 0 0
674 0 0 0
676 0 0 0
679 0 0 0
680 0 0 0
675 0 0 0
643 0 0 0
648 0 0 0
119 0 0 0
114 0 0 0
118 0 0 0
587 0 0 0
586 0 0 0
517 0 0 0
520 0 0 0
164 0 0 0
420 0 0 0
677 0 0 0
177 0 0 0
405 0 0 0
583 0 0 0
581 0 0 0
161 0 0 0
163 0 0 0
165 0 0 0
418 0 0 0
318 0 0 0
324 0 0 0
93 0 0 0
601 0 0 0
603 0 0 0
606 0 0 0
609 0 0 0
605 0 0 0
610 0 0 0
158 0 0 0
188 0 0 0
437 0 0 0
441 0 0 0
440 0 0 0
439 0 0 0
316 0 0 0
435 0 0 0
313 0 0 0
314 0 0 0
607 0 0 0
319 0 0 0
741 0 0 0
738 0 0 0
189 0 0 0
11 0 0 0
629 0 0 0
630 0 0 0
625 0 0 0
375 0 0 0
373 0 0 0
315 0 0 0
317 0 0 0
321 0 0 0
736 0 0 0
737 0 0 0
740 0 0 0
742 0 0 0
1 0 0 0
2 0 0 0
4 0 0 0
623 0 0 0
626 0 0 0
628 0 0 0
627 0 0 0
374 0 0 0
129 0 0 0
128 0 0 0
620 0 0 0
731 0 0 0
766 0 0 0
733 0 0 0
3 0 0 0
237 0 0 0
123 0 0 0
125 0 0 0
127 0 0 0
735 0 0 0
732 0 0 0
364 0 0 0
371 0 0 0
366 0 0 0
372 0 0 0
454 0 0 0
524 0 0 0
450 0 0 0
455 0 0 0
456 0 0 0
642 0 0 0
232 0 0 0
238 0 0 0
361 0 0 0
111 0 0 0
469 0 0 0
472 0 0 0
474 0 0 0
480 0 0 0
523 0 0 0
521 0 0 0
448 0 0 0
671 0 0 0
445 0 0 0
678 0 0 0
734 0 0 0
110 0 0 0
120 0 0 0
109 0 0 0
112 0 0 0
479 0 0 0
588 0 0 0
519 0 0 0
672 0 0 0
673 0 0 0
171 0 0 0
169 0 0 0
170 0 0 0
175 0 0 0
176 0 0 0
173 0 0 0
91 0 0 0
87 0 0 0
589 0 0 0
585 0 0 0
584 0 0 0
590 0 0 0
157 0 0 0
159 0 0 0
345 0 0 0
174 0 0 0
180 0 0 0
707 0 0 0
705 0 0 0
706 0 0 0
703 0 0 0
701 0 0 0
702 0 0 0
608 0 0 0
168 0 0 0
763 0 0 0
344 0 0 0
391 0 0 0
710 0 0 0
704 0 0 0
709 0 0 0
434 0 0 0
760 0 0 0
757 0 0 0
758 0 0 0
6 0 0 0
389 0 0 0
393 0 0 0
376 0 0 0
433 0 0 0
383 0 0 0
436 0 0 0
438 0 0 0
614 0 0 0
611 0 0 0
612 0 0 0
613 0 0 0
10 0 0 0
12 0 0 0
74 0 0 0
73 0 0 0
378 0 0 0
382 0 0 0
384 0 0 0
619 0 0 0
615 0 0 0
616 0 0 0
617 0 0 0
618 0 0 0
77 0 0 0
79 0 0 0
233 0 0 0
236 0 0 0
229 0 0 0
230 0 0 0
235 0 0 0
240 0 0 0
116 0 0 0
370 0 0 0
80 0 0 0
107 0 0 0
81 0 0 0
632 0 0 0
231 0 0 0
142 0 0 0
234 0 0 0
239 0 0 0
115 0 0 0
113 0 0 0
117 0 0 0
478 0 0 0
525 0 0 0
99 0 0 0
338 0 0 0
446 0 0 0
138 0 0 0
143 0 0 0
144 0 0 0
134 0 0 0
86 0 0 0
597 0 0 0
90 0 0 0
96 0 0 0
94 0 0 0
103 0 0 0
101 0 0 0
104 0 0 0
105 0 0 0
341 0 0 0
343 0 0 0
447 0 0 0
449 0 0 0
451 0 0 0
452 0 0 0
453 0 0 0
172 0 0 0
92 0 0 0
89 0 0 0
85 0 0 0
88 0 0 0
166 0 0 0
162 0 0 0
160 0 0 0
167 0 0 0
179 0 0 0
708 0 0 0
151 0 0 0
202 0 0 0
386 0 0 0
385 0 0 0
388 0 0 0
395 0 0 0
390 0 0 0
394 0 0 0
396 0 0 0
444 0 0 0
762 0 0 0
759 0 0 0
761 0 0 0
82 0 0 0
392 0 0 0
46 0 0 0
387 0 0 0
443 0 0 0
442 0 0 0
276 0 0 0
76 0 0 0
78 0 0 0
83 0 0 0
84 0 0 0
663 0 0 0
668 0 0 0
75 0 0 0
282 0 0 0
286 0 0 0
288 0 0 0
287 0 0 0
280 0 0 0
662 0 0 0
661 0 0 0
664 0 0 0
667 0 0 0
670 0 0 0
665 0 0 0
666 0 0 0
669 0 0 0
106 0 0 0
102 0 0 0
108 0 0 0
631 0 0 0
634 0 0 0
277 0 0 0
279 0 0 0
639 0 0 0
281 0 0 0
598 0 0 0
591 0 0 0
593 0 0 0
592 0 0 0
100 0 0 0
97 0 0 0
98 0 0 0
342 0 0 0
348 0 0 0
633 0 0 0
635 0 0 0
636 0 0 0
637 0 0 0
638 0 0 0
136 0 0 0
133 0 0 0
285 0 0 0
595 0 0 0
596 0 0 0
599 0 0 0
95 0 0 0
148 0 0 0
150 0 0 0
154 0 0 0
155 0 0 0
347 0 0 0
337 0 0 0
339 0 0 0
340 0 0 0
178 0 0 0
135 0 0 0
137 0 0 0
139 0 0 0
153 0 0 0
149 0 0 0
152 0 0 0
145 0 0 0
146 0 0 0
147 0 0 0

Bonds

1 7 574 575
2 1 575 576
3 4 575 579
4 4 575 580
5 7 544 545
6 1 545 546
7 4 545 549
8 4 545 550
9 8 541 542
10 7 541 543
11 7 541 544
12 4 198 202
13 4 198 203
14 4 198 204
15 4 546 547
16 4 546 548
17 7 543 546
18 7 196 198
19 4 222 226
20 4 222 227
21 4 222 228
22 4 270 274
23 4 270 275
24 4 270 276
25 7 207 209
26 4 209 211
27 4 209 212
28 4 209 213
29 8 37 38
30 7 37 39
31 7 37 40
32 7 40 42
33 4 42 46
34 4 42 47
35 4 42 48
36 8 265 266
37 7 265 267
38 7 265 268
39 7 268 270
40 8 205 206
41 7 205 207
42 7 205 208
43 7 208 210
44 4 210 214
45 4 210 215
46 4 210 216
47 7 39 41
48 4 41 43
49 4 41 44
50 4 41 45
51 4 269 271
52 4 269 272
53 4 269 273
54 7 267 269
55 8 529 530
56 7 529 531
57 7 529 532
58 7 532 534
59 4 534 538
60 4 534 539
61 4 534 540
62 7 594 595
63 7 531 533
64 8 571 572
65 7 571 573
66 7 571 574
67 7 573 576
68 4 257 259
69 4 257 260
70 4 257 261
71 4 576 577
72 4 576 578
73 7 255 257
74 8 253 254
75 7 253 255
76 7 253 256
77 4 30 34
78 4 30 35
79 4 30 36
80 1 715 716
81 4 715 719
82 4 715 720
83 4 716 717
84 4 716 718
85 7 714 715
86 8 193 194
87 7 193 195
88 7 193 196
89 8 217 218
90 7 217 219
91 7 217 220
92 7 220 222
93 7 219 221
94 8 25 26
95 7 25 27
96 7 25 28
97 7 28 30
98 7 27 29
99 7 195 197
100 4 197 199
101 4 197 200
102 4 197 201
103 4 221 223
104 4 221 224
105 4 221 225
106 1 725 726
107 4 725 729
108 4 725 730
109 4 726 727
110 4 726 728
111 8 721 722
112 7 721 723
113 7 721 724
114 7 724 725
115 4 510 514
116 4 510 515
117 4 510 516
118 7 723 726
119 7 15 17
120 4 17 19
121 4 17 20
122 4 17 21
123 1 685 686
124 4 685 689
125 4 685 690
126 1 695 696
127 4 695 699
128 4 695 700
129 4 696 697
130 4 696 698
131 8 691 692
132 7 691 693
133 7 691 694
134 7 694 695
135 8 301 302
136 7 301 303
137 7 301 304
138 7 303 305
139 7 304 306
140 4 533 535
141 4 533 536
142 4 533 537
143 7 693 696
144 4 306 310
145 4 306 311
146 4 306 312
147 4 293 295
148 4 293 296
149 4 293 297
150 1 565 566
151 4 565 569
152 4 565 570
153 4 566 567
154 4 566 568
155 7 483 485
156 4 485 487
157 4 485 488
158 4 485 489
159 4 461 463
160 4 461 464
161 4 461 465
162 7 256 258
163 4 258 262
164 4 258 263
165 4 258 264
166 4 509 511
167 4 509 512
168 4 509 513
169 8 711 712
170 7 711 713
171 7 711 714
172 7 713 716
173 4 354 358
174 4 354 359
175 4 354 360
176 8 505 506
177 7 505 507
178 7 505 508
179 7 507 509
180 4 29 31
181 4 29 32
182 4 29 33
183 7 508 510
184 4 426 430
185 4 426 431
186 4 426 432
187 7 496 498
188 4 330 334
189 4 330 335
190 4 330 336
191 4 686 687
192 4 686 688
193 7 683 686
194 4 497 499
195 4 497 500
196 4 497 501
197 7 495 497
198 8 493 494
199 7 493 495
200 7 493 496
201 4 498 502
202 4 498 503
203 4 498 504
204 8 681 682
205 7 681 683
206 7 681 684
207 7 684 685
208 4 305 307
209 4 305 308
210 4 305 309
211 8 13 14
212 7 13 15
213 7 13 16
214 7 16 18
215 4 18 22
216 4 18 23
217 4 18 24
218 4 556 557
219 4 556 558
220 4 656 657
221 4 656 658
222 7 653 656
223 7 564 565
224 1 655 656
225 4 655 659
226 4 655 660
227 8 651 652
228 7 651 653
229 7 651 654
230 8 289 290
231 7 289 291
232 7 289 292
233 7 291 293
234 7 292 294
235 4 294 298
236 4 294 299
237 4 294 300
238 7 563 566
239 8 409 410
240 7 409 411
241 7 409 412
242 7 411 413
243 4 413 415
244 4 413 416
245 4 413 417
246 7 63 65
247 4 65 67
248 4 65 68
249 4 65 69
250 8 481 482
251 7 481 483
252 7 481 484
253 8 61 62
254 7 61 63
255 7 61 64
256 7 484 486
257 4 486 490
258 4 486 491
259 4 486 492
260 8 457 458
261 7 457 459
262 7 457 460
263 7 459 461
264 7 51 53
265 7 460 462
266 15 750 751
267 15 750 752
268 15 750 753
269 15 750 754
270 15 750 755
271 15 750 756
272 8 349 350
273 7 349 351
274 7 349 352
275 7 352 354
276 4 66 70
277 4 66 71
278 4 66 72
279 4 462 466
280 4 462 467
281 4 462 468
282 7 423 425
283 8 421 422
284 7 421 423
285 7 421 424
286 7 424 426
287 7 351 353
288 4 353 355
289 4 353 356
290 4 353 357
291 7 328 330
292 8 325 326
293 7 325 327
294 7 325 328
295 7 327 329
296 4 329 331
297 4 329 332
298 4 329 333
299 15 743 744
300 15 743 745
301 15 743 746
302 15 743 747
303 15 743 748
304 15 743 749
305 7 244 246
306 8 241 242
307 7 241 243
308 7 241 244
309 7 243 245
310 4 245 247
311 4 245 248
312 4 245 249
313 4 402 406
314 4 402 407
315 4 402 408
316 1 555 556
317 4 555 559
318 4 555 560
319 7 553 556
320 7 400 402
321 8 397 398
322 7 397 399
323 7 397 400
324 4 522 526
325 4 522 527
326 4 522 528
327 8 561 562
328 7 561 563
329 7 561 564
330 7 554 555
331 8 551 552
332 7 551 553
333 7 551 554
334 7 399 401
335 7 654 655
336 4 401 403
337 4 401 404
338 4 401 405
339 7 412 414
340 4 414 418
341 4 414 419
342 4 414 420
343 7 604 605
344 7 52 54
345 4 54 58
346 4 54 59
347 4 54 60
348 4 185 187
349 4 185 188
350 4 185 189
351 8 181 182
352 7 181 183
353 7 181 184
354 4 186 190
355 4 186 191
356 4 186 192
357 7 64 66
358 4 53 55
359 4 53 56
360 4 53 57
361 8 49 50
362 7 49 51
363 7 49 52
364 7 183 185
365 7 184 186
366 4 377 379
367 4 377 380
368 4 377 381
369 4 425 427
370 4 425 428
371 4 425 429
372 8 621 622
373 7 621 623
374 7 621 624
375 7 624 625
376 15 764 765
377 15 764 766
378 15 764 767
379 15 764 768
380 15 764 769
381 15 764 770
382 4 5 7
383 4 5 8
384 4 5 9
385 7 124 126
386 8 121 122
387 7 121 123
388 7 121 124
389 4 246 250
390 4 246 251
391 4 246 252
392 4 473 475
393 4 473 476
394 4 473 477
395 7 471 473
396 4 126 130
397 4 126 131
398 4 126 132
399 8 641 642
400 7 641 643
401 7 641 644
402 1 645 646
403 4 645 649
404 4 645 650
405 4 646 647
406 4 646 648
407 7 644 645
408 4 365 367
409 4 365 368
410 4 365 369
411 7 363 365
412 7 674 675
413 4 676 677
414 4 676 678
415 1 675 676
416 4 675 679
417 4 675 680
418 7 643 646
419 4 114 118
420 4 114 119
421 4 114 120
422 4 586 587
423 4 586 588
424 8 517 518
425 7 517 519
426 7 517 520
427 7 520 522
428 7 583 586
429 8 581 582
430 7 581 583
431 7 581 584
432 4 161 163
433 4 161 164
434 4 161 165
435 4 318 322
436 4 318 323
437 4 318 324
438 8 601 602
439 7 601 603
440 7 601 604
441 7 603 606
442 4 606 607
443 4 606 608
444 1 605 606
445 4 605 609
446 4 605 610
447 4 437 439
448 4 437 440
449 4 437 441
450 7 316 318
451 7 435 437
452 8 313 314
453 7 313 315
454 7 313 316
455 1 625 626
456 4 625 629
457 4 625 630
458 7 375 377
459 8 373 374
460 7 373 375
461 7 373 376
462 7 315 317
463 4 317 319
464 4 317 320
465 4 317 321
466 15 736 737
467 15 736 738
468 15 736 739
469 15 736 740
470 15 736 741
471 15 736 742
472 8 1 2
473 7 1 3
474 7 1 4
475 7 4 6
476 7 623 626
477 4 626 627
478 4 626 628
479 7 3 5
480 7 123 125
481 4 125 127
482 4 125 128
483 4 125 129
484 7 364 366
485 4 366 370
486 4 366 371
487 4 366 372
488 4 450 454
489 4 450 455
490 4 450 456
491 7 232 234
492 8 361 362
493 7 361 363
494 7 361 364
495 7 111 113
496 8 469 470
497 7 469 471
498 7 469 472
499 7 472 474
500 4 474 478
501 4 474 479
502 4 474 480
503 4 521 523
504 4 521 524
505 4 521 525
506 7 448 450
507 8 671 672
508 7 671 673
509 7 671 674
510 8 445 446
511 7 445 447
512 7 445 448
513 8 109 110
514 7 109 111
515 7 109 112
516 7 112 114
517 7 519 521
518 7 673 676
519 7 171 173
520 8 169 170
521 7 169 171
522 7 169 172
523 4 173 175
524 4 173 176
525 4 173 177
526 7 87 89
527 1 585 586
528 4 585 589
529 4 585 590
530 7 584 585
531 8 157 158
532 7 157 159
533 7 157 160
534 7 159 161
535 4 174 178
536 4 174 179
537 4 174 180
538 1 705 706
539 4 705 709
540 4 705 710
541 4 706 707
542 4 706 708
543 7 703 706
544 8 701 702
545 7 701 703
546 7 701 704
547 7 704 705
548 15 757 758
549 15 757 759
550 15 757 760
551 15 757 761
552 15 757 762
553 15 757 763
554 4 6 10
555 4 6 11
556 4 6 12
557 4 389 391
558 4 389 392
559 4 389 393
560 7 376 378
561 8 433 434
562 7 433 435
563 7 433 436
564 7 436 438
565 4 438 442
566 4 438 443
567 4 438 444
568 7 614 615
569 8 611 612
570 7 611 613
571 7 611 614
572 7 613 616
573 8 73 74
574 7 73 75
575 7 73 76
576 4 378 382
577 4 378 383
578 4 378 384
579 1 615 616
580 4 615 619
581 4 615 620
582 4 616 617
583 4 616 618
584 4 77 79
585 4 77 80
586 4 77 81
587 4 233 235
588 4 233 236
589 4 233 237
590 8 229 230
591 7 229 231
592 7 229 232
593 7 231 233
594 4 234 238
595 4 234 239
596 4 234 240
597 4 113 115
598 4 113 116
599 4 113 117
600 7 99 101
601 4 138 142
602 4 138 143
603 4 138 144
604 4 90 94
605 4 90 95
606 4 90 96
607 4 101 103
608 4 101 104
609 4 101 105
610 4 341 343
611 4 341 344
612 4 341 345
613 7 447 449
614 4 449 451
615 4 449 452
616 4 449 453
617 7 172 174
618 4 89 91
619 4 89 92
620 4 89 93
621 8 85 86
622 7 85 87
623 7 85 88
624 7 88 90
625 4 162 166
626 4 162 167
627 4 162 168
628 7 160 162
629 8 385 386
630 7 385 387
631 7 385 388
632 7 388 390
633 4 390 394
634 4 390 395
635 4 390 396
636 7 387 389
637 7 76 78
638 4 78 82
639 4 78 83
640 4 78 84
641 7 663 666
642 7 75 77
643 4 282 286
644 4 282 287
645 4 282 288
646 7 280 282
647 8 661 662
648 7 661 663
649 7 661 664
650 7 664 665
651 1 665 666
652 4 665 669
653 4 665 670
654 4 666 667
655 4 666 668
656 4 102 106
657 4 102 107
658 4 102 108
659 8 631 632
660 7 631 633
661 7 631 634
662 7 634 635
663 8 277 278
664 7 277 279
665 7 277 280
666 7 279 281
667 4 281 283
668 4 281 284
669 4 281 285
670 8 591 592
671 7 591 593
672 7 591 594
673 7 593 596
674 7 100 102
675 8 97 98
676 7 97 99
677 7 97 100
678 4 342 346
679 4 342 347
680 4 342 348
681 7 633 636
682 1 635 636
683 4 635 639
684 4 635 640
685 4 636 637
686 4 636 638
687 7 136 138
688 8 133 134
689 7 133 135
690 7 133 136
691 1 595 596
692 4 595 599
693 4 595 600
694 4 596 597
695 4 596 598
696 7 148 150
697 4 150 154
698 4 150 155
699 4 150 156
700 8 337 338
701 7 337 339
702 7 337 340
703 7 339 341
704 7 340 342
705 7 135 137
706 4 137 139
707 4 137 140
708 4 137 141
709 4 149 151
710 4 149 152
711 4 149 153
712 8 145 146
713 7 145 147
714 7 145 148
715 7 147 149

Angles

1 9 571 574 575
2 13 574 575 576
3 4 576 575 579
4 4 576 575 580
5 6 579 575 580
6 9 541 544 545
7 13 544 545 546
8 4 546 545 549
9 4 546 545 550
10 6 549 545 550
11 11 542 541 543
12 11 542 541 544
13 12 543 541 544
14 4 196 198 202
15 4 196 198 203
16 4 196 198 204
17 7 202 198 203
18 7 202 198 204
19 7 203 198 204
20 13 543 546 545
21 4 545 546 547
22 4 545 546 548
23 6 547 546 548
24 9 541 543 546
25 9 193 196 198
26 4 220 222 226
27 4 220 222 227
28 4 220 222 228
29 7 226 222 227
30 7 226 222 228
31 7 227 222 228
32 4 268 270 274
33 4 268 270 275
34 4 268 270 276
35 7 274 270 275
36 7 274 270 276
37 7 275 270 276
38 9 205 207 209
39 4 207 209 211
40 4 207 209 212
41 4 207 209 213
42 7 211 209 212
43 7 211 209 213
44 7 212 209 213
45 11 38 37 39
46 11 38 37 40
47 12 39 37 40
48 9 37 40 42
49 4 40 42 46
50 4 40 42 47
51 4 40 42 48
52 7 46 42 47
53 7 46 42 48
54 7 47 42 48
55 11 266 265 267
56 11 266 265 268
57 12 267 265 268
58 9 265 268 270
59 11 206 205 207
60 11 206 205 208
61 12 207 205 208
62 9 205 208 210
63 4 208 210 214
64 4 208 210 215
65 4 208 210 216
66 7 214 210 215
67 7 214 210 216
68 7 215 210 216
69 9 37 39 41
70 4 39 41 43
71 4 39 41 44
72 4 39 41 45
73 7 43 41 44
74 7 43 41 45
75 7 44 41 45
76 4 267 269 271
77 4 267 269 272
78 4 267 269 273
79 7 271 269 272
80 7 271 269 273
81 7 272 269 273
82 9 265 267 269
83 11 530 529 531
84 11 530 529 532
85 12 531 529 532
86 9 529 532 534
87 4 532 534 538
88 4 532 534 539
89 4 532 534 540
90 7 538 534 539
91 7 538 534 540
92 7 539 534 540
93 9 591 594 595
94 9 529 531 533
95 11 572 571 573
96 11 572 571 574
97 12 573 571 574
98 9 571 573 576
99 4 255 257 259
100 4 255 257 260
101 4 255 257 261
102 7 259 257 260
103 7 259 257 261
104 7 260 257 261
105 13 573 576 575
106 4 575 576 577
107 4 575 576 578
108 6 577 576 578
109 9 253 255 257
110 11 254 253 255
111 11 254 253 256
112 12 255 253 256
113 4 28 30 34
114 4 28 30 35
115 4 28 30 36
116 7 34 30 35
117 7 34 30 36
118 7 35 30 36
119 13 714 715 716
120 4 716 715 719
121 4 716 715 720
122 6 719 715 720
123 13 713 716 715
124 4 715 716 717
125 4 715 716 718
126 6 717 716 718
127 9 711 714 715
128 11 194 193 195
129 11 194 193 196
130 12 195 193 196
131 11 218 217 219
132 11 218 217 220
133 12 219 217 220
134 9 217 220 222
135 9 217 219 221
136 11 26 25 27
137 11 26 25 28
138 12 27 25 28
139 9 25 28 30
140 9 25 27 29
141 9 193 195 197
142 4 195 197 199
143 4 195 197 200
144 4 195 197 201
145 7 199 197 200
146 7 199 197 201
147 7 200 197 201
148 4 219 221 223
149 4 219 221 224
150 4 219 221 225
151 7 223 221 224
152 7 223 221 225
153 7 224 221 225
154 13 724 725 726
155 4 726 725 729
156 4 726 725 730
157 6 729 725 730
158 13 723 726 725
159 4 725 726 727
160 4 725 726 728
161 6 727 726 728
162 11 722 721 723
163 11 722 721 724
164 12 723 721 724
165 9 721 724 725
166 4 508 510 514
167 4 508 510 515
168 4 508 510 516
169 7 514 510 515
170 7 514 510 516
171 7 515 510 516
172 9 721 723 726
173 9 13 15 17
174 4 15 17 19
175 4 15 17 20
176 4 15 17 21
177 7 19 17 20
178 7 19 17 21
179 7 20 17 21
180 13 684 685 686
181 4 686 685 689
182 4 686 685 690
183 6 689 685 690
184 13 694 695 696
185 4 696 695 699
186 4 696 695 700
187 6 699 695 700
188 13 693 696 695
189 4 695 696 697
190 4 695 696 698
191 6 697 696 698
192 11 692 691 693
193 11 692 691 694
194 12 693 691 694
195 9 691 694 695
196 11 302 301 303
197 11 302 301 304
198 12 303 301 304
199 9 301 303 305
200 9 301 304 306
201 4 531 533 535
202 4 531 533 536
203 4 531 533 537
204 7 535 533 536
205 7 535 533 537
206 7 536 533 537
207 9 691 693 696
208 4 304 306 310
209 4 304 306 311
210 4 304 306 312
211 7 310 306 311
212 7 310 306 312
213 7 311 306 312
214 4 291 293 295
215 4 291 293 296
216 4 291 293 297
217 7 295 293 296
218 7 295 293 297
219 7 296 293 297
220 13 564 565 566
221 4 566 565 569
222 4 566 565 570
223 6 569 565 570
224 13 563 566 565
225 4 565 566 567
226 4 565 566 568
227 6 567 566 568
228 9 481 483 485
229 4 483 485 487
230 4 483 485 488
231 4 483 485 489
232 7 487 485 488
233 7 487 485 489
234 7 488 485 489
235 4 459 461 463
236 4 459 461 464
237 4 459 461 465
238 7 463 461 464
239 7 463 461 465
240 7 464 461 465
241 9 253 256 258
242 4 256 258 262
243 4 256 258 263
244 4 256 258 264
245 7 262 258 263
246 7 262 258 264
247 7 263 258 264
248 4 507 509 511
249 4 507 509 512
250 4 507 509 513
251 7 511 509 512
252 7 511 509 513
253 7 512 509 513
254 11 712 711 713
255 11 712 711 714
256 12 713 711 714
257 9 711 713 716
258 4 352 354 358
259 4 352 354 359
260 4 352 354 360
261 7 358 354 359
262 7 358 354 360
263 7 359 354 360
264 11 506 505 507
265 11 506 505 508
266 12 507 505 508
267 9 505 507 509
268 4 27 29 31
269 4 27 29 32
270 4 27 29 33
271 7 31 29 32
272 7 31 29 33
273 7 32 29 33
274 9 505 508 510
275 4 424 426 430
276 4 424 426 431
277 4 424 426 432
278 7 430 426 431
279 7 430 426 432
280 7 431 426 432
281 9 493 496 498
282 4 328 330 334
283 4 328 330 335
284 4 328 330 336
285 7 334 330 335
286 7 334 330 336
287 7 335 330 336
288 13 683 686 685
289 4 685 686 687
290 4 685 686 688
291 6 687 686 688
292 9 681 683 686
293 4 495 497 499
294 4 495 497 500
295 4 495 497 501
296 7 499 497 500
297 7 499 497 501
298 7 500 497 501
299 9 493 495 497
300 11 494 493 495
301 11 494 493 496
302 12 495 493 496
303 4 496 498 502
304 4 496 498 503
305 4 496 498 504
306 7 502 498 503
307 7 502 498 504
308 7 503 498 504
309 11 682 681 683
310 11 682 681 684
311 12 683 681 684
312 9 681 684 685
313 4 303 305 307
314 4 303 305 308
315 4 303 305 309
316 7 307 305 308
317 7 307 305 309
318 7 308 305 309
319 11 14 13 15
320 11 14 13 16
321 12 15 13 16
322 9 13 16 18
323 4 16 18 22
324 4 16 18 23
325 4 16 18 24
326 7 22 18 23
327 7 22 18 24
328 7 23 18 24
329 13 553 556 555
330 4 555 556 557
331 4 555 556 558
332 6 557 556 558
333 13 653 656 655
334 4 655 656 657
335 4 655 656 658
336 6 657 656 658
337 9 651 653 656
338 9 561 564 565
339 13 654 655 656
340 4 656 655 659
341 4 656 655 660
342 6 659 655 660
343 11 652 651 653
344 11 652 651 654
345 12 653 651 654
346 11 290 289 291
347 11 290 289 292
348 12 291 289 292
349 9 289 291 293
350 9 289 292 294
351 4 292 294 298
352 4 292 294 299
353 4 292 294 300
354 7 298 294 299
355 7 298 294 300
356 7 299 294 300
357 9 561 563 566
358 11 410 409 411
359 11 410 409 412
360 12 411 409 412
361 9 409 411 413
362 4 411 413 415
363 4 411 413 416
364 4 411 413 417
365 7 415 413 416
366 7 415 413 417
367 7 416 413 417
368 9 61 63 65
369 4 63 65 67
370 4 63 65 68
371 4 63 65 69
372 7 67 65 68
373 7 67 65 69
374 7 68 65 69
375 11 482 481 483
376 11 482 481 484
377 12 483 481 484
378 11 62 61 63
379 11 62 61 64
380 12 63 61 64
381 9 481 484 486
382 4 484 486 490
383 4 484 486 491
384 4 484 486 492
385 7 490 486 491
386 7 490 486 492
387 7 491 486 492
388 11 458 457 459
389 11 458 457 460
390 12 459 457 460
391 9 457 459 461
392 9 49 51 53
393 9 457 460 462
394 18 751 750 752
395 18 753 750 754
396 18 755 750 756
397 17 751 750 753
398 17 751 750 754
399 17 751 750 755
400 17 751 750 756
401 17 752 750 753
402 17 752 750 754
403 17 752 750 755
404 17 752 750 756
405 17 753 750 755
406 17 753 750 756
407 17 754 750 755
408 17 754 750 756
409 11 350 349 351
410 11 350 349 352
411 12 351 349 352
412 9 349 352 354
413 4 64 66 70
414 4 64 66 71
415 4 64 66 72
416 7 70 66 71
417 7 70 66 72
418 7 71 66 72
419 4 460 462 466
420 4 460 462 467
421 4 460 462 468
422 7 466 462 467
423 7 466 462 468
424 7 467 462 468
425 9 421 423 425
426 11 422 421 423
427 11 422 421 424
428 12 423 421 424
429 9 421 424 426
430 9 349 351 353
431 4 351 353 355
432 4 351 353 356
433 4 351 353 357
434 7 355 353 356
435 7 355 353 357
436 7 356 353 357
437 9 325 328 330
438 11 326 325 327
439 11 326 325 328
440 12 327 325 328
441 9 325 327 329
442 4 327 329 331
443 4 327 329 332
444 4 327 329 333
445 7 331 329 332
446 7 331 329 333
447 7 332 329 333
448 18 744 743 745
449 18 746 743 747
450 18 748 743 749
451 17 744 743 746
452 17 744 743 747
453 17 744 743 748
454 17 744 743 749
455 17 745 743 746
456 17 745 743 747
457 17 745 743 748
458 17 745 743 749
459 17 746 743 748
460 17 746 743 749
461 17 747 743 748
462 17 747 743 749
463 9 241 244 246
464 11 242 241 243
465 11 242 241 244
466 12 243 241 244
467 9 241 243 245
468 4 243 245 247
469 4 243 245 248
470 4 243 245 249
471 7 247 245 248
472 7 247 245 249
473 7 248 245 249
474 4 400 402 406
475 4 400 402 407
476 4 400 402 408
477 7 406 402 407
478 7 406 402 408
479 7 407 402 408
480 13 554 555 556
481 4 556 555 559
482 4 556 555 560
483 6 559 555 560
484 9 551 553 556
485 9 397 400 402
486 11 398 397 399
487 11 398 397 400
488 12 399 397 400
489 4 520 522 526
490 4 520 522 527
491 4 520 522 528
492 7 526 522 527
493 7 526 522 528
494 7 527 522 528
495 11 562 561 563
496 11 562 561 564
497 12 563 561 564
498 9 551 554 555
499 11 552 551 553
500 11 552 551 554
501 12 553 551 554
502 9 397 399 401
503 9 651 654 655
504 4 399 401 403
505 4 399 401 404
506 4 399 401 405
507 7 403 401 404
508 7 403 401 405
509 7 404 401 405
510 9 409 412 414
511 4 412 414 418
512 4 412 414 419
513 4 412 414 420
514 7 418 414 419
515 7 418 414 420
516 7 419 414 420
517 9 601 604 605
518 9 49 52 54
519 4 52 54 58
520 4 52 54 59
521 4 52 54 60
522 7 58 54 59
523 7 58 54 60
524 7 59 54 60
525 4 183 185 187
526 4 183 185 188
527 4 183 185 189
528 7 187 185 188
529 7 187 185 189
530 7 188 185 189
531 11 182 181 183
532 11 182 181 184
533 12 183 181 184
534 4 184 186 190
535 4 184 186 191
536 4 184 186 192
537 7 190 186 191
538 7 190 186 192
539 7 191 186 192
540 9 61 64 66
541 4 51 53 55
542 4 51 53 56
543 4 51 53 57
544 7 55 53 56
545 7 55 53 57
546 7 56 53 57
547 11 50 49 51
548 11 50 49 52
549 12 51 49 52
550 9 181 183 185
551 9 181 184 186
552 4 375 377 379
553 4 375 377 380
554 4 375 377 381
555 7 379 377 380
556 7 379 377 381
557 7 380 377 381
558 4 423 425 427
559 4 423 425 428
560 4 423 425 429
561 7 427 425 428
562 7 427 425 429
563 7 428 425 429
564 11 622 621 623
565 11 622 621 624
566 12 623 621 624
567 9 621 624 625
568 18 765 764 766
569 18 767 764 768
570 18 769 764 770
571 17 765 764 767
572 17 765 764 768
573 17 765 764 769
574 17 765 764 770
575 17 766 764 767
576 17 766 764 768
577 17 766 764 769
578 17 766 764 770
579 17 767 764 769
580 17 767 764 770
581 17 768 764 769
582 17 768 764 770
583 4 3 5 7
584 4 3 5 8
585 4 3 5 9
586 7 7 5 8
587 7 7 5 9
588 7 8 5 9
589 9 121 124 126
590 11 122 121 123
591 11 122 121 124
592 12 123 121 124
593 4 244 246 250
594 4 244 246 251
595 4 244 246 252
596 7 250 246 251
597 7 250 246 252
598 7 251 246 252
599 4 471 473 475
600 4 471 473 476
601 4 471 473 477
602 7 475 473 476
603 7 475 473 477
604 7 476 473 477
605 9 469 471 473
606 4 124 126 130
607 4 124 126 131
608 4 124 126 132
609 7 130 126 131
610 7 130 126 132
611 7 131 126 132
612 11 642 641 643
613 11 642 641 644
614 12 643 641 644
615 13 644 645 646
616 4 646 645 649
617 4 646 645 650
618 6 649 645 650
619 13 643 646 645
620 4 645 646 647
621 4 645 646 648
622 6 647 646 648
623 9 641 644 645
624 4 363 365 367
625 4 363 365 368
626 4 363 365 369
627 7 367 365 368
628 7 367 365 369
629 7 368 365 369
630 9 361 363 365
631 9 671 674 675
632 13 673 676 675
633 4 675 676 677
634 4 675 676 678
635 6 677 676 678
636 13 674 675 676
637 4 676 675 679
638 4 676 675 680
639 6 679 675 680
640 9 641 643 646
641 4 112 114 118
642 4 112 114 119
643 4 112 114 120
644 7 118 114 119
645 7 118 114 120
646 7 119 114 120
647 13 583 586 585
648 4 585 586 587
649 4 585 586 588
650 6 587 586 588
651 11 518 517 519
652 11 518 517 520
653 12 519 517 520
654 9 517 520 522
655 9 581 583 586
656 11 582 581 583
657 11 582 581 584
658 12 583 581 584
659 4 159 161 163
660 4 159 161 164
661 4 159 161 165
662 7 163 161 164
663 7 163 161 165
664 7 164 161 165
665 4 316 318 322
666 4 316 318 323
667 4 316 318 324
668 7 322 318 323
669 7 322 318 324
670 7 323 318 324
671 11 602 601 603
672 11 602 601 604
673 12 603 601 604
674 9 601 603 606
675 13 603 606 605
676 4 605 606 607
677 4 605 606 608
678 6 607 606 608
679 13 604 605 606
680 4 606 605 609
681 4 606 605 610
682 6 609 605 610
683 4 435 437 439
684 4 435 437 440
685 4 435 437 441
686 7 439 437 440
687 7 439 437 441
688 7 440 437 441
689 9 313 316 318
690 9 433 435 437
691 11 314 313 315
692 11 314 313 316
693 12 315 313 316
694 13 624 625 626
695 4 626 625 629
696 4 626 625 630
697 6 629 625 630
698 9 373 375 377
699 11 374 373 375
700 11 374 373 376
701 12 375 373 376
702 9 313 315 317
703 4 315 317 319
704 4 315 317 320
705 4 315 317 321
706 7 319 317 320
707 7 319 317 321
708 7 320 317 321
709 18 737 736 738
710 18 739 736 740
711 18 741 736 742
712 17 737 736 739
713 17 737 736 740
714 17 737 736 741
715 17 737 736 742
716 17 738 736 739
717 17 738 736 740
718 17 738 736 741
719 17 738 736 742
720 17 739 736 741
721 17 739 736 742
722 17 740 736 741
723 17 740 736 742
724 11 2 1 3
725 11 2 1 4
726 12 3 1 4
727 9 1 4 6
728 9 621 623 626
729 13 623 626 625
730 4 625 626 627
731 4 625 626 628
732 6 627 626 628
733 9 1 3 5
734 9 121 123 125
735 4 123 125 127
736 4 123 125 128
737 4 123 125 129
738 7 127 125 128
739 7 127 125 129
740 7 128 125 129
741 9 361 364 366
742 4 364 366 370
743 4 364 366 371
744 4 364 366 372
745 7 370 366 371
746 7 370 366 372
747 7 371 366 372
748 4 448 450 454
749 4 448 450 455
750 4 448 450 456
751 7 454 450 455
752 7 454 450 456
753 7 455 450 456
754 9 229 232 234
755 11 362 361 363
756 11 362 361 364
757 12 363 361 364
758 9 109 111 113
759 11 470 469 471
760 11 470 469 472
761 12 471 469 472
762 9 469 472 474
763 4 472 474 478
764 4 472 474 479
765 4 472 474 480
766 7 478 474 479
767 7 478 474 480
768 7 479 474 480
769 4 519 521 523
770 4 519 521 524
771 4 519 521 525
772 7 523 521 524
773 7 523 521 525
774 7 524 521 525
775 9 445 448 450
776 11 672 671 673
777 11 672 671 674
778 12 673 671 674
779 11 446 445 447
780 11 446 445 448
781 12 447 445 448
782 11 110 109 111
783 11 110 109 112
784 12 111 109 112
785 9 109 112 114
786 9 517 519 521
787 9 671 673 676
788 9 169 171 173
789 11 170 169 171
790 11 170 169 172
791 12 171 169 172
792 4 171 173 175
793 4 171 173 176
794 4 171 173 177
795 7 175 173 176
796 7 175 173 177
797 7 176 173 177
798 9 85 87 89
799 13 584 585 586
800 4 586 585 589
801 4 586 585 590
802 6 589 585 590
803 9 581 584 585
804 11 158 157 159
805 11 158 157 160
806 12 159 157 160
807 9 157 159 161
808 4 172 174 178
809 4 172 174 179
810 4 172 174 180
811 7 178 174 179
812 7 178 174 180
813 7 179 174 180
814 13 704 705 706
815 4 706 705 709
816 4 706 705 710
817 6 709 705 710
818 13 703 706 705
819 4 705 706 707
820 4 705 706 708
821 6 707 706 708
822 9 701 703 706
823 11 702 701 703
824 11 702 701 704
825 12 703 701 704
826 9 701 704 705
827 18 758 757 759
828 18 760 757 761
829 18 762 757 763
830 17 758 757 760
831 17 758 757 761
832 17 758 757 762
833 17 758 757 763
834 17 759 757 760
835 17 759 757 761
836 17 759 757 762
837 17 759 757 763
838 17 760 757 762
839 17 760 757 763
840 17 761 757 762
841 17 761 757 763
842 4 4 6 10
843 4 4 6 11
844 4 4 6 12
845 7 10 6 11
846 7 10 6 12
847 7 11 6 12
848 4 387 389 391
849 4 387 389 392
850 4 387 389 393
851 7 391 389 392
852 7 391 389 393
853 7 392 389 393
854 9 373 376 378
855 11 434 433 435
856 11 434 433 436
857 12 435 433 436
858 9 433 436 438
859 4 436 438 442
860 4 436 438 443
861 4 436 438 444
862 7 442 438 443
863 7 442 438 444
864 7 443 438 444
865 9 611 614 615
866 11 612 611 613
867 11 612 611 614
868 12 613 611 614
869 9 611 613 616
870 11 74 73 75
871 11 74 73 76
872 12 75 73 76
873 4 376 378 382
874 4 376 378 383
875 4 376 378 384
876 7 382 378 383
877 7 382 378 384
878 7 383 378 384
879 13 614 615 616
880 4 616 615 619
881 4 616 615 620
882 6 619 615 620
883 13 613 616 615
884 4 615 616 617
885 4 615 616 618
886 6 617 616 618
887 4 75 77 79
888 4 75 77 80
889 4 75 77 81
890 7 79 77 80
891 7 79 77 81
892 7 80 77 81
893 4 231 233 235
894 4 231 233 236
895 4 231 233 237
896 7 235 233 236
897 7 235 233 237
898 7 236 233 237
899 11 230 229 231
900 11 230 229 232
901 12 231 229 232
902 9 229 231 233
903 4 232 234 238
904 4 232 234 239
905 4 232 234 240
906 7 238 234 239
907 7 238 234 240
908 7 239 234 240
909 4 111 113 115
910 4 111 113 116
911 4 111 113 117
912 7 115 113 116
913 7 115 113 117
914 7 116 113 117
915 9 97 99 101
916 4 136 138 142
917 4 136 138 143
918 4 136 138 144
919 7 142 138 143
920 7 142 138 144
921 7 143 138 144
922 4 88 90 94
923 4 88 90 95
924 4 88 90 96
925 7 94 90 95
926 7 94 90 96
927 7 95 90 96
928 4 99 101 103
929 4 99 101 104
930 4 99 101 105
931 7 103 101 104
932 7 103 101 105
933 7 104 101 105
934 4 339 341 343
935 4 339 341 344
936 4 339 341 345
937 7 343 341 344
938 7 343 341 345
939 7 344 341 345
940 9 445 447 449
941 4 447 449 451
942 4 447 449 452
943 4 447 449 453
944 7 451 449 452
945 7 451 449 453
946 7 452 449 453
947 9 169 172 174
948 4 87 89 91
949 4 87 89 92
950 4 87 89 93
951 7 91 89 92
952 7 91 89 93
953 7 92 89 93
954 11 86 85 87
955 11 86 85 88
956 12 87 85 88
957 9 85 88 90
958 4 160 162 166
959 4 160 162 167
960 4 160 162 168
961 7 166 162 167
962 7 166 162 168
963 7 167 162 168
964 9 157 160 162
965 11 386 385 387
966 11 386 385 388
967 12 387 385 388
968 9 385 388 390
969 4 388 390 394
970 4 388 390 395
971 4 388 390 396
972 7 394 390 395
973 7 394 390 396
974 7 395 390 396
975 9 385 387 389
976 9 73 76 78
977 4 76 78 82
978 4 76 78 83
979 4 76 78 84
980 7 82 78 83
981 7 82 78 84
982 7 83 78 84
983 9 661 663 666
984 9 73 75 77
985 4 280 282 286
986 4 280 282 287
987 4 280 282 288
988 7 286 282 287
989 7 286 282 288
990 7 287 282 288
991 9 277 280 282
992 11 662 661 663
993 11 662 661 664
994 12 663 661 664
995 9 661 664 665
996 13 664 665 666
997 4 666 665 669
998 4 666 665 670
999 6 669 665 670
1000 13 663 666 665
1001 4 665 666 667
1002 4 665 666 668
1003 6 667 666 668
1004 4 100 102 106
1005 4 100 102 107
1006 4 100 102 108
1007 7 106 102 107
1008 7 106 102 108
1009 7 107 102 108
1010 11 632 631 633
1011 11 632 631 634
1012 12 633 631 634
1013 9 631 634 635
1014 11 278 277 279
1015 11 278 277 280
1016 12 279 277 280
1017 9 277 279 281
1018 4 279 281 283
1019 4 279 281 284
1020 4 279 281 285
1021 7 283 281 284
1022 7 283 281 285
1023 7 284 281 285
1024 11 592 591 593
1025 11 592 591 594
1026 12 593 591 594
1027 9 591 593 596
1028 9 97 100 102
1029 11 98 97 99
1030 11 98 97 100
1031 12 99 97 100
1032 4 340 342 346
1033 4 340 342 347
1034 4 340 342 348
1035 7 346 342 347
1036 7 346 342 348
1037 7 347 342 348
1038 9 631 633 636
1039 13 634 635 636
1040 4 636 635 639
1041 4 636 635 640
1042 6 639 635 640
1043 13 633 636 635
1044 4 635 636 637
1045 4 635 636 638
1046 6 637 636 638
1047 9 133 136 138
1048 11 134 133 135
1049 11 134 133 136
1050 12 135 133 136
1051 13 594 595 596
1052 4 596 595 599
1053 4 596 595 600
1054 6 599 595 600
1055 13 593 596 595
1056 4 595 596 597
1057 4 595 596 598
1058 6 597 596 598
1059 9 145 148 150
1060 4 148 150 154
1061 4 148 150 155
1062 4 148 150 156
1063 7 154 150 155
1064 7 154 150 156
1065 7 155 150 156
1066 11 338 337 339
1067 11 338 337 340
1068 12 339 337 340
1069 9 337 339 341
1070 9 337 340 342
1071 9 133 135 137
1072 4 135 137 139
1073 4 135 137 140
1074 4 135 137 141
1075 7 139 137 140
1076 7 139 137 141
1077 7 140 137 141
1078 4 147 149 151
1079 4 147 149 152
1080 4 147 149 153
1081 7 151 149 152
1082 7 151 149 153
1083 7 152 149 153
1084 11 146 145 147
1085 11 146 145 148
1086 12 147 145 148
1087 9 145 147 149

Dihedrals

1 7 571 574 575 576
2 7 541 544 545 546
3 8 542 541 543 546
4 8 542 541 544 545
5 7 543 546 545 544
6 5 541 543 546 545
7 6 193 196 198 202
8 6 193 196 198 203
9 6 193 196 198 204
10 6 205 207 209 211
11 6 205 207 209 212
12 6 205 207 209 213
13 8 38 37 39 41
14 8 38 37 40 42
15 6 37 40 42 46
16 6 37 40 42 47
17 6 37 40 42 48
18 8 266 265 267 269
19 8 266 265 268 270
20 6 265 268 270 274
21 6 265 268 270 275
22 6 265 268 270 276
23 8 206 205 207 209
24 8 206 205 208 210
25 6 205 208 210 214
26 6 205 208 210 215
27 6 205 208 210 216
28 6 37 39 41 43
29 6 37 39 41 44
30 6 37 39 41 45
31 6 265 267 269 271
32 6 265 267 269 272
33 6 265 267 269 273
34 8 530 529 531 533
35 8 530 529 532 534
36 6 529 532 534 538
37 6 529 532 534 539
38 6 529 532 534 540
39 7 591 594 595 596
40 6 529 531 533 535
41 6 529 531 533 536
42 6 529 531 533 537
43 8 572 571 573 576
44 8 572 571 574 575
45 5 571 573 576 575
46 7 573 576 575 574
47 6 253 255 257 259
48 6 253 255 257 260
49 6 253 255 257 261
50 8 254 253 255 257
51 8 254 253 256 258
52 7 713 716 715 714
53 7 711 714 715 716
54 8 194 193 195 197
55 8 194 193 196 198
56 8 218 217 219 221
57 8 218 217 220 222
58 6 217 220 222 226
59 6 217 220 222 227
60 6 217 220 222 228
61 6 217 219 221 223
62 6 217 219 221 224
63 6 217 219 221 225
64 8 26 25 27 29
65 8 26 25 28 30
66 6 25 28 30 34
67 6 25 28 30 35
68 6 25 28 30 36
69 6 25 27 29 31
70 6 25 27 29 32
71 6 25 27 29 33
72 6 193 195 197 199
73 6 193 195 197 200
74 6 193 195 197 201
75 7 723 726 725 724
76 8 722 721 723 726
77 8 722 721 724 725
78 7 721 724 725 726
79 5 721 723 726 725
80 6 13 15 17 19
81 6 13 15 17 20
82 6 13 15 17 21
83 7 693 696 695 694
84 8 692 691 693 696
85 8 692 691 694 695
86 7 691 694 695 696
87 8 302 301 303 305
88 8 302 301 304 306
89 6 301 303 305 307
90 6 301 303 305 308
91 6 301 303 305 309
92 6 301 304 306 310
93 6 301 304 306 311
94 6 301 304 306 312
95 5 691 693 696 695
96 7 563 566 565 564
97 6 481 483 485 487
98 6 481 483 485 488
99 6 481 483 485 489
100 6 253 256 258 262
101 6 253 256 258 263
102 6 253 256 258 264
103 8 712 711 713 716
104 8 712 711 714 715
105 5 711 713 716 715
106 8 506 505 507 509
107 8 506 505 508 510
108 6 505 507 509 511
109 6 505 507 509 512
110 6 505 507 509 513
111 6 505 508 510 514
112 6 505 508 510 515
113 6 505 508 510 516
114 6 493 496 498 502
115 6 493 496 498 503
116 6 493 496 498 504
117 7 683 686 685 684
118 5 681 683 686 685
119 6 493 495 497 499
120 6 493 495 497 500
121 6 493 495 497 501
122 8 494 493 495 497
123 8 494 493 496 498
124 8 682 681 683 686
125 8 682 681 684 685
126 7 681 684 685 686
127 8 14 13 15 17
128 8 14 13 16 18
129 6 13 16 18 22
130 6 13 16 18 23
131 6 13 16 18 24
132 7 553 556 555 554
133 7 653 656 655 654
134 5 651 653 656 655
135 7 561 564 565 566
136 8 652 651 653 656
137 8 652 651 654 655
138 8 290 289 291 293
139 8 290 289 292 294
140 6 289 291 293 295
141 6 289 291 293 296
142 6 289 291 293 297
143 6 289 292 294 298
144 6 289 292 294 299
145 6 289 292 294 300
146 5 561 563 566 565
147 8 410 409 411 413
148 8 410 409 412 414
149 6 409 411 413 415
150 6 409 411 413 416
151 6 409 411 413 417
152 6 61 63 65 67
153 6 61 63 65 68
154 6 61 63 65 69
155 8 482 481 483 485
156 8 482 481 484 486
157 8 62 61 63 65
158 8 62 61 64 66
159 6 481 484 486 490
160 6 481 484 486 491
161 6 481 484 486 492
162 8 458 457 459 461
163 8 458 457 460 462
164 6 457 459 461 463
165 6 457 459 461 464
166 6 457 459 461 465
167 6 49 51 53 55
168 6 49 51 53 56
169 6 49 51 53 57
170 6 457 460 462 466
171 6 457 460 462 467
172 6 457 460 462 468
173 8 350 349 351 353
174 8 350 349 352 354
175 6 349 352 354 358
176 6 349 352 354 359
177 6 349 352 354 360
178 6 421 423 425 427
179 6 421 423 425 428
180 6 421 423 425 429
181 8 422 421 423 425
182 8 422 421 424 426
183 6 421 424 426 430
184 6 421 424 426 431
185 6 421 424 426 432
186 6 349 351 353 355
187 6 349 351 353 356
188 6 349 351 353 357
189 6 325 328 330 334
190 6 325 328 330 335
191 6 325 328 330 336
192 8 326 325 327 329
193 8 326 325 328 330
194 6 325 327 329 331
195 6 325 327 329 332
196 6 325 327 329 333
197 6 241 244 246 250
198 6 241 244 246 251
199 6 241 244 246 252
200 8 242 241 243 245
201 8 242 241 244 246
202 6 241 243 245 247
203 6 241 243 245 248
204 6 241 243 245 249
205 5 551 553 556 555
206 6 397 400 402 406
207 6 397 400 402 407
208 6 397 400 402 408
209 8 398 397 399 401
210 8 398 397 400 402
211 8 562 561 563 566
212 8 562 561 564 565
213 7 551 554 555 556
214 8 552 551 553 556
215 8 552 551 554 555
216 6 397 399 401 403
217 6 397 399 401 404
218 6 397 399 401 405
219 7 651 654 655 656
220 6 409 412 414 418
221 6 409 412 414 419
222 6 409 412 414 420
223 7 601 604 605 606
224 6 49 52 54 58
225 6 49 52 54 59
226 6 49 52 54 60
227 8 182 181 183 185
228 8 182 181 184 186
229 6 61 64 66 70
230 6 61 64 66 71
231 6 61 64 66 72
232 8 50 49 51 53
233 8 50 49 52 54
234 6 181 183 185 187
235 6 181 183 185 188
236 6 181 183 185 189
237 6 181 184 186 190
238 6 181 184 186 191
239 6 181 184 186 192
240 8 622 621 623 626
241 8 622 621 624 625
242 7 621 624 625 626
243 6 121 124 126 130
244 6 121 124 126 131
245 6 121 124 126 132
246 8 122 121 123 125
247 8 122 121 124 126
248 6 469 471 473 475
249 6 469 471 473 476
250 6 469 471 473 477
251 8 642 641 643 646
252 8 642 641 644 645
253 7 643 646 645 644
254 7 641 644 645 646
255 6 361 363 365 367
256 6 361 363 365 368
257 6 361 363 365 369
258 7 671 674 675 676
259 7 673 676 675 674
260 5 641 643 646 645
261 7 583 586 585 584
262 8 518 517 519 521
263 8 518 517 520 522
264 6 517 520 522 526
265 6 517 520 522 527
266 6 517 520 522 528
267 5 581 583 586 585
268 8 582 581 583 586
269 8 582 581 584 585
270 8 602 601 603 606
271 8 602 601 604 605
272 5 601 603 606 605
273 7 603 606 605 604
274 6 313 316 318 322
275 6 313 316 318 323
276 6 313 316 318 324
277 6 433 435 437 439
278 6 433 435 437 440
279 6 433 435 437 441
280 8 314 313 315 317
281 8 314 313 316 318
282 6 373 375 377 379
283 6 373 375 377 380
284 6 373 375 377 381
285 8 374 373 375 377
286 8 374 373 376 378
287 6 313 315 317 319
288 6 313 315 317 320
289 6 313 315 317 321
290 8 2 1 3 5
291 8 2 1 4 6
292 6 1 4 6 10
293 6 1 4 6 11
294 6 1 4 6 12
295 5 621 623 626 625
296 7 623 626 625 624
297 6 1 3 5 7
298 6 1 3 5 8
299 6 1 3 5 9
300 6 121 123 125 127
301 6 121 123 125 128
302 6 121 123 125 129
303 6 361 364 366 370
304 6 361 364 366 371
305 6 361 364 366 372
306 6 229 232 234 238
307 6 229 232 234 239
308 6 229 232 234 240
309 8 362 361 363 365
310 8 362 361 364 366
311 6 109 111 113 115
312 6 109 111 113 116
313 6 109 111 113 117
314 8 470 469 471 473
315 8 470 469 472 474
316 6 469 472 474 478
317 6 469 472 474 479
318 6 469 472 474 480
319 6 445 448 450 454
320 6 445 448 450 455
321 6 445 448 450 456
322 8 672 671 673 676
323 8 672 671 674 675
324 8 446 445 447 449
325 8 446 445 448 450
326 8 110 109 111 113
327 8 110 109 112 114
328 6 109 112 114 118
329 6 109 112 114 119
330 6 109 112 114 120
331 6 517 519 521 523
332 6 517 519 521 524
333 6 517 519 521 525
334 5 671 673 676 675
335 6 169 171 173 175
336 6 169 171 173 176
337 6 169 171 173 177
338 8 170 169 171 173
339 8 170 169 172 174
340 6 85 87 89 91
341 6 85 87 89 92
342 6 85 87 89 93
343 7 581 584 585 586
344 8 158 157 159 161
345 8 158 157 160 162
346 6 157 159 161 163
347 6 157 159 161 164
348 6 157 159 161 165
349 7 703 706 705 704
350 5 701 703 706 705
351 8 702 701 703 706
352 8 702 701 704 705
353 7 701 704 705 706
354 6 373 376 378 382
355 6 373 376 378 383
356 6 373 376 378 384
357 8 434 433 435 437
358 8 434 433 436 438
359 6 433 436 438 442
360 6 433 436 438 443
361 6 433 436 438 444
362 7 611 614 615 616
363 8 612 611 613 616
364 8 612 611 614 615
365 5 611 613 616 615
366 8 74 73 75 77
367 8 74 73 76 78
368 7 613 616 615 614
369 8 230 229 231 233
370 8 230 229 232 234
371 6 229 231 233 235
372 6 229 231 233 236
373 6 229 231 233 237
374 6 97 99 101 103
375 6 97 99 101 104
376 6 97 99 101 105
377 6 445 447 449 451
378 6 445 447 449 452
379 6 445 447 449 453
380 6 169 172 174 178
381 6 169 172 174 179
382 6 169 172 174 180
383 8 86 85 87 89
384 8 86 85 88 90
385 6 85 88 90 94
386 6 85 88 90 95
387 6 85 88 90 96
388 6 157 160 162 166
389 6 157 160 162 167
390 6 157 160 162 168
391 8 386 385 387 389
392 8 386 385 388 390
393 6 385 388 390 394
394 6 385 388 390 395
395 6 385 388 390 396
396 6 385 387 389 391
397 6 385 387 389 392
398 6 385 387 389 393
399 6 73 76 78 82
400 6 73 76 78 83
401 6 73 76 78 84
402 5 661 663 666 665
403 6 73 75 77 79
404 6 73 75 77 80
405 6 73 75 77 81
406 6 277 280 282 286
407 6 277 280 282 287
408 6 277 280 282 288
409 8 662 661 663 666
410 8 662 661 664 665
411 7 661 664 665 666
412 7 663 666 665 664
413 8 632 631 633 636
414 8 632 631 634 635
415 7 631 634 635 636
416 8 278 277 279 281
417 8 278 277 280 282
418 6 277 279 281 283
419 6 277 279 281 284
420 6 277 279 281 285
421 8 592 591 593 596
422 8 592 591 594 595
423 5 591 593 596 595
424 6 97 100 102 106
425 6 97 100 102 107
426 6 97 100 102 108
427 8 98 97 99 101
428 8 98 97 100 102
429 5 631 633 636 635
430 7 633 636 635 634
431 6 133 136 138 142
432 6 133 136 138 143
433 6 133 136 138 144
434 8 134 133 135 137
435 8 134 133 136 138
436 7 593 596 595 594
437 6 145 148 150 154
438 6 145 148 150 155
439 6 145 148 150 156
440 8 338 337 339 341
441 8 338 337 340 342
442 6 337 339 341 343
443 6 337 339 341 344
444 6 337 339 341 345
445 6 337 340 342 346
446 6 337 340 342 347
447 6 337 340 342 348
448 6 133 135 137 139
449 6 133 135 137 140
450 6 133 135 137 141
451 8 146 145 147 149
452 8 146 145 148 150
453 6 145 147 149 151
454 6 145 147 149 152
455 6 145 147 149 153
