LAMMPS data file via write_data, version 23 Jun 2022, timestep = 100000

770 atoms
31 atom types
715 bonds
17 bond types
1087 angles
18 angle types
455 dihedrals
9 dihedral types
0 impropers
2 improper types

-0.31035006422025546 20.31035006422053 xlo xhi
-0.31035006422025546 20.31035006422053 ylo yhi
-0.31035006422025546 20.31035006422053 zlo zhi

Masses

1 12.011
2 12.011
3 12.011
4 12.011
5 12.011
6 12.011
7 12.011
8 12.011
9 12.011
10 12.011
11 1.008
12 1.008
13 1.008
14 1.008
15 1.008
16 1.008
17 1.008
18 15.999
19 15.999
20 15.999
21 15.999
22 14.007
23 14.007
24 14.007
25 14.007
26 18.998
27 30.974
28 6.941
29 32.065
30 32.065
31 6.941

Pair Coeffs # lj/cut/coul/cut

1 0.066 3.5
2 0.066 3.5
3 0.066 3.5
4 0.066 3.5
5 0.07 3.55
6 0.07 3.55
7 0.07 3.55
8 0.07 3.55
9 0.105 3.75
10 0.105 3.75
11 0.03 2.5
12 0.03 2.5
13 0.03 2.5
14 0.03 2.42
15 0.03 2.5
16 0.03 2.5
17 0.03 2.5
18 0.17 3
19 0.17 3
20 0.17 2.96
21 0.17 3
22 0.17 3.25
23 0.17 3.25
24 0.17 3.25
25 0.17 3.25
26 0.255 2.95
27 0.2 3.7
28 0.0025 1.506
29 0.25 3.55
30 0.25 3.55
31 0.00034 2.126

Bond Coeffs # harmonic

1 268 1.529
2 414 1.33
3 320 1.4
4 340 1.09
5 340 1.08
6 340 1.08
7 320 1.41
8 570 1.229
9 320 1.36
10 300 1.47
11 440 1.27
12 350 1.34
13 340 0.96
14 340 1.01
15 420 1.56
16 200 1.81
17 300 1.43

Angle Coeffs # harmonic

1 50 109.5
2 80 120
3 60 120
4 37.5 110.7
5 40 120
6 33 106.4
7 33 107.8
8 35 120
9 60 109.5
10 60 124
11 80 123
12 80 120.4
13 50 109.5
14 50 109.5
15 50 109.5
16 50 120
17 80 90
18 80 180

Atoms # full

518 44 20 -0.5 1.8230119111906928 4.0809193679503855 4.062588695910313 0 0 0
741 70 26 -0.39 1.6501324937132753 3.190195133059151 0.05969364275091282 0 0 0
344 29 11 0.06 3.1648987855392208 2.2733020267544766 2.4404021898685966 0 0 0
736 70 27 1.34 1.55564654608614 4.764683968896016 -0.03140973660826474 0 0 0
341 29 1 0.22 4.21659686284027 2.440469990349154 2.062868361276993 0 0 0
269 23 1 0.22 0.36387713137639466 1.2233695182393869 3.0143100193149137 1 0 0
273 23 11 0.06 0.06984096106161419 0.15722287628118892 3.1114205135500854 1 0 0
271 23 11 0.06 0.5176449244037042 1.369321686058146 1.9465783354731205 1 0 0
345 29 11 0.06 4.3174991299053405 2.7535431829562174 1.026197891415509 0 0 0
740 70 26 -0.39 2.8018725055051696 5.059125826863927 0.7410151708357777 0 0 0
343 29 11 0.06 4.573509294879087 1.4312760465060377 1.9973776003843193 0 0 0
339 29 19 -0.35 4.916490912828984 3.3209738064195427 2.964972850749657 0 0 0
337 29 9 0.52 6.178930636335238 2.7743496912575343 3.271057686331759 0 0 0
338 29 20 -0.5 7.163445263102238 3.1002419060604836 2.734344212011419 0 0 0
731 65 31 1 8.680145408102335 3.534225300690658 2.3397048556500892 0 0 0
342 29 1 0.22 7.017828378429617 0.7995673695086805 4.340040520716966 0 0 0
340 29 19 -0.35 6.352078452887381 2.0643195089065833 4.4512962894632535 0 0 0
759 73 26 -0.39 6.713573855544389 0.24601940709854764 0.9437954875211028 0 1 0
346 29 11 0.06 8.032435081905522 0.9546928220389295 4.584526433444611 0 0 0
348 29 11 0.06 6.9919893182495985 0.4046067479209966 3.394237949640959 0 0 0
588 50 11 0.06 5.338588664953599 4.896077064157536 0.26128723935352693 0 0 0
489 41 11 0.06 8.087052306701098 3.7665181347353194 18.80380308089754 0 0 0
542 46 20 -0.5 10.223229161140678 2.9631546636214745 2.695775905649008 0 0 0
543 46 19 -0.35 12.193482347841494 1.8256979036110028 3.004737571561268 0 0 0
541 46 9 0.52 10.806656082244439 1.921227123513027 3.084341956214417 0 0 0
544 46 19 -0.35 10.105033982451923 0.7178366600425039 3.1869838284940424 0 0 0
546 46 2 0.22 12.473405246680244 0.5069199782209453 2.524716123454144 0 0 0
547 46 11 0.06 13.083054754121124 0.012639298582714953 1.747760377350248 0 0 0
548 46 11 0.06 13.148910429406257 0.7283173333296875 3.3876732048940044 0 0 0
545 46 2 0.22 11.127714514406177 -0.19588359986544135 2.7558817114180267 0 0 0
550 46 11 0.06 11.06654195408299 19.577021859721274 3.437585784155443 0 -1 0
272 23 11 0.06 1.25796726925211 1.339568501026 3.653949268258787 1 0 0
275 23 11 0.06 16.262677662206524 2.8582591318548123 1.8335300006928468 0 0 0
267 23 19 -0.35 20.104331294874264 2.250904556087268 3.465176852192142 0 0 0
274 23 11 0.06 16.692522693679553 1.2408961876821882 2.4664210164124096 0 0 0
270 23 1 0.22 17.04514710430433 2.1736366127648097 2.124642771762478 0 0 0
268 23 19 -0.35 17.794024018953657 2.756644898651235 3.2084395836134862 0 0 0
265 23 9 0.52 18.726247600313556 1.8963041589334844 3.6905069754059117 0 0 0
276 23 11 0.06 17.63600292543946 2.0260199306733337 1.25700871635853 0 0 0
266 23 20 -0.5 18.443516424154122 0.825001420075395 4.304959255060306 0 0 0
286 24 11 0.06 15.150354481449172 3.3827093225980867 19.34904077457937 0 0 0
278 24 20 -0.5 15.370973679615497 5.248040248545429 1.2684948637915412 0 0 1
765 74 26 -0.39 17.008711463631332 -0.035765322233021035 -0.2949408311852011 0 0 0
288 24 11 0.06 16.6948656045912 4.182401517045763 19.248047780198714 0 0 0
737 70 26 -0.39 0.6891971909146583 4.767298031005769 1.2958301166646393 0 0 0
735 69 31 1 0.9697171476712503 5.1434813669243695 3.208020798989401 1 0 0
218 19 20 -0.5 1.8338374673160343 6.71932217757684 3.130868682401551 0 0 0
217 19 9 0.52 2.5158711101512754 7.700394671618403 3.328522891123919 0 0 0
220 19 19 -0.35 2.0075860906033864 8.997656190603497 3.019985853440754 0 0 0
222 19 1 0.22 2.478602397677872 9.385197380352375 1.7216966832799527 0 0 0
228 19 11 0.06 1.7585658028055353 10.309165107876481 1.309459242506459 0 0 0
742 70 26 -0.39 1.4225385815218847 6.33927360179263 -0.10755326931540107 0 0 0
219 19 19 -0.35 3.633124466546862 7.496264688021163 4.1190080379378795 0 0 0
225 19 11 0.06 4.5025753319936515 6.345510592427376 2.6155520045857426 0 0 0
223 19 11 0.06 5.158128434831418 7.9559720527401865 2.760262599717976 0 0 0
221 19 1 0.22 4.771839151849422 7.106797557960425 3.350600071341955 0 0 0
227 19 11 0.06 2.528782598328829 8.571507234889456 0.9660967753648304 0 0 0
446 38 20 -0.5 8.777987795195122 5.141088706462923 2.914805640553684 0 0 0
224 19 11 0.06 5.528871267085919 6.5492845320972 3.8992345236180492 0 0 0
445 38 9 0.52 9.016702013285556 6.314602897555837 2.980091330884577 0 0 0
448 38 19 -0.35 7.89316340319246 7.160884426896931 3.021749662969275 0 0 0
581 50 9 0.52 7.075507047970567 7.22057469306575 -0.24877681729558596 0 0 0
583 50 19 -0.35 6.9200793452250515 5.805953931253875 -0.15629035870482808 0 0 0
450 38 1 0.22 7.976557345762359 7.9462305235553625 4.185488971602689 0 0 0
454 38 11 0.06 7.8553867835419275 7.292542875742662 5.041308852534486 0 0 0
452 38 11 0.06 11.266458534315403 8.302905879062957 1.8893503570448904 0 0 0
453 38 11 0.06 10.912206127103989 6.665173160418087 1.0461608188052067 0 0 0
449 38 1 0.22 10.590004826092994 7.440492383774548 1.7783524957533352 0 0 0
447 38 19 -0.35 10.35453895836054 6.817644597962593 3.003908708837231 0 0 0
451 38 11 0.06 9.763337649472072 7.991862904371816 1.2954808874911867 0 0 0
424 36 19 -0.35 12.983423704803137 8.910748771557403 4.183940304932793 0 0 0
285 24 11 0.06 14.528733678661057 8.143548662463687 0.7314539494812262 0 0 1
421 36 9 0.52 14.161372605913275 8.411584316436473 4.694171631223326 0 0 0
431 36 11 0.06 10.869674858445615 8.963299542431834 4.4925641290827185 0 0 0
423 36 19 -0.35 15.098723360994125 9.327774630312327 5.145608137049579 0 0 0
68 6 11 0.06 20.18866209426137 7.57157707325437 1.8432781428453238 0 0 0
62 6 20 -0.5 19.94387250042664 5.41590458704643 3.725257841251752 0 0 0
69 6 11 0.06 18.535661429347876 7.206845806947194 1.8877188890337564 0 0 0
61 6 9 0.52 19.146893075617925 6.233051136334005 4.223941716247398 0 0 0
65 6 1 0.22 19.26220296436669 7.820436710422335 2.3472778344244043 0 0 0
67 6 11 0.06 19.234431518837514 8.884676532836764 2.1145393821852725 0 0 0
63 6 19 -0.35 19.402865837133753 7.518585793304057 3.7558672101301944 0 0 0
429 36 11 0.06 16.169391757937476 9.355366951928682 3.460250184905763 0 0 0
279 24 19 -0.35 16.231781778101556 7.046233607923055 0.19285503239933943 0 0 1
277 24 9 0.52 15.647522994784646 5.746477564356749 0.1706355978205641 0 0 1
427 36 11 0.06 16.876839014420167 10.046691827060194 4.944031396784472 0 0 0
425 36 1 0.22 16.28318236395996 9.22475510664487 4.484435659326493 0 0 0
428 36 11 0.06 16.836590193127865 8.329576359801127 4.58925949425119 0 0 0
226 19 11 0.06 3.3949867162755916 9.873699334013097 1.8376196098271302 0 0 0
196 17 19 -0.35 3.319783681001555 13.955820530924978 1.273850809773787 0 0 0
198 17 1 0.22 1.9533373218147387 13.877977496508576 1.0419376074030904 0 0 0
203 17 11 0.06 1.6311362864624714 14.013518801791408 -0.03521793216355601 0 0 0
10 1 11 0.06 2.374948034222572 11.28644990221396 4.129634236296545 0 0 0
202 17 11 0.06 1.4276309824877222 14.602150708347157 1.7075639840831935 0 0 0
754 72 26 -0.39 -0.04807734185075346 11.271331380168926 2.6131641515870774 0 0 0
193 17 9 0.52 3.7822689065210877 15.28931967410996 0.9659098093769392 0 0 0
756 72 26 -0.39 -0.12393228973460993 13.137192119998412 3.845451772209633 0 0 0
204 17 11 0.06 1.64525296405852 12.876826808488161 1.3798695547633422 0 0 0
195 17 19 -0.35 5.164072720769562 15.598951362371723 1.2446553053257916 0 0 0
3 1 19 -0.35 4.459617674735665 12.819018284472033 4.244877341664719 0 0 0
9 1 11 0.06 5.7903446956482085 14.09359668512627 3.3228615791949423 0 0 0
5 1 1 0.22 5.7150495430498545 13.07613722292998 3.6927420954015036 0 0 0
8 1 11 0.06 6.069810019680456 12.463191527320273 2.93250759221399 0 0 0
748 71 26 -0.39 8.08149642665695 11.106232387950227 2.453946458034739 0 0 0
746 71 26 -0.39 8.73494240436076 12.949261228646199 3.2844047015787363 0 0 0
743 71 27 1.34 9.195985303372042 12.10196876068534 2.105389157159806 0 0 0
745 71 26 -0.39 8.188884345145572 12.920134838353006 1.242356651543722 0 0 0
747 71 26 -0.39 9.548982021253705 11.292950220535552 0.8188933278591761 0 0 0
540 45 11 0.06 6.379364448358742 11.147447153371287 0.4826914988226939 0 0 1
7 1 11 0.06 6.49671018137729 13.099370844950021 4.462811633914203 0 0 0
201 17 11 0.06 6.896402906652715 15.945551290758825 0.40917235118202255 0 0 0
199 17 11 0.06 6.226428584201758 14.302217378553584 -0.03640341053792567 0 0 0
539 45 11 0.06 7.414598973988731 10.318670685678656 19.849001820493925 0 0 0
534 45 1 0.22 6.464756424491161 10.972791656393184 20.088192528109893 0 0 0
749 71 26 -0.39 10.269369084522738 13.162397878386335 1.7458740002189725 0 0 0
744 71 26 -0.39 10.191718868005587 11.302235724819727 2.9436311850187513 0 0 0
263 22 11 0.06 12.820604988120612 12.503476984864466 1.0359431205491294 0 0 0
264 22 11 0.06 12.21258661837229 10.859308382582732 0.4721300848752994 0 0 0
262 22 11 0.06 12.515582145676175 11.102182060104104 2.1372829076065747 0 0 0
256 22 19 -0.35 14.18793240201572 10.92516025484316 1.0013876727422384 0 0 0
258 22 1 0.22 12.880557845677659 11.410948106318658 1.1402246501022866 0 0 0
438 37 1 0.22 15.159445456224264 12.87067450655356 3.64384983239646 0 0 0
443 37 11 0.06 14.159907902235211 13.170956037376147 3.3007857669732124 0 0 0
444 37 11 0.06 15.837367921403963 13.643943733501859 3.1887286747370753 0 0 0
607 52 11 0.06 10.545575879119552 15.024531885989544 3.685080935206472 0 0 0
442 37 11 0.06 15.382773170483455 12.054134766272545 2.9584665597392816 0 0 0
751 72 26 -0.39 19.55647698603054 11.259167869061834 4.596920439135932 -1 0 0
753 72 26 -0.39 18.272721316047075 12.96824390791235 3.9123999876362854 -1 0 0
755 72 26 -0.39 18.36887475532977 11.101804149062698 2.7068174106769267 -1 0 0
752 72 26 -0.39 19.419775097329623 13.019627704272784 1.9932877572807364 -1 0 0
750 72 27 1.34 19.427015493818406 12.09315887364844 3.290902614468062 -1 0 0
261 22 11 0.06 17.157334252619563 11.95831416490777 0.016628805729968388 0 0 0
206 18 20 -0.5 4.554008654202755 19.88641308907901 4.996372619678245 0 0 0
168 14 11 0.06 0.236968749646428 19.629124964904083 -0.194741002624909 0 0 1
194 17 20 -0.5 3.024178457085259 16.06081655193004 0.3834339497262813 0 0 0
208 18 19 -0.35 3.6173658980906804 19.61663507204674 2.860238571775277 0 0 0
210 18 1 0.22 3.8626900600119223 18.29254607183871 2.4302563225305613 0 0 0
648 56 11 0.06 0.05441366461764818 16.045866552546535 2.76770817621354 1 0 0
215 18 11 0.06 4.876522762871264 17.998779313409305 2.731033952037909 0 0 0
214 18 11 0.06 3.8394026972549797 18.23120896912926 1.34497588481111 0 0 0
643 56 19 -0.35 20.27144094206329 17.716508577883744 2.85589074634024 0 0 0
205 18 9 0.52 3.508822777162912 19.814096557645968 4.2868908517734035 0 0 0
162 14 1 0.22 1.2221570187639892 19.379440555846795 0.16665640530179449 0 0 1
36 3 11 0.06 1.467831798873189 14.988619101029188 4.69963311034606 0 0 0
166 14 11 0.06 0.9862030012887031 19.168916802096962 1.2090707221906345 0 0 1
207 18 19 -0.35 2.1572819395265737 20.00347960255575 4.886283340890838 0 0 0
197 17 1 0.22 6.033803397296936 15.389690557407187 0.14139772534629425 0 0 0
200 17 11 0.06 5.617115933025909 15.713366460022637 19.816788168368824 0 0 -1
216 18 11 0.06 3.1225774387178773 17.60707220542917 2.8249720254161925 0 0 0
514 43 11 0.06 7.254656615547269 16.462962742004354 3.0747425447579686 0 0 0
760 73 26 -0.39 8.72619296759869 20.172765717927195 0.21628490285572355 0 0 0
762 73 26 -0.39 7.4360558327630715 18.79600648347666 1.3490072614010966 0 0 0
757 73 27 1.34 7.269621371481362 19.660280409961594 0.05835598473738818 0 0 0
355 30 11 0.06 9.693875513114945 17.559009752801092 1.579957367437553 0 0 0
356 30 11 0.06 9.315585157520136 16.892466323448453 0.08813673192399601 0 0 0
353 30 1 0.22 9.771499799865323 16.642154658724376 1.021506361188532 0 0 0
357 30 11 0.06 9.191924581453954 15.983439905715862 1.6843724218990541 0 0 0
515 43 11 0.06 6.3352240045606925 16.0464083807397 4.575677220031961 0 0 0
510 43 1 0.22 7.123740880160369 16.671303292832444 4.080910034739774 0 0 0
516 43 11 0.06 6.833354086644677 17.7622821650414 4.183166121803231 0 0 0
549 46 11 0.06 10.60143930845477 20.20894423358814 1.830777481385137 0 -1 0
608 52 11 0.06 12.16517239951487 14.182123458532258 3.1690870864605643 0 0 0
606 52 2 0.22 11.52728929294326 14.6033031534281 3.9757895617639445 0 0 0
359 30 11 0.06 15.125430040041444 15.738384165054448 0.971616902237779 0 0 0
354 30 1 0.22 14.21690417673804 16.181439327637232 0.5240975261340478 0 0 0
351 30 19 -0.35 10.970524478078783 16.0388849168678 0.7001316858033841 0 0 0
349 30 9 0.52 12.01576663980345 16.765678580432454 1.246588541863949 0 0 0
352 30 19 -0.35 13.213673129919625 16.083817771682213 1.5208248462041258 0 0 0
350 30 20 -0.5 12.06250214642525 17.97351684912154 1.1276765571919458 0 0 0
173 15 1 0.22 13.995724597894567 18.207529565789724 4.169034109178488 0 0 0
176 15 11 0.06 13.130331470924043 18.25334399234649 3.5625945109211656 0 0 0
175 15 11 0.06 13.78999270354675 17.51262138473662 5.0192380308567754 0 0 0
171 15 19 -0.35 14.348677215794867 19.49810018207547 4.584150342182395 0 0 0
650 56 11 0.06 18.78280851921003 15.453457921784919 3.6435590811700753 0 0 0
177 15 11 0.06 14.84351565190667 17.80771025311943 3.580592657336361 0 0 0
647 56 11 0.06 20.22594668003656 16.238240350802812 1.1682617971774163 0 0 0
768 74 26 -0.39 18.307298698705033 19.59420635191647 1.2300909717964792 0 -1 0
769 74 26 -0.39 16.243063823037964 18.936883665880366 1.0066406773719583 0 -1 0
646 56 2 0.22 19.92029339746269 16.570237891749628 2.179280270086646 0 0 0
764 74 27 1.34 17.424478979442927 19.152143365584802 -0.004941295874194784 0 -1 0
645 56 2 0.22 18.59221747544679 16.065478014934314 2.7376916513114855 0 0 0
644 56 19 -0.35 18.209607206039223 17.065163105895913 3.699413414590368 0 0 0
641 56 9 0.52 19.24781126110115 17.93620695222734 3.741497105257899 0 0 0
649 56 11 0.06 18.137006444442715 15.250107760672861 2.128483883707401 0 0 0
766 74 26 -0.39 17.81069215485125 17.624313353512107 0.17165553786366006 0 -1 0
642 56 20 -0.5 19.281140476314537 18.75666185701164 4.6520682019277935 0 0 0
521 44 1 0.22 3.8095513381026045 3.0612649700302597 6.213824349882744 0 0 0
517 44 9 0.52 1.8925709558835102 3.76957738271612 5.247269171314962 0 0 0
519 44 19 -0.35 2.5988867007344574 2.669064684784193 5.651136507260956 0 0 0
524 44 11 0.06 3.582653828322746 3.9260641279351614 6.897016641824082 0 0 0
684 60 19 -0.35 4.076669945191194 1.7244372655858347 9.34976422991693 0 0 0
520 44 19 -0.35 1.151836909601424 4.43280218124973 6.228625761380963 0 0 0
523 44 11 0.06 4.526953332674916 3.3104756068590495 5.528614935148518 0 0 0
525 44 11 0.06 4.210910427657599 2.21678013662577 6.845814200822337 0 0 0
682 60 20 -0.5 1.996169492321326 2.7869768755067987 9.183425889837673 0 0 0
681 60 9 0.52 3.2045989221702946 2.8306185164444546 9.404301416770508 0 0 0
381 32 11 0.06 6.752407918166742 0.11956250119865791 8.4014964608018 0 1 0
104 9 11 0.06 20.033881421832213 3.287558624078852 7.810380419447418 0 0 0
463 39 11 0.06 2.1105247684334265 20.25893928839207 9.526784092301028 0 0 0
347 29 11 0.06 6.733394379627602 -0.06185814301285436 4.981394800717595 0 0 0
390 33 1 0.22 7.804966107198924 2.8469672965294697 7.002621949414571 0 0 0
395 33 11 0.06 7.363647742846323 3.6431962876320387 6.462623887676817 0 0 0
689 60 11 0.06 6.14718085976976 2.253962656427131 9.223111416483924 0 0 0
394 33 11 0.06 7.882313092476595 3.159677336122295 8.025418026952059 0 0 0
396 33 11 0.06 7.176916249859986 1.8841788218601137 6.887492910526281 0 0 0
388 33 19 -0.35 9.021535703099747 2.423863951755148 6.565831470532388 0 0 0
622 54 20 -0.5 6.116578712956041 5.411027167850578 7.604920354927645 0 0 0
379 32 11 0.06 6.714197726342991 19.226027055892523 7.651876344873089 0 0 0
377 32 1 0.22 6.056147178518431 19.949959458004198 8.230053696313005 0 0 0
387 33 19 -0.35 9.335288547702374 0.06642271763571594 7.047230205340341 0 0 0
385 33 9 0.52 9.621290043310497 1.4354212256162249 7.343171450747364 0 0 0
326 28 20 -0.5 15.084843358149064 2.9378471151477763 9.34263328399549 0 0 0
386 33 20 -0.5 10.413056392570608 1.7366579378407274 8.213236016711836 0 0 0
578 49 11 0.06 12.270886942325166 3.925115327843411 7.342296490717831 0 0 0
180 15 11 0.06 13.737548972719669 0.3045595703841494 7.594340070826812 0 1 0
325 28 9 0.52 14.326183617057447 2.3412673947560103 10.109409228923246 0 0 0
328 28 19 -0.35 14.388191526485128 0.9873788952211484 10.059009268783306 0 0 0
172 15 19 -0.35 15.347589193362195 19.96450854704447 6.713184570645115 0 0 0
580 49 11 0.06 10.778494172386576 3.873829742038753 5.6865814299018185 0 0 0
577 49 11 0.06 13.29140260333129 4.610986491353455 6.220297559332228 0 0 0
336 28 11 0.06 13.224359663912896 0.65499465274164 11.828550435599277 0 0 0
105 9 11 0.06 0.13895719013751068 1.7463676595311126 7.937642959102597 1 0 0
103 9 11 0.06 20.10625927666032 2.321934378634454 6.457414127346465 0 0 0
179 15 11 0.06 14.135001646563483 0.9758206246533512 6.065443267085149 0 1 0
72 6 11 0.06 16.881989553225782 5.305184193362869 4.202117643208145 0 0 0
178 15 11 0.06 15.068752950319686 1.3634808488813652 7.337706240042266 0 1 0
174 15 1 0.22 14.56150334510003 0.5306459843906397 6.945094039042631 0 1 0
101 9 1 0.22 19.872579742884103 2.270658039150369 7.549754639800354 0 0 0
99 9 19 -0.35 18.670041305424448 1.7457624480909675 7.970503875028939 0 0 0
97 9 9 0.52 18.529058199300717 0.38300585919059305 7.825140711247208 0 0 0
70 6 11 0.06 17.065199687781448 4.741480930161178 5.909560982316833 0 0 0
169 15 9 0.52 15.516675206691595 19.64038115681496 5.383246384681564 0 0 0
526 44 11 0.06 1.4397354397888478 6.543911731479644 6.060226017717681 0 0 0
528 44 11 0.06 2.6413957213972292 5.67042084827516 6.57550978157252 0 0 0
527 44 11 0.06 1.4305484931151804 6.033663406463448 7.6649202360792374 0 0 0
522 44 1 0.22 1.6685311686030557 5.65079256923377 6.676200735729647 0 0 0
122 11 20 -0.5 1.7925242896716984 9.386918683922246 8.213514095734956 0 0 0
121 11 9 0.52 0.6424239594917407 9.84944387665754 8.372556971190455 0 0 0
630 54 11 0.06 5.513567663567753 9.39510252701403 7.509177139845865 0 0 0
629 54 11 0.06 3.9260739404353675 8.85803005195458 6.81583271988767 0 0 0
625 54 2 0.22 4.89636457011757 8.579939474071802 7.325622589738503 0 0 0
624 54 19 -0.35 5.625306819385537 7.539738064091429 6.688620012566987 0 0 0
455 38 11 0.06 8.857089385447116 8.407675566502535 4.331636532920756 0 0 0
456 38 11 0.06 7.191242288703046 8.654459833599942 4.41623885167681 0 0 0
623 54 19 -0.35 5.34904209644347 6.992266457393845 9.07315787431889 0 0 0
621 54 9 0.52 5.803040927033737 6.635705976325955 7.753572916383829 0 0 0
628 54 11 0.06 4.068437888397 8.879406013650874 9.406887724463166 0 0 0
626 54 2 0.22 4.4786457151111945 8.091826660546499 8.771976115490382 0 0 0
627 54 11 0.06 3.5485440912205926 7.521537295025822 8.715294189202346 0 0 0
552 47 20 -0.5 9.398448845477231 9.556773412059304 8.76480082414843 0 0 0
422 36 20 -0.5 14.32388236711636 7.210902866589983 4.910692385731423 0 0 0
574 49 19 -0.35 10.493939138327104 6.065547307074187 6.307905326542396 0 0 0
576 49 2 0.22 12.383880852299297 4.785361674653939 6.708685886306194 0 0 0
579 49 11 0.06 11.537928923842463 5.176072526392498 4.780237463169482 0 0 0
573 49 19 -0.35 12.302810286407121 5.746626236475469 7.768090786722045 0 0 0
575 49 2 0.22 11.141562380597613 4.904491453449615 5.80814969315661 0 0 0
572 49 20 -0.5 10.678068238202988 7.243517632820459 8.244525980201463 0 0 0
571 49 9 0.52 11.113470264709784 6.355710219342933 7.500430821325847 0 0 0
732 66 31 1 10.73109815908401 8.675064740360504 9.108565577886667 0 0 0
112 10 19 -0.35 14.428458535359926 9.254721226743968 7.9151914645882915 0 0 0
119 10 11 0.06 14.953457322374646 7.3500856090930275 7.557080366761903 0 0 0
426 36 1 0.22 11.900628588119336 9.165205204797752 5.020906325544877 0 0 0
432 36 11 0.06 11.953291558614849 8.570118837431133 5.921667753144453 0 0 0
110 10 20 -0.5 12.27832789896709 9.490368633955818 8.757282645700164 0 0 0
53 5 1 0.22 17.210076513682125 5.146077422877968 9.924742315510507 0 0 0
51 5 19 -0.35 18.490694495067224 4.793982377144575 9.553815885631659 0 0 0
124 11 19 -0.35 -0.2960963444749787 10.00416467937444 7.379664992112817 0 0 0
114 10 1 0.22 14.965911964513339 8.052059283751978 8.374209488676403 0 0 0
57 5 11 0.06 17.161006200018925 6.12922763918183 10.33763618897958 0 0 0
71 6 11 0.06 16.590094294678888 6.384284257263236 5.638875253547486 0 0 0
131 11 11 0.06 0.41733412193399755 8.945964485048393 5.966433220950645 0 0 0
50 5 20 -0.5 20.17362821986763 6.366658867055207 9.8423756055403 0 0 0
126 11 1 0.22 20.143020189303996 8.914992115189264 6.548473367638559 -1 0 0
130 11 11 0.06 19.331341921746606 9.021507705067995 5.8669709688653455 -1 0 0
120 10 11 0.06 15.983465584215686 8.126741620179871 8.736712026869018 0 0 0
64 6 19 -0.35 18.49469476803532 5.9712118565740155 5.472986734597694 0 0 0
66 6 1 0.22 17.164771225807517 5.556593072262682 5.253392542418016 0 0 0
132 11 11 0.06 20.056640472473678 7.951665266263523 7.02564024236616 -1 0 0
118 10 11 0.06 14.386700637663314 7.4363499474148815 9.088624682475608 0 0 0
34 3 11 0.06 0.22244571383971223 15.285678181259177 5.770325462978448 0 0 0
123 11 19 -0.35 0.3332299483151788 10.57714249633191 9.541891377079747 0 0 0
11 1 11 0.06 2.219394635287298 10.168119837397711 5.508635895112448 0 0 0
12 1 11 0.06 1.1763630388704014 11.611446543786116 5.474937680581123 0 0 0
1 1 9 0.52 4.4177786371521615 11.983031005875194 5.36407658188628 0 0 0
4 1 19 -0.35 3.1496641227088906 11.93255038734704 6.033764786485477 0 0 0
6 1 1 0.22 2.1879879256972568 11.217811290434458 5.262849220914631 0 0 0
317 27 1 0.22 4.453740463358267 12.681632628532428 9.62186397593433 0 0 0
319 27 11 0.06 3.672872083012259 13.111004825884061 8.953810487879341 0 0 0
20 2 11 0.06 0.5766202458549932 13.978211401435614 8.905953984703883 1 0 0
320 27 11 0.06 5.318056486973203 13.294860163309226 9.4472626213001 0 0 0
21 2 11 0.06 20.009406939815896 13.144970351475562 10.002908279260952 0 0 0
27 3 19 -0.35 4.431030964663305 15.271832839775108 6.933820320281468 0 0 0
314 27 20 -0.5 2.1858609229502224 13.667676282750046 11.358957869393867 0 0 0
321 27 11 0.06 4.618442416293891 11.656676626173157 9.300360082419573 0 0 0
553 47 19 -0.35 9.072156081123572 10.00199376220302 6.606753610912222 0 0 0
558 47 11 0.06 7.813847842401222 10.933629172686691 5.111214267572685 0 0 0
2 1 20 -0.5 5.276377618881915 11.123699488304004 5.6073220265977 0 0 0
551 47 9 0.52 8.613151332746254 10.053953526506719 7.923601638601813 0 0 0
557 47 11 0.06 9.395505120098374 11.120052045347945 5.65458453766403 0 0 0
556 47 2 0.22 8.415593510515613 11.023799798498837 5.979701994038806 0 0 0
554 47 19 -0.35 7.718268039875742 11.079825442270506 8.132574630409637 0 0 0
560 47 11 0.06 7.119164159625291 12.63460054901712 6.7654889558569185 0 0 0
555 47 2 0.22 7.930531830832891 11.972986093422428 7.095185366551372 0 0 0
559 47 11 0.06 8.713840975791925 12.697422196775625 7.099727115765946 0 0 0
31 3 11 0.06 5.497843316179141 16.97570230114421 7.071583974348195 0 0 0
436 37 19 -0.35 15.33213504016667 12.444900782284435 4.941450732809873 0 0 0
430 36 11 0.06 11.936669615479875 10.241343314465583 5.342641075095585 0 0 0
109 10 9 0.52 13.488781248582235 9.627008740431757 8.9110801993798 0 0 0
609 52 11 0.06 10.392418399356927 13.212956540528129 4.906103732505501 0 0 0
610 52 11 0.06 12.111815573394448 12.917941565343614 5.207767519863451 0 0 0
605 52 2 0.22 11.389693718322055 13.712191347938665 5.115593318146034 0 0 0
604 52 19 -0.35 11.22469888686327 14.534523915922172 6.2815077146383995 0 0 0
117 10 11 0.06 15.480066559901088 11.520047848456135 10.118926433501366 0 0 0
113 10 1 0.22 14.461346680193557 11.563400349543699 10.035523104997335 0 0 0
116 10 11 0.06 14.001222454619796 12.069741843471874 10.83460269255455 0 0 0
115 10 11 0.06 14.148522286036684 12.073473554674303 9.177552649430185 0 0 0
111 10 19 -0.35 13.948269942050022 10.230640550517645 10.137179565755435 0 0 0
19 2 11 0.06 -0.11620564543995049 12.57036525978206 8.269316293854981 1 0 0
433 37 9 0.52 15.351900382011532 13.453416542985314 5.870974134044121 0 0 0
17 2 1 0.22 20.237114580297252 13.462141686102614 8.924574209737518 0 0 0
15 2 19 -0.35 19.15515692900764 14.144485103693157 8.206616800706897 0 0 0
440 37 11 0.06 16.160960991844362 11.327277899840984 6.9819158634515865 0 0 0
437 37 1 0.22 16.809560352617154 12.139150455169956 7.1959855976563984 0 0 0
435 37 19 -0.35 16.104388409924567 13.34874909088002 7.043142784705496 0 0 0
439 37 11 0.06 17.178121051059183 11.975315720348513 8.202935045492714 0 0 0
441 37 11 0.06 17.634073850597723 12.037431910525145 6.5272230654592684 0 0 0
30 3 1 0.22 1.1656605395651516 15.633118979300994 5.4860373033257925 0 0 0
35 3 11 0.06 1.0388096816888441 16.626701334238863 5.05841976478757 0 0 0
211 18 11 0.06 2.9761549382276855 18.961376095793305 6.680678399220421 0 0 0
212 18 11 0.06 1.705589881427311 20.02548643442486 6.919609177332086 0 0 0
28 3 19 -0.35 1.9961122863845242 15.621645487665084 6.624991479455995 0 0 0
25 3 9 0.52 3.3599165320497195 15.932916763138362 6.2673721024184355 0 0 0
26 3 20 -0.5 3.593715167532228 16.79829782018398 5.441842958443846 0 0 0
213 18 11 0.06 1.3637161042701238 18.55600377081643 6.206010236683771 0 0 0
209 18 1 0.22 2.094283020222422 19.325737441905034 6.13948523349069 0 0 0
33 3 11 0.06 5.910322671999375 15.639189125795372 8.142179948036361 0 0 0
467 39 11 0.06 1.0870616312293873 16.58833515848021 9.207670850460719 0 0 0
468 39 11 0.06 2.5436181526455686 15.719743083889973 9.473251690114662 0 0 0
462 39 1 0.22 1.8420353909955156 16.360497348065508 9.911401727715129 0 0 0
460 39 19 -0.35 2.5438008144976023 17.4904212637023 10.271401985872636 0 0 0
29 3 1 0.22 5.173877204300259 16.15908919806235 7.657153549828986 0 0 0
32 3 11 0.06 4.509689752238041 16.45188985230598 8.46980394451361 0 0 0
506 43 20 -0.5 7.795493245274361 15.014963975492908 6.573307058077852 0 0 0
380 32 11 0.06 5.266163985245778 20.199958784434436 7.419363848327288 0 0 0
375 32 19 -0.35 5.405247502367416 19.504455074080504 9.387466442716088 0 0 0
508 43 19 -0.35 8.305960449697087 16.43436627209114 4.844575252621462 0 0 0
505 43 9 0.52 8.283450418948021 16.079221093457846 6.211102143512527 0 0 0
507 43 19 -0.35 8.162340391891068 17.228109722871196 7.076610004597318 0 0 0
509 43 1 0.22 8.905335957371445 16.87564027742808 8.302295897893522 0 0 0
513 43 11 0.06 8.428011882525198 16.08308934890668 8.82471887431184 0 0 0
511 43 11 0.06 9.946911351467914 16.5625772090692 8.033403798066516 0 0 0
512 43 11 0.06 9.085885782996984 17.77136372524924 8.89775010468934 0 0 0
603 52 19 -0.35 11.661768260489799 15.901214678267742 4.518610984252394 0 0 0
393 33 11 0.06 10.33959460677788 19.022409263031392 6.339682084386228 0 -1 0
434 37 20 -0.5 14.751821083177985 14.435673461477263 5.627370015426128 0 0 0
717 63 11 0.06 13.52232581643648 15.121138885790089 8.643918742802335 0 0 0
391 33 11 0.06 11.332633274183339 -0.1979894614098212 6.350181184300508 0 0 0
718 63 11 0.06 12.571732111264213 16.375707384364663 9.483503911860392 0 0 0
716 63 2 0.22 13.59785143636487 16.09591324406812 9.054716613902736 0 0 0
389 33 1 0.22 10.548710656711947 19.907631294920087 6.884857863553479 0 -1 0
392 33 11 0.06 11.032724370088356 19.563452758535433 7.767185134680348 0 -1 0
601 52 9 0.52 11.534879648073607 15.765068777786372 5.881099073441745 0 0 0
602 52 20 -0.5 11.794403010719629 16.6822960756261 6.708268781839492 0 0 0
720 63 11 0.06 13.511482926629263 18.104533999557223 8.22912361844344 0 0 0
715 63 2 0.22 14.167552890376724 17.283728791834147 8.198023455694878 0 0 0
719 63 11 0.06 14.297255481830401 17.005767862634446 7.157964291058858 0 0 0
714 63 19 -0.35 15.132200443399954 17.936046626624233 8.976934771102329 0 0 0
734 68 31 1 18.19412084755821 19.8395714607231 5.1344213780170085 0 -1 0
170 15 20 -0.5 16.596804502469293 19.29398877069114 4.996862757658196 0 0 0
23 2 11 0.06 17.329049322912482 16.971632999102077 6.039933937648708 0 0 0
13 2 9 0.52 19.055417461314033 15.483425503589174 8.513388530691179 0 0 0
24 2 11 0.06 18.1442523445359 15.424001111127476 5.814502949056887 0 0 0
98 9 20 -0.5 18.304249744023647 -0.09375407323455875 6.687427504785819 0 0 0
100 9 19 -0.35 18.810106912469646 20.13350469036833 8.812884882027674 0 -1 0
16 2 19 -0.35 18.709316282825334 16.429673645021115 7.5569068035654405 0 0 0
22 2 11 0.06 16.775038907853574 15.504455347334066 6.965009756768479 0 0 0
18 2 1 0.22 17.63686017136797 16.063934020620085 6.582495352879241 0 0 0
102 9 1 0.22 17.8529303541755 19.18559609698243 9.23771380949888 0 -1 0
713 63 19 -0.35 14.423089151887437 16.09514108965348 10.226845115062446 0 0 0
107 9 11 0.06 16.986538297982758 19.728010702334267 9.605765778099705 0 -1 0
464 39 11 0.06 0.613909928887762 0.4505151486392811 10.152139766812574 0 1 0
683 60 19 -0.35 3.7795742681409967 4.03869457104732 9.753474139513033 0 0 0
181 16 9 0.52 3.4219451874174376 1.5569004093645473 13.319723064304545 0 1 0
183 16 19 -0.35 4.467735758023055 1.8275399514888675 14.148939180968904 0 1 0
182 16 20 -0.5 3.0131913324408472 2.3992057064298944 12.47574961724899 0 1 0
465 39 11 0.06 2.081345739017553 0.4872887441000583 10.973739248494551 0 1 0
184 16 19 -0.35 2.6297728202603046 0.34921863780355755 13.51092410667835 0 1 0
59 5 11 0.06 1.0544572069091347 4.351592683099789 11.042694920617631 1 0 0
54 5 1 0.22 0.22641585422705368 4.050127924386112 11.579154425813181 1 0 0
58 5 11 0.06 -0.07927752322316248 3.053320920605704 11.342793009248126 1 0 0
688 60 11 0.06 5.091761078750618 3.8316152384364734 11.237704995728434 0 0 0
185 16 1 0.22 5.772809737503245 1.6920336236512106 13.476056305954803 0 1 0
189 16 11 0.06 5.983055962780377 2.6279004759941262 12.981834510541745 0 1 0
187 16 11 0.06 6.574296886296817 1.5865748960078896 14.227882527522414 0 1 0
461 39 1 0.22 1.4873638970273646 -0.15851621677523636 10.440897910593199 0 1 0
685 60 2 0.22 5.2430958112065555 2.2504566987412074 9.906839384018552 0 0 0
686 60 2 0.22 5.142225895226758 3.65162492086875 10.143087667019266 0 0 0
363 31 19 -0.35 9.46711038208855 4.4524331218734075 11.45224742962033 0 0 0
690 60 11 0.06 5.581751797110646 1.602398542578665 10.735332720308392 0 0 0
362 31 20 -0.5 7.652710234189879 3.0310847902773532 11.131379497617164 0 0 0
361 31 9 0.52 8.900351834207818 3.16402683714541 11.207452685700689 0 0 0
364 31 19 -0.35 9.821820227461298 2.1855523957257765 10.863662908820256 0 0 0
188 16 11 0.06 5.784815387999782 0.910867491428677 12.756576935340531 0 1 0
365 31 1 0.22 8.890356890815253 5.271934556186484 10.315521609749037 0 0 0
369 31 11 0.06 9.482858904707838 6.112387480705486 10.047127080750652 0 0 0
368 31 11 0.06 8.041191266322297 5.797083963608622 10.78924097086074 0 0 0
500 42 11 0.06 7.967272146763531 3.662798608826147 14.253889643614878 0 0 0
497 42 1 0.22 7.870038109949867 4.735396520434835 14.250856831723265 0 0 0
374 32 20 -0.5 6.772452952333917 20.105310332898306 11.217745275196256 0 0 0
334 28 11 0.06 12.39644113130107 0.35928873230023906 10.309507699261028 0 0 0
330 28 1 0.22 13.343426235604358 0.34966524696422774 10.86299671472116 0 0 0
335 28 11 0.06 13.556178642159708 19.830363758420695 10.756103705935095 0 -1 0
87 8 19 -0.35 10.041337390947346 2.286571097880477 14.71628484452073 0 0 0
367 31 11 0.06 8.597535565973894 4.719063652826839 9.35543300840016 0 0 0
370 31 11 0.06 10.5367447765474 0.5080893593573526 11.692055323117991 0 0 0
327 28 19 -0.35 14.07321243233638 2.9632803284714813 11.287348654454547 0 0 0
88 8 19 -0.35 11.91796607459 3.8378622694452202 14.509903117555059 0 0 0
90 8 1 0.22 13.11263402687331 2.997145712346485 14.413285831828798 0 0 0
96 8 11 0.06 13.522665069039109 2.5174123010200486 15.252667629327897 0 0 0
94 8 11 0.06 12.947038725234062 2.2084918362180717 13.66551668008271 0 0 0
85 8 9 0.52 10.92474973909276 3.2450042874414247 15.279012763968188 0 0 0
95 8 11 0.06 13.966308958715924 3.5779792081152038 14.108129787212023 0 0 0
79 7 11 0.06 18.670498220160063 2.2424318092776727 12.302935877791938 0 1 0
80 7 11 0.06 18.956800835679015 0.4136783579090497 12.657832394510358 0 1 0
81 7 11 0.06 19.05432356719225 1.141619728172226 11.018855805101369 0 1 0
77 7 1 0.22 18.52967750656613 1.180841648351592 11.965030916201094 0 1 0
73 7 9 0.52 16.61006827923831 0.9477988369936852 13.233598957241835 0 1 0
75 7 19 -0.35 17.1441146563501 0.8976946080622186 11.93860076025182 0 1 0
74 7 20 -0.5 15.939331648258566 1.798433255159006 13.73935604134117 0 1 0
415 35 11 0.06 16.324893516643407 4.256307374165304 13.258631173783208 0 0 0
52 5 19 -0.35 19.750474382544578 4.875495379629562 11.604942380577153 0 0 0
416 35 11 0.06 17.740174878334685 5.127538168584591 13.849131241665722 0 0 0
60 5 11 0.06 0.7670294405360207 4.006945200371611 12.542360410553306 1 0 0
498 42 1 0.22 3.928084750965332 6.5501499502818525 12.770908331931828 0 0 0
504 42 11 0.06 3.6019358567874376 5.603253076309495 13.20242291941947 0 0 0
503 42 11 0.06 3.4060607466618045 6.685172668501731 11.877885644020298 0 0 0
502 42 11 0.06 3.500778546467567 7.195706917982382 13.522596271926266 0 0 0
290 25 20 -0.5 1.2801213760646217 6.035134476754128 14.378359714461695 1 0 0
129 11 11 0.06 0.864690084351649 10.89463366654353 11.54675448667729 0 0 0
125 11 1 0.22 1.2491192215131697 10.41822327329865 10.63282751357217 0 0 0
128 11 11 0.06 2.245112001972453 10.906641490510774 10.381772026948397 0 0 0
687 60 11 0.06 5.841084118355126 4.205022696295768 9.575406823263783 0 0 0
496 42 19 -0.35 5.360095986829309 6.753426955832231 12.494023398405208 0 0 0
495 42 19 -0.35 6.883598714314827 5.016280820227243 13.283652463516846 0 0 0
493 42 9 0.52 6.107046864060295 6.170540370412581 13.512861484013348 0 0 0
39 4 19 -0.35 9.013381565674106 9.491085344766093 12.143563692936892 0 0 0
41 4 1 0.22 7.674880431697123 9.023529932770321 12.105958714346789 0 0 0
43 4 11 0.06 7.094117472243875 9.833663093256483 11.773041492016599 0 0 0
40 4 19 -0.35 9.998425613263278 7.54243822914316 13.04803659820693 0 0 0
45 4 11 0.06 7.2840453913951295 8.784361020145182 13.098368733696631 0 0 0
37 4 9 0.52 9.927522925842299 8.477806436796524 11.965513539495307 0 0 0
329 28 1 0.22 13.269345554507401 4.15815062065352 11.031603847984758 0 0 0
332 28 11 0.06 12.312665912774987 4.293675675684314 11.634296923708368 0 0 0
331 28 11 0.06 13.030057434571996 4.293887965687879 10.001512622155731 0 0 0
333 28 11 0.06 13.92510275733056 4.988279157587936 11.303068661725431 0 0 0
48 4 11 0.06 11.980237261985037 6.666711637215137 12.93630108911638 0 0 0
38 4 20 -0.5 10.538684274052116 8.23283466423578 10.87561849480937 0 0 0
47 4 11 0.06 11.198929959819973 6.645742311765593 14.54995664834118 0 0 0
46 4 11 0.06 11.644140807963357 8.14427437585789 13.799772096856731 0 0 0
42 4 1 0.22 11.240304436656295 7.195116663750144 13.612187108473591 0 0 0
410 35 20 -0.5 14.024168780080892 6.11675515420725 13.496230628357251 0 0 0
414 35 1 0.22 14.878652420449981 9.177300189361102 13.195209837647848 0 0 0
409 35 9 0.52 15.041660853842288 6.838361667538556 13.78266073492855 0 0 0
420 35 11 0.06 14.01295884800177 9.840947287223303 13.184579800230859 0 0 0
418 35 11 0.06 15.768374516029816 9.829155187273269 13.347979632500765 0 0 0
55 5 11 0.06 16.482228651968196 5.126780171355688 9.125537955611437 0 0 0
49 5 9 0.52 19.533912944316697 5.425102060854548 10.315359349465394 0 0 0
56 5 11 0.06 16.74505821473291 4.450771684122666 10.712622632975158 0 0 0
417 35 11 0.06 16.459836846578554 4.914026736326966 14.845783328392965 0 0 0
412 35 19 -0.35 14.92337476317289 8.16980797598798 14.171905762466798 0 0 0
419 35 11 0.06 14.804109910523048 8.762538783377835 12.204950391610152 0 0 0
142 12 11 0.06 19.952267757388686 7.881432905778132 11.89196823558225 0 0 0
413 35 1 0.22 16.710101062401854 5.124969883076732 13.774493885123029 0 0 0
411 35 19 -0.35 16.315483846106904 6.364202731291152 13.19014256546199 0 0 0
144 12 11 0.06 19.27569456862123 7.067355580398377 13.315198780570608 0 0 0
143 12 11 0.06 -0.05758437555642498 8.133961468641875 13.463637895533468 1 0 0
138 12 1 0.22 19.69237877089671 7.992331634357589 12.907597894318616 0 0 0
136 12 19 -0.35 18.639274681601538 8.952309651353232 13.068453964951678 0 0 0
134 12 20 -0.5 17.417484881471083 8.534789179192623 11.124444943662164 0 0 0
133 12 9 0.52 18.09159305304272 9.307224036701392 11.82654664111654 0 0 0
315 27 19 -0.35 4.180631763242251 12.533098363915643 11.020174490445996 0 0 0
127 11 11 0.06 1.6222935438817143 9.399026255098297 10.889520438283796 0 0 0
652 57 20 -0.5 3.269983453034763 10.489005962600842 14.338455553552581 1 0 0
651 57 9 0.52 2.181317551922891 10.977693547183945 14.288829004204292 1 0 0
653 57 19 -0.35 1.0292889902029096 10.20236767336071 14.53426798560647 1 0 0
318 27 1 0.22 3.539018825654376 15.166464499091733 13.27312553673238 0 0 0
657 57 11 0.06 19.554624074060825 11.215331599880335 14.849127649074479 0 0 0
313 27 9 0.52 3.4396360842486526 13.667616523598317 11.449431199449574 0 0 0
316 27 19 -0.35 4.170773577556496 14.738524619415408 12.050492838679475 0 0 0
656 57 2 0.22 0.01426718370617841 11.072959227788928 14.840335648497701 1 0 0
324 27 11 0.06 4.093149334010466 16.035181593598946 13.639287853696741 0 0 0
658 57 11 0.06 0.20318355363129104 10.261455831193283 15.574517395790458 1 0 0
323 27 11 0.06 3.518785452384694 14.382204982374454 13.957380519813249 0 0 0
655 57 2 0.22 0.6824043013753168 12.384805763024309 15.1376717548232 1 0 0
406 34 11 0.06 7.905273068084854 13.165578408226896 11.931720089797633 0 0 0
44 4 11 0.06 7.50505548440463 8.169042188872801 11.482868110704134 0 0 0
408 34 11 0.06 9.233295177219095 11.9713336986863 11.779105910512376 0 0 0
407 34 11 0.06 7.853027638314025 11.727655880630877 10.830278156041068 0 0 0
402 34 1 0.22 8.529545589732582 12.538485689834262 11.14787354868517 0 0 0
398 34 20 -0.5 11.45979907219128 13.23049385665278 10.223517656583606 0 0 0
397 34 9 0.52 10.343132508741636 13.853938497694909 10.40913030468888 0 0 0
252 21 11 0.06 8.282563020340893 14.071466974019522 14.189211802819809 0 0 0
247 21 11 0.06 12.493480134773101 12.768617377697646 12.768890405658427 0 0 0
248 21 11 0.06 12.360778919916896 11.45484201722671 13.957408439481746 0 0 0
243 21 19 -0.35 10.721038501052886 12.85630429932422 13.864299975473413 0 0 0
249 21 11 0.06 11.268652486622269 11.515067015227496 12.56114044487888 0 0 0
245 21 1 0.22 11.78185439914398 12.132614876651976 13.325179456204264 0 0 0
472 40 19 -0.35 14.556569102664383 14.210669060797601 13.8766988035493 0 0 0
399 34 19 -0.35 10.34129811909307 15.29125904329468 10.261366749286582 0 0 0
474 40 1 0.22 15.641899859949252 15.014810396353525 13.637990007748682 0 0 0
478 40 11 0.06 15.189814485815562 15.907894272681226 13.218333337651485 0 0 0
139 12 11 0.06 18.338636750383735 12.044432638151891 12.860046804521895 0 0 0
140 12 11 0.06 18.131694474176072 12.587891627172825 11.304633370650276 0 0 0
470 40 20 -0.5 15.2434522201803 11.960416282369312 13.96533140096364 0 0 0
141 12 11 0.06 16.877119502842113 11.621209288263415 12.054967374483988 0 0 0
135 12 19 -0.35 18.58430045160283 10.560610800220406 11.333158628343725 0 0 0
137 12 1 0.22 17.94313987827934 11.707238130142667 11.946607169275286 0 0 0
469 40 9 0.52 14.969509442533443 13.005793124558565 14.57601463322006 0 0 0
480 40 11 0.06 16.52512733235086 14.568059641696657 13.102342973030437 0 0 0
466 39 11 0.06 1.3882261316403706 15.951988214471989 10.811384128459567 0 0 0
186 16 1 0.22 1.642562424355492 0.4831654342531605 14.506769640904588 0 1 0
322 27 11 0.06 2.5296381071985516 15.480807246361689 13.154744914487136 0 0 0
190 16 11 0.06 0.6083560650006498 0.5638359357069718 14.129166206488682 0 1 0
191 16 11 0.06 1.6200050696666084 20.2144159331389 15.158611396825435 0 0 0
722 64 20 -0.5 18.887224552110112 14.46046540692358 14.042299462004737 -1 0 0
458 39 20 -0.5 2.166857765267902 17.94621490453532 12.5004833127473 0 0 0
459 39 19 -0.35 1.0171779874142106 19.28459130677967 11.003432835649633 0 0 0
457 39 9 0.52 1.9962222063717308 18.295507387217462 11.336363379925814 0 0 0
373 32 9 0.52 6.410991766230614 19.270387039688508 10.378558168891052 0 0 0
400 34 19 -0.35 9.112146047669999 13.22636589621481 10.072036136416388 0 0 0
371 31 11 0.06 8.967057614888619 0.7192119203805081 12.211912416598892 0 0 0
376 32 19 -0.35 7.111017255907343 18.034142947246174 10.36011358836416 0 0 0
382 32 11 0.06 5.689755383855853 17.34437765868589 11.840178125857623 0 0 0
384 32 11 0.06 7.316348720386055 16.82014894366502 12.091531274948988 0 0 0
378 32 1 0.22 6.578836083307968 17.041143498194952 11.278124442306424 0 0 0
383 32 11 0.06 6.151080324252442 16.13563892016306 10.878689677947243 0 0 0
662 58 20 -0.5 6.866236219548147 15.85965051862112 14.269357764893162 0 0 0
366 31 1 0.22 9.619579011586888 0.8573256670325793 11.350785356795242 0 0 0
372 31 11 0.06 9.24826855132671 0.2758091780447034 10.537315757472122 0 0 0
404 34 11 0.06 10.663066149780645 17.141580163111996 11.456511866245076 0 0 0
84 7 11 0.06 14.824552540864062 19.665541216056436 14.333618204213797 0 0 0
403 34 11 0.06 11.51280373784544 15.550719850890513 11.847626752502359 0 0 0
405 34 11 0.06 9.84967758539687 15.757530699235751 12.106611015731435 0 0 0
401 34 1 0.22 10.637845205961536 16.00927481553857 11.475087240621214 0 0 0
562 48 20 -0.5 11.89073250802059 18.967540311802455 12.837327144384254 0 0 0
561 48 9 0.52 11.77564508316332 18.575906441842914 13.990206763064878 0 0 0
564 48 19 -0.35 12.939676167896684 18.14021380462243 14.579938007910622 0 0 0
83 7 11 0.06 15.98411420706617 18.45965482366977 13.758895499920827 0 0 0
78 7 1 0.22 15.697391070841078 19.501260619527358 13.70332253783569 0 0 0
82 7 11 0.06 15.282162023661343 19.701962752465253 12.673999195415913 0 0 0
479 40 11 0.06 16.127753413898663 15.352667333307748 14.530367379900596 0 0 0
14 2 20 -0.5 19.43750455491634 15.862478073869006 9.618201373982673 0 0 0
108 9 11 0.06 17.46702812022646 18.51419457240326 8.418460726370768 0 -1 0
106 9 11 0.06 18.119425072445242 18.562423874255114 10.092137545685766 0 -1 0
76 7 19 -0.35 16.792886259167084 -0.24563612104979116 13.988800456258058 0 1 0
721 64 9 0.52 19.002789726932175 15.675090638062295 14.007130066315879 -1 0 0
711 63 9 0.52 15.356218624318657 17.14234247499415 10.091956206497992 0 0 0
729 64 11 0.06 0.1034530735757207 18.17492208064254 14.17447274763197 0 0 0
727 64 11 0.06 19.33723804376344 17.43932678064952 11.967410269645674 -1 0 0
712 63 20 -0.5 15.943247616040967 17.58243999368831 11.127102188834801 0 0 0
728 64 11 0.06 18.404859982120655 18.508760985638133 12.779618134096669 -1 0 0
726 64 2 0.22 18.87762198778492 17.602502105787714 13.038268093145225 -1 0 0
725 64 2 0.22 19.79485506541499 17.70727067535506 14.184886636479975 -1 0 0
723 64 19 -0.35 18.475091639107287 16.298447592429397 12.953560248923036 -1 0 0
738 70 26 -0.39 2.412752910308514 4.7548192004959695 19.316927022980774 0 0 -1
296 25 11 0.06 19.920202242130365 4.149357185171941 15.381370470593767 0 0 0
192 16 11 0.06 1.8770359268001369 1.3152685849903472 15.214065916046769 0 1 0
640 55 11 0.06 4.934207492749444 1.4595145980516444 19.62850835678998 0 0 0
639 55 11 0.06 3.341478124101079 1.2820452560135907 19.291434140694623 0 0 0
635 55 2 0.22 4.247950256567598 1.4734290773710323 18.75480218541984 0 0 0
636 55 2 0.22 4.606079884162909 0.3814717876528593 17.712878852234883 0 0 0
637 55 11 0.06 3.698028173210039 0.26601391474585245 17.10331559606366 0 0 0
634 55 19 -0.35 4.887113610119535 2.6872317739349345 18.37126089926461 0 0 0
297 25 11 0.06 19.875266445564915 4.237701686821436 17.099339270081032 0 0 0
299 25 11 0.06 2.9130226668072434 3.9020657390085365 16.64281396421518 1 0 0
156 13 11 0.06 -0.175731490752739 2.237185790625728 18.018137149155585 0 0 0
155 13 11 0.06 19.726377384973247 0.8246979981680094 18.806556987842274 -1 0 0
300 25 11 0.06 3.349878072859795 4.256223697433849 14.953621823047529 1 0 0
488 41 11 0.06 7.182105741390381 2.8645907777052715 19.960789290490236 0 0 0
483 41 19 -0.35 9.096947462404348 3.4602143041031264 -0.037492529710709765 0 0 1
499 42 11 0.06 7.719130417302939 4.897952915216687 15.270391670686916 0 0 0
92 8 11 0.06 8.907303589258232 0.6968596542416239 15.215213071693556 0 0 0
91 8 11 0.06 9.914249819585201 1.2724348549032236 16.62497243368044 0 0 0
487 41 11 0.06 8.492128255940214 2.2354360596707425 19.02449554430389 0 0 0
485 41 1 0.22 8.18988493182097 3.090390904148855 19.626364951333855 0 0 0
633 55 19 -0.35 5.815637627557117 0.9378865623962425 17.141987099459538 0 0 0
93 8 11 0.06 10.562759674143711 0.37851601060029383 15.162058939375575 0 0 0
631 55 9 0.52 5.745877037990792 2.353416819636459 17.335187760727905 0 0 0
89 8 1 0.22 9.819452159579255 1.1539140054378165 15.515538106690888 0 0 0
632 55 20 -0.5 6.53362153518013 3.114083557617257 16.79244713741443 0 0 0
587 50 11 0.06 5.403505875671312 5.278748760384438 19.03272726638019 0 0 -1
491 41 11 0.06 12.551418685137792 4.707161416511841 -0.22653309692333135 0 0 1
492 41 11 0.06 12.42029086122983 4.164860570320116 1.40256507236918 0 0 1
490 41 11 0.06 13.388702618312422 3.333638956482364 0.1766620743330825 0 0 1
86 8 20 -0.5 10.741820578457498 3.721378950484106 16.403055870838326 0 0 0
486 41 1 0.22 12.47018167838094 3.824551319742471 0.3138775899387636 0 0 1
482 41 20 -0.5 10.460070672548122 4.297291170441856 18.97437883303965 0 0 0
484 41 19 -0.35 11.419430698123266 2.9577540323342415 -0.05009554183728199 0 0 1
481 41 9 0.52 10.346943754729898 3.5791729242505848 19.98687455250216 0 0 0
702 62 20 -0.5 12.895908888213599 0.4818647194096748 16.408980249186367 0 1 0
701 62 9 0.52 12.723440860989315 -0.2160312815499867 17.39481380044558 0 1 0
704 62 19 -0.35 13.682656621454477 19.592909143703444 17.950781669035166 0 0 0
280 24 19 -0.35 14.990910231601697 5.383595367394555 19.603360126000897 0 0 0
287 24 11 0.06 15.619650001976233 4.253878947400103 17.92967234785206 0 0 0
282 24 1 0.22 15.659981661223833 4.244081071402228 18.976473828402387 0 0 0
295 25 11 0.06 18.77463367283737 5.167095695453298 16.215165563292175 0 0 0
154 13 11 0.06 19.588592032669442 2.3511106427912436 19.661514314072672 -1 0 0
150 13 1 0.22 19.597604515304063 1.868238670514549 18.69021495632527 -1 0 0
148 13 19 -0.35 18.406089806412503 2.0743193703827782 17.980324177258844 -1 0 0
145 13 9 0.52 18.511164883642614 1.363817582797432 16.77836710194836 -1 0 0
146 13 20 -0.5 19.310046682301316 1.7060597866452065 15.88085726793204 -1 0 0
149 13 1 0.22 16.43116035104524 0.29713044184204496 16.85874048084268 -1 0 0
147 13 19 -0.35 17.802281749372394 0.1518863388121483 16.61895791300879 -1 0 0
151 13 11 0.06 15.874656310143642 0.9956814441106399 16.274194812887053 -1 0 0
153 13 11 0.06 16.090710453405247 0.42867796687127324 17.88460107906445 -1 0 0
152 13 11 0.06 16.12413761902861 19.938038769992797 16.656418195687294 -1 -1 0
293 25 1 0.22 19.821502999109235 4.79421532573211 16.18403823445194 0 0 0
289 25 9 0.52 1.2367575596424987 5.694354918753922 15.529729863119554 1 0 0
298 25 11 0.06 4.348922107366772 4.840875950374406 16.201790101470902 1 0 0
739 70 26 -0.39 0.2946541041876757 4.623975762324297 19.69975840765964 0 0 -1
238 20 11 0.06 1.0173746340913812 8.66393401904986 17.870298284564022 0 0 0
294 25 1 0.22 3.3183537559631104 4.66935318617822 15.965399441188694 1 0 0
292 25 19 -0.35 2.454988502117071 5.726634247186018 16.24928524396114 1 0 0
234 20 1 0.22 2.0787561566607824 8.674135954999514 17.83755444238884 0 0 0
240 20 11 0.06 2.6358451285028814 7.976041238524205 18.477089026740632 0 0 0
232 20 19 -0.35 2.534702886291547 9.979625922390396 18.021291229708762 0 0 0
239 20 11 0.06 2.3831479282315873 8.366538665167434 16.852553259451945 0 0 0
229 20 9 0.52 2.0425440465333713 10.745178369258566 19.194428163513223 0 0 0
312 26 11 0.06 19.559480766896925 6.517876088953912 18.435825291057192 0 0 0
582 50 20 -0.5 8.152754468645204 7.613722569623043 19.884632260832134 0 0 -1
590 50 11 0.06 3.9885639846729717 6.98749016421123 -0.09464626189748873 0 0 0
501 42 11 0.06 8.786644536988224 5.235680924539718 13.98480710445034 0 0 0
585 50 2 0.22 4.889206195871952 6.938650118896922 20.001320496442464 0 0 -1
589 50 11 0.06 4.825836437962927 7.356275517686034 19.048277413641156 0 0 -1
494 42 20 -0.5 5.857027426064371 6.46148519304291 14.671567354339649 0 0 0
584 50 19 -0.35 5.88870296225172 7.956427726471672 20.26435127624092 0 0 -1
586 50 2 0.22 5.616702949271297 5.617876594544318 20.052034439366857 0 0 -1
676 59 2 0.22 7.216108827422822 8.505826145817737 17.051518070905804 0 0 0
671 59 9 0.52 8.897866707677366 7.056460825179525 17.133373713791425 0 0 0
673 59 19 -0.35 7.529614625587714 7.137662653849379 17.02405333692517 0 0 0
675 59 2 0.22 8.566758990383338 9.165619654849205 16.78899875573553 0 0 0
677 59 11 0.06 6.4102417692477625 8.69789936876947 16.306693546727892 0 0 0
678 59 11 0.06 6.768854486255829 8.718001709297981 17.99979052121499 0 0 0
674 59 19 -0.35 9.634610376933939 8.18440088443953 16.8021955802949 0 0 0
672 59 20 -0.5 9.384737514454576 5.9468638877848505 17.072263460993497 0 0 0
733 67 31 1 10.5533360458085 4.923104912529909 17.475893234039127 0 0 0
594 51 19 -0.35 12.259362138678156 7.297019262241265 18.98626893179307 0 0 0
593 51 19 -0.35 12.780212703279542 7.492817462451447 16.684595576867697 0 0 0
592 51 20 -0.5 12.412854356856641 5.430111274795468 17.500411939041307 0 0 0
591 51 9 0.52 12.651617443039349 6.664536798347287 17.767428240888105 0 0 0
595 51 2 0.22 12.319215382325272 8.676218151855316 18.730333659535425 0 0 0
596 51 2 0.22 12.785157132587905 8.835162000414009 17.291429398922524 0 0 0
600 51 11 0.06 11.25971126043986 8.806104208018041 18.960742382146552 0 0 0
598 51 11 0.06 12.154615642584103 9.610329664583693 16.72698234637715 0 0 0
597 51 11 0.06 13.88582394375247 9.15991686167734 17.37103274580395 0 0 0
599 51 11 0.06 12.897184690871784 9.328203529550786 19.376958863867635 0 0 0
284 24 11 0.06 14.974665986210132 8.086198727766446 19.55379418391071 0 0 0
283 24 11 0.06 15.865402288853055 9.11556556237435 -0.030306492231219617 0 0 1
281 24 1 0.22 15.314865818222065 8.16679377465432 0.015041385960383347 0 0 1
291 25 19 -0.35 0.09057214334598551 5.84396733554358 16.265778072906016 1 0 0
311 26 11 0.06 19.21851418285764 6.79716947216826 20.05143771065715 0 0 0
310 26 11 0.06 20.298404980190725 7.8602810897390825 19.220753678674136 0 0 0
306 26 1 0.22 19.322855169288363 7.327219254617659 19.091322293401877 0 0 0
302 26 20 -0.5 17.495226818255603 7.34310630959846 16.544363879436684 0 0 0
304 26 19 -0.35 18.17393080933245 8.044427931253272 18.683566135015536 0 0 0
301 26 9 0.52 18.029007435644115 8.156893887498413 17.284144241099007 0 0 0
303 26 19 -0.35 18.49114354576581 9.39556683860853 16.690879402982638 0 0 0
307 26 11 0.06 16.902296751838016 9.844908876295868 15.415415562152008 0 0 0
305 26 1 0.22 17.274164421526827 10.176613439267658 16.320835495984642 0 0 0
231 20 19 -0.35 0.7904519589598242 10.407859702361838 19.728512833126548 0 0 0
659 57 11 0.06 0.1314477070507809 13.34829083889181 14.991589245296407 1 0 0
654 57 19 -0.35 1.9928025641654905 12.321897958620534 14.544204374388546 1 0 0
230 20 20 -0.5 2.7106664653846986 11.69214437230068 19.683519205302186 0 0 0
536 45 11 0.06 4.4958431336082905 13.364094441838244 15.910662759202378 0 0 0
533 45 1 0.22 4.475596072842086 12.965068917756247 16.931080731717916 0 0 0
235 20 11 0.06 19.514757055409074 10.968469017561596 19.540613366861226 -1 0 0
537 45 11 0.06 4.260462429476958 11.876129237481594 16.77341537140264 0 0 0
531 45 19 -0.35 5.669457619481454 13.379613279725957 17.611299806541382 0 0 0
660 57 11 0.06 0.6976616535718252 12.357679221931527 16.277534386694267 1 0 0
535 45 11 0.06 3.6136158124405946 13.391618055371472 17.451684482428902 0 0 0
233 20 1 0.22 -0.15386821233590872 11.43461292105356 19.337656861699482 0 0 0
236 20 11 0.06 0.11792634277828834 12.48325979398409 19.77381863733496 0 0 0
680 59 11 0.06 8.972708497605305 9.729515236977047 17.583680014027365 0 0 0
679 59 11 0.06 8.475758840011391 9.793292829718318 15.994858000894371 0 0 0
251 21 11 0.06 7.388656963774534 14.022238737909213 15.708055061100087 0 0 0
246 21 1 0.22 8.119330555906542 13.506144070141016 15.079874907672805 0 0 0
244 21 19 -0.35 9.355405935317789 13.487513485672796 15.772941186542539 0 0 0
250 21 11 0.06 7.723077454439046 12.594471294494246 14.676128448078536 0 0 0
538 45 11 0.06 5.439530960064794 10.593823553851184 19.82710170299114 0 0 0
530 45 20 -0.5 7.02721602969304 11.536099522192636 17.356441633909423 0 0 0
529 45 9 0.52 6.409858378646883 12.280031759360655 18.08406000246394 0 0 0
532 45 19 -0.35 6.503370927400293 12.21457696405726 19.46968465583899 0 0 0
619 53 11 0.06 10.650275518415654 12.933502871401792 19.778382047989023 0 0 0
618 53 11 0.06 8.197425690484764 13.986746650938755 18.131500016378823 0 0 0
616 53 2 0.22 9.113033481851907 14.245200231819075 18.66828688706555 0 0 0
617 53 11 0.06 8.78926179855322 14.591482263626519 19.663571175917944 0 0 0
620 53 11 0.06 9.468498229522403 12.109751656826175 18.601172336759035 0 0 0
615 53 2 0.22 10.097016083430264 12.982756586237556 18.78615493030277 0 0 0
360 30 11 0.06 13.90069064307173 15.701886612285737 20.233675437994105 0 0 -1
253 22 9 0.52 14.759698440374148 11.708787435663647 -0.015500781932641039 0 0 0
241 21 9 0.52 10.257715517567968 12.581644829908102 15.153545715278012 0 0 0
254 22 20 -0.5 14.494389882891287 11.414130131833621 19.428018440824147 0 0 -1
242 21 20 -0.5 10.77456072331141 11.74860253098447 15.86758957226633 0 0 0
614 53 19 -0.35 11.357210617040474 13.561419483327173 18.43622235098736 0 0 0
473 40 1 0.22 13.921408220820314 13.267232160735915 16.797357572748083 0 0 0
477 40 11 0.06 13.691130101981225 14.243371670051413 16.50151991978429 0 0 0
475 40 11 0.06 13.189698993876263 12.465745832395744 16.661421154528412 0 0 0
611 53 9 0.52 11.22141402621533 14.934475983276734 18.190873191154527 0 0 0
476 40 11 0.06 14.201089149980952 13.3488072947561 17.832375288678573 0 0 0
257 22 1 0.22 16.684135527154453 12.948699729179767 -0.045139468471305566 0 0 0
260 22 11 0.06 17.3374630318007 13.669794812204279 0.47526204018454454 0 0 0
471 40 19 -0.35 15.039925367744909 13.060575290973157 15.995987648070884 0 0 0
255 22 19 -0.35 15.34705404796988 12.867400209238141 0.4307256434880107 0 0 0
237 20 11 0.06 -0.08730993476235172 11.569796458482282 18.258118134330353 0 0 0
259 22 11 0.06 16.666316329030114 13.394477277639796 19.62830154703403 0 0 -1
309 26 11 0.06 17.41506121879513 11.273106763398147 16.163433568111596 0 0 0
308 26 11 0.06 16.3190478562174 10.242952494318544 16.891890504261916 0 0 0
692 61 20 -0.5 18.495796726482517 12.97702784204509 17.855363316853637 -1 0 0
694 61 19 -0.35 17.44757922124672 14.887604046494804 17.24085391183103 -1 0 0
691 61 9 0.52 18.598955298477406 14.192860493790295 17.666369293014554 -1 0 0
167 14 11 0.06 2.0384086877853407 20.082366408207125 0.18836331812883028 0 0 1
160 14 19 -0.35 1.4108152388544175 18.130457388417298 20.042495663218233 0 0 0
638 55 11 0.06 4.850968310992821 19.96211642662925 18.077221417594043 0 -1 0
158 14 20 -0.5 1.8785593486298802 19.54648187814434 18.31260606776586 0 0 0
163 14 11 0.06 1.0486933585688347 16.559961232902857 17.079041887809556 0 0 0
164 14 11 0.06 2.463519882673395 15.591814519554712 17.290755364624662 0 0 0
165 14 11 0.06 1.3909237757877222 15.859153487058848 18.678015501813654 0 0 0
159 14 19 -0.35 2.6296086960800333 17.450703664402486 18.099868807720245 0 0 0
161 14 1 0.22 1.8004688562613302 16.316457169646004 17.806470707064367 0 0 0
157 14 9 0.52 1.9283100708328256 18.373115049409805 18.750608159165488 0 0 0
661 58 9 0.52 6.631994757462588 16.684315070156753 15.157522210488073 0 0 0
613 53 19 -0.35 9.921695384852903 15.438793726308091 18.200894291498308 0 0 0
761 73 26 -0.39 5.795459736888705 19.112941962153506 -0.02064984394943392 0 0 0
663 58 19 -0.35 6.1571854949410625 16.07967620519441 16.334777252997434 0 0 0
668 58 11 0.06 6.584600026261463 16.06816530990282 17.61174586327477 0 0 0
664 58 19 -0.35 7.318311661979179 17.96741475056553 15.35559549340098 0 0 0
667 58 11 0.06 5.921444018037921 17.70325554072858 18.07475728518372 0 0 0
758 73 26 -0.39 7.838528114629609 18.441731377401776 19.823696252108 0 0 -1
763 73 26 -0.39 7.129476742109596 -0.07245150792684868 19.37955441725369 0 1 -1
670 58 11 0.06 8.486570032300433 17.542532290443386 17.238910958290887 0 0 0
669 58 11 0.06 7.616065266432981 18.972033227679894 17.251851398656637 0 0 0
665 58 2 0.22 7.605207169988526 17.971705653018155 16.781979125700392 0 0 0
666 58 2 0.22 6.389198085831453 17.10201425201586 17.245754900775303 0 0 0
563 48 19 -0.35 10.61490220396165 18.000059648156114 14.495449316249454 0 0 0
707 62 11 0.06 11.172498957797027 19.880424409993157 19.926740271315413 0 0 0
703 62 19 -0.35 11.39234271378905 20.253383568545033 17.84377504042552 0 0 0
570 48 11 0.06 12.82229929727241 16.23891584955482 15.352914623920375 0 0 0
358 30 11 0.06 14.479180387133402 17.197971265179156 0.23952065306130155 0 0 0
612 53 20 -0.5 12.12938354980412 15.68912527629879 18.210659239790818 0 0 0
568 48 11 0.06 10.542699125096128 16.48956144461132 15.582350733647282 0 0 0
709 62 11 0.06 13.455553467302925 19.6601802906103 19.814321300205812 0 0 0
565 48 2 0.22 12.533306184192563 17.237338672930516 15.537208577794098 0 0 0
708 62 11 0.06 10.9595204190025 18.629177155685653 18.66016596574245 0 0 0
706 62 2 0.22 11.536432367731171 19.452258530683572 19.026069591072677 0 0 0
710 62 11 0.06 13.115274182065415 18.08080809452338 19.433243208255213 0 0 0
567 48 11 0.06 10.906406328203564 17.620789096667302 16.790421554124073 0 0 0
566 48 2 0.22 11.025669956909667 17.47162561581398 15.7463154928076 0 0 0
569 48 11 0.06 13.08275772982626 17.219770853826756 16.457690277016358 0 0 0
705 62 2 0.22 12.989570183149302 19.069633365208794 19.008657375332866 0 0 0
770 74 26 -0.39 18.7312500312596 19.343855456837705 19.743457063624998 0 -1 -1
724 64 19 -0.35 19.79172007148402 16.45192435470231 14.873496519408668 -1 0 0
730 64 11 0.06 19.2314502436876 18.46859136029759 14.785151676674364 -1 0 0
767 74 26 -0.39 16.534491432684334 18.670930545342472 19.334263939324675 0 -1 -1
699 61 11 0.06 16.878356921182938 16.267080931257674 18.407786572142303 -1 0 0
697 61 11 0.06 19.065246563524955 15.84848070342439 19.408068088194817 -1 0 0
693 61 19 -0.35 19.482039325121534 15.028489693671466 18.320521520962142 -1 0 0
698 61 11 0.06 19.24495734674268 17.339299229184412 18.488312484049104 -1 0 0
700 61 11 0.06 17.685518884699146 17.152620042223532 17.025018524670948 -1 0 0
695 61 2 0.22 17.6415698687717 16.23255378255024 17.651973171194893 -1 0 0
696 61 2 0.22 18.98167147209935 16.300027286283235 18.408890715905198 -1 0 0

Velocities

518 -0.00015527644665792298 0.0029006056395685887 -6.697475299622303e-05
741 -0.0031558814479701737 -0.0016984511093427245 -0.002179108396418208
344 -0.004895586611376594 0.011358297188261791 0.011528702398273142
736 -0.00449759589424169 -0.002169574761236059 0.0014573146503376862
341 -0.0004999844128820134 0.01006719309417341 -0.0002984909869721289
269 -0.0023163025711706916 -0.001680748445539364 -0.0014323052415522763
273 0.01606354107695842 0.0035825055662852714 0.020673314265941257
271 0.01038354869969127 0.013410944722389878 -0.007434073667871149
345 0.005035007852556039 -0.01153048833453913 -0.032494282717619165
740 -0.0030442452705416417 -0.004570429639137348 -0.004970144678886101
343 -0.010508032514050653 -0.00022206533118777143 -0.017642424770074643
339 0.005076733664013013 -0.011568105623389707 0.00017891229616377846
337 0.006656022583924061 5.3374548487727256e-05 -0.0015780904099457432
338 0.0017201798306769169 0.003564206628440057 0.001647750499274369
731 -0.0014149139495142227 0.007261318293597653 0.0005101967758778696
342 0.0002253206808100573 0.005509968809844531 -0.00035361375456864966
340 0.006688328869421897 -0.005308640021550691 0.004730775978192956
759 0.004201653525331742 0.0009622036939224887 0.0016157263894261236
346 0.014723308577240803 0.014015110060165455 -0.012946854030388881
348 0.024893727795528002 0.020886278569646012 -0.027345290938184986
588 0.018685179013609665 -0.015775802062713024 0.014178697860100219
489 -0.014202099678274622 0.005938528741398963 -0.018396555971680217
542 -0.001673621599717461 -0.0029787837334602826 -0.00014726295569026578
543 -0.0055615182845182255 0.0002854406182797759 -0.0009193701607299585
541 0.001674779510071797 -0.007754676286248546 0.002208445921045017
544 0.007924325527180736 -0.005146809430443634 -0.000787183446336301
546 -0.00846937616970862 -0.006481650313325698 0.0032072228267464725
547 -0.023550114107135256 0.0232585508696518 0.02503400737955859
548 0.0010472094456957072 0.008789007750257998 0.01584809159423164
545 -0.0032138862294166124 -0.0017642913773709148 0.006228663238618667
550 0.022505223318940365 0.015085689130696136 -0.026751201289734062
272 0.0012194156598991331 0.020302241916258786 -0.011873964962964735
275 0.009217692739838173 0.04854959140230224 -0.019338767431133875
267 -0.0035217397181283748 0.0032428181541584496 0.0011169302966953776
274 0.0041252036769257325 0.04537007713784247 0.009338453556597558
270 0.0028532088646426985 0.004320784084557295 0.0029991021995335048
268 0.004098114191406567 0.0009647117955701435 0.004523239326447013
265 0.009662735344211314 -0.008444793722972447 0.00503205841151224
276 0.014119913727174633 0.01898340803997482 0.00010408939349390879
266 -7.326795282755533e-05 0.0022758099177995475 -0.00464472310527944
286 0.016865903007587314 -0.010040845131886848 0.005900456678798087
278 0.006653973636542084 0.010817812152656184 -0.006898895064150249
765 0.005156669069407311 0.004759677913012494 0.0037890718837312
288 0.011146125801249872 0.006408508815494745 0.004014052899703159
737 0.003016489513376846 0.003401300549510833 -0.00385725870287327
735 0.0043281391897133535 -0.0017505409990076382 0.003936990609293697
218 0.006800418132834659 -0.004869597099597602 0.002326285673905616
217 0.0036078958099543166 -0.00038238999942155004 -0.003179451668863108
220 -0.0030699365531205434 0.0005385021800359013 0.0010177289117388603
222 0.0028478859151375557 0.00015560523133474762 0.002116027943643894
228 0.00779847479857151 0.038896327118630336 -0.0186305908990611
742 -0.004386134173526478 -0.0022218499039800637 -0.00044572780465997785
219 2.419435262149356e-05 -0.00029957991299409744 -7.712066865200611e-05
225 0.0010348153248277926 0.002864279729352684 0.0004603685126172445
223 -0.005433045805483828 0.03478748158040876 -0.02554429795591433
221 0.0016651248021701394 0.0036518732913526225 0.0017208321466437662
227 -0.021036802448796254 0.009388435325778976 0.0049251923903254925
446 -0.0058571727869785525 0.0015793328548971792 0.0038863764916587337
224 -0.008810101096213881 0.0008561521351998886 0.02990120170052114
445 -0.0033980381227698875 -0.0033434904354284925 -0.004937245915952111
448 0.0014650501278951472 0.00019734372522977649 0.007738018231963844
581 -0.0015550352607373362 0.0033404953617769025 -0.001442027045941685
583 0.0031910049477945853 0.0008446600444816995 0.004001948132962678
450 0.0001648731437210012 -0.006147898150171053 -0.005047938445085824
454 -0.0009301027011741728 0.024006625131584573 -0.018368560045421117
452 0.008642260260203495 0.01144256604322936 0.011303300014984767
453 -0.03406520801449364 -0.00019887630779432704 0.004681829792008358
449 -0.0018260322732952354 0.0015303193785552156 -0.0007055127677601893
447 -0.0058710698719853065 0.002323566287007926 0.006527523421996318
451 0.0012724301860039733 0.009952253598774288 -0.028287810724028636
424 -0.0070975446193923195 0.00213267055458732 -0.0026664462153452493
285 -0.0031788956462855816 0.004175306866280523 0.007848870289619277
421 -0.0007015475177438304 -0.0029164939339858947 -0.003391508139617736
431 0.04269396462128426 0.012314109246533703 0.010860409821575379
423 0.001913355408088241 -0.0035759936527509357 0.0012917671634914433
68 -0.009295922537905166 -0.013248598732405718 -0.004817498387329665
62 -0.0028316248370883544 -0.0009031561949285636 0.002194855021000294
69 -0.0014311592098522946 0.013001376463802393 -0.018601334441529817
61 0.0018719460255928885 -0.0021758642686207003 -0.0025239494887069804
65 -0.007639808382351775 -0.0024523347730338375 0.0008453810361266723
67 0.007568584602009899 0.016982987873509686 -0.01665652692150337
63 -0.005494907986303174 0.00048153637681550113 0.0016510537941857712
429 0.029523544855523623 -0.004674509331208244 -0.010471381374726287
279 0.0010026289954276377 0.004383815691652814 -0.0014328333899213319
277 0.004694254160259126 -0.0005366560948671209 -0.0016936370057335601
427 0.007064801610904605 -0.02308879190848441 -0.006255305333228661
425 0.0030402234654192542 -0.0013270445873596961 0.0006071005402024121
428 -0.0007808002715221075 -0.009075072764772929 -0.01809709968278417
226 0.02244293736408305 0.016217355402643914 -0.014045886563925353
196 -0.004271375233283218 0.004213002930493051 0.0029656462859876157
198 -0.0006438064908017735 0.009513688148286268 0.0022824273786597933
203 0.0026762670406277186 0.03863964361849693 0.028740981408084572
10 -0.007605919827027057 0.0022475560593251467 -0.009329172894721068
202 -0.00014102748920647858 -0.030829045018883987 0.018189344864984844
754 0.002347807555693075 4.284241404352022e-05 -0.0059411858017740906
193 0.0038876819605861927 0.001833889235104922 0.0050761018967652735
756 -0.0038952764190189654 -0.0004790697237826521 0.004783129312855007
204 0.006739542850010301 0.01728727202837464 -0.016984087876150588
195 0.00642244717047935 0.00016219074724460115 0.0013295707236419534
3 -0.001083756286597425 -0.00031227013451951035 0.003324713990221036
9 0.00270834404097128 -0.025497966567331554 0.002862177059730871
5 -0.0036326536500702372 0.00778022594542398 -0.0014570866766862132
8 -0.002487436570006223 0.002163661093591363 -0.014266231533015726
748 -0.0014437071816822426 0.005541760608599853 -0.0006875765276630824
746 0.0008283060113214016 0.003404632146500976 -0.006434406729486095
743 -0.0043945621260230916 0.005403000839061379 -0.0016926910954120236
745 0.0009580766857698671 0.002609716139876052 0.009034466269564539
747 0.0021883700546780713 -0.001321717346389978 -0.00240787039203344
540 -0.03207236398472635 0.018209387428455556 -0.017786296728166985
7 0.02086109931231134 -0.033868572385889466 0.029500092361838152
201 0.0015394870332474425 -0.03214777740199067 -0.0030041613002388923
199 0.015610550359430491 0.0014644697978201831 -0.008272926576938937
539 0.007262348667345876 0.008839648228530004 0.003525013753304559
534 -0.004840908902791822 0.0028437826517217183 -0.0008287256331725727
749 -0.0017892049872477646 -0.0006454226157290699 -0.002108323631307723
744 0.0013683891452758393 -0.001415583063181557 0.0008647753750130101
263 -0.00920906146605271 0.01046626089216273 -0.022377555845676765
264 0.00040080243530467795 -0.01838691889331007 0.025921367871728548
262 0.037786723511494626 -0.011332097756848116 -0.00016560405879122777
256 0.005274498571105014 -0.007374390197571983 0.0032603120799549776
258 -0.006774439029257105 0.005666274758016345 0.002374461037289011
438 -0.0028783320540668733 0.006990500654045812 -0.001197148956359989
443 -0.0003432789869235481 0.022292634331396617 -0.011493294310435363
444 -0.01879724830083254 0.023001755361262925 -0.026315399012157417
607 0.0014502227075526483 0.004911720787386261 -0.016262783801678986
442 0.020505945906658284 -0.007291084877745848 0.007690265590775536
751 0.0025192632652756898 -0.005677054367260244 0.0008665239083870523
753 0.000611663734119836 0.00165517056842654 -0.005078962500652027
755 0.005208468705409907 -0.0013866537059966926 -0.0011905254651822061
752 0.003993314142471045 0.007977004024300807 -0.004670106453049318
750 -0.0012558773136992184 -0.0017699209716069686 -0.0014249728724913479
261 -0.006439591367523435 0.03249667639686314 -0.016134764137195962
206 -0.00634409918855602 0.0018245835236204257 -0.005898884258830153
168 0.004180344085614864 -0.006352518074023619 0.009954965170847731
194 -0.004061303189783818 0.003085113135856511 -0.001320302430825586
208 0.0025763725153422215 0.001872222605538146 0.0033880898612699195
210 0.0018069248689551597 0.0012258522372258895 -0.005109586641738541
648 0.025708090952742593 0.012546119963889643 -0.0034303565260952484
215 -0.013320122781697337 -0.019645737843006026 0.034401268056115326
214 0.02617183310279939 -0.0002561231268710042 -0.02707970368183702
643 0.0007245337849577102 -0.0016427837822068192 -0.0043832244337400975
205 -0.005274604205137382 0.007612595210510124 -0.0022117812440790694
162 -0.0015678692419830637 -0.004075913435655653 -0.0004565716723217075
36 0.006970732213189732 0.009562268618369008 0.013403748426030997
166 0.005420065126793132 0.009991210427845369 -0.02933968139485824
207 0.007347306624189497 -0.006594559567390632 0.0011652823882506284
197 -0.008587858187105083 -0.0028223746738043486 0.007430268362775479
200 0.030675722779154257 0.0145415171308437 -0.026174774804484
216 -0.007653256611409476 -0.00119908852570053 -0.014671220340571736
514 -0.0007743356529940152 0.015776252796955107 0.015433444757743896
760 -0.006088940581387158 -0.00024075709714516054 0.003026539325231988
762 0.0017231209477363172 0.000988520149688031 0.00018335476437164323
757 -0.0006203420855441581 0.004449226545191946 -0.0056002060696067925
355 0.036798560373124664 -0.010885311632493925 0.008442735915869602
356 -0.006440516912425091 -0.0015204940205438987 0.0048296152086745375
353 -0.0004057614378703369 0.0012377197021211047 0.001613132339037989
357 0.009333869409139356 0.02246191710501586 0.018540303318729048
515 -0.04301275115554822 0.00900209564412382 0.004835859154892068
510 -0.00263778276402592 -0.010482073778439576 -0.0025516939858961757
516 0.003220510185944067 0.0021356960642105816 -0.004277279995161037
549 0.01748286578580411 -0.0030563000982556468 0.006794873595822504
608 0.006572808928684038 -0.0012801092699556474 -0.008259418842496822
606 0.009896691445445341 -0.011830079913426947 -0.001051654544369959
359 0.007623877753342172 -0.0032368760189881336 0.026952003359938654
354 -0.001605795979595362 0.005792119013161282 -0.007946544531613675
351 -0.0015871522692069114 -0.004917551943498511 0.002346262339739514
349 0.004574937762119289 -0.003656682896567936 -0.002020713716908586
352 0.003424456445926672 -0.002857788619830122 0.0008828476700612085
350 -0.0073334355861337805 0.0011921571033532497 -0.0002975575150926287
173 0.0010251945744652587 0.0028010546719278813 0.002369782292016704
176 -0.003450718152187133 0.008517366959199208 -0.005123517653188941
175 0.0021801439002599983 0.011054599775771282 0.007888163318713726
171 -0.0004569824018139795 -8.055745752487173e-05 0.004951645123015123
650 0.013302060888622961 0.020430517672535117 -0.025592750940195988
177 0.008296287721372383 -0.014477859368247614 -0.042507008176871225
647 0.0024861408262096415 0.007423850239418395 0.037456589128317876
768 0.0008074471816073688 0.0008568173508775746 -0.001721652665378182
769 0.006946297051108341 0.0012721079162988157 -0.0021853894737761774
646 -0.0006445864398818467 0.00022435423610437944 -0.004031714540938488
764 0.001785259933973065 -0.0006457141820736907 -0.0007636320429480275
645 0.005518078389159267 -0.005280687398335802 -1.1208564233605226e-06
644 0.004132463308199106 0.0027266308559184753 0.005193525511313669
641 0.007079726643579131 0.0008355577567319176 0.001412098765234695
649 0.00936518869500507 -0.027116370626160725 0.0008627207675458736
766 -0.00043978265853833833 0.0030233830081291936 -0.0028355131678636735
642 0.006780520525692855 0.011430594291139132 0.0025965914619058067
521 0.0023592561891107424 -0.0012990793339679224 0.0008719892624770135
517 -0.008153393666717863 -0.011351405063527276 0.0055263621661279785
519 0.00017733806613348823 0.006861506098880985 0.0043952819618114725
524 0.004982104783281452 0.013719948906001204 -0.014650324378178058
684 -0.006373455464246865 -0.002702266962212057 -0.007353916913703258
520 -0.0005080305164920259 -0.0005690701434765831 -0.005754498907798553
523 -0.006056639154536252 0.011875589393185542 0.013181658523279977
525 -0.030259851288535266 0.029156589399631873 0.007405424161786378
682 -0.00017816447611928977 0.003593497540470903 -0.0016438608457689104
681 -0.0016332250825923822 -0.0015616312464922285 0.015933089698032914
381 -0.00267833249267082 0.004899239832710183 0.03419205726498788
104 0.004589302004950802 -0.009602118398993498 -0.006422775878537033
463 0.00279105998095194 0.009050941239070907 0.04712258766271209
347 0.00017208660330651987 -0.010747195556282046 0.014317634141810934
390 -0.00868867940549425 -0.0017766779101640318 0.006205799307277529
395 0.0033267378964161325 0.007719949002277171 -0.007171588955770366
689 -0.021045416397041307 -0.015370514287200739 0.010336609579068826
394 0.002282155436600028 -0.018931221257083197 -0.03288826830930267
396 -0.00017654137026803333 0.006439558464986411 -0.010844761915047487
388 -0.005113578015930452 0.0027676151365532415 -0.0014343715071313498
622 -0.0006983121404746523 0.003728366461156752 0.0028043703210350115
379 0.028587815015727686 -0.02380112423110318 0.010507536119159677
377 -0.001903052333207075 -0.0021678974381451957 0.0007687421919335062
387 -0.0010099591427344585 0.004710163347072811 -0.006597807245651839
385 0.002162209971465218 0.0017014989924609388 -0.0028448612582231197
326 -0.005851082476782865 0.0005999748581223671 -0.002093818799141613
386 -0.003030731499772391 0.009075716059604461 -0.0066370925535521865
578 0.0013782965863487762 -0.011563089638595817 0.0004503657451943712
180 -0.005451820791695786 -0.02063261273876238 0.009772385881437107
325 -0.004537743676203718 -0.008849400128543518 -0.0009363384958969607
328 -0.003539036740435459 0.0014888311610493088 -6.746112162735583e-05
172 -0.00044051272689008084 -0.005050592836948174 -0.0020421256845097073
580 -0.011632850429664379 0.004426443387625594 -0.0042776105461759485
577 0.03317798642677387 -0.02640316486824726 0.013724321686075782
336 0.02213208593949362 0.005806209718365071 -0.003404665031331083
105 -0.014950340245228792 0.015910901310539665 -0.0037062564059536125
103 0.025754910511829744 0.014044335745898839 -0.009079488043515844
179 0.018796310357767132 0.01810311050415741 0.0002844984754650441
72 -0.0006355638553196586 0.000569901555633804 0.01653255269156322
178 0.009962157155797896 -0.011455113491846832 -0.01419151449966821
174 2.2881128422129698e-05 -0.0025252334596543875 -0.005356448008722074
101 0.009363425510209914 0.005481262802512308 0.004965904985192847
99 -0.003605297611037923 -4.8791454871991935e-05 0.007053702743432209
97 -0.0016596366504355625 0.00021776961374987092 0.005178219895382403
70 -0.02196113945178889 -0.00982464599209251 0.02982613130314163
169 0.005434581259327363 0.008865658387343028 -0.008717925292939679
526 0.011273506015272916 0.010677499716057253 -0.006256474410258674
528 0.005586852939979728 -0.010275960855802875 0.015232604819139572
527 0.0010819581947618447 -0.014518980295804854 -0.007518407173406671
522 -0.001493265329561467 -0.003928517788306668 -0.000790036259043408
122 0.009048405193904839 0.0018637021937020703 0.0033447193761263266
121 0.00102673190589055 0.0018380258847184622 -0.004107998021368621
630 0.020302023062391993 0.007418118638294702 -0.0021495514204422626
629 -0.0032788235386293895 -0.002840256687258627 -0.02011467514286629
625 -0.0053426301034537865 -0.005011719499622625 -0.007485045727044513
624 0.003224514190959817 0.009244453297007233 -0.0032929238456560553
455 0.021035814857564564 -0.010434218386726878 0.01095503722484699
456 0.003949006597214166 -0.015209087242671044 0.01737344031279883
623 -0.0035467824572607185 0.007506008353508831 0.0027751944612953647
621 0.0006071670571458976 -0.0021050209599160403 -0.0024583258779164755
628 0.012362545306189942 -0.024650552768286465 0.0019167771224980518
626 0.009310428971513579 0.004381543977492961 0.00014820261722487012
627 0.0147339331565275 -0.023433481333811877 -0.006664425401078201
552 -0.0009118752101944479 -0.004706778517736636 -0.0007581452461082229
422 0.0018168040473973514 -0.004296903543944677 -0.008152403083420067
574 -0.001327308260201724 -0.002500373389812308 0.00762814804146064
576 -0.0012369640464050067 -0.009943880060460247 0.0006918289203263135
579 -0.025659263029871284 0.02370801319773634 -0.00010016664534361556
573 -0.005010075497430643 0.0008156975238938784 -0.0011478909004226528
575 0.0010883425563419633 0.00025267601397418565 0.0021504055365113364
572 0.0026861209207174447 -0.0034487150566060733 0.00347096449660156
571 -0.006036726102570929 -0.007646256964355328 0.002988003649352609
732 -0.004334197350116831 -0.001312643928775285 0.009969714641632035
112 -0.002332997500104647 -0.0006023390952204485 0.006027060386200955
119 -0.016074018780419183 -0.007307140961481691 -0.0004995304114784212
426 0.0030048763242968655 0.0014375535118164677 0.0018229927055647746
432 0.006940422296906423 -0.0045022098797280275 0.03627373030474444
110 0.002059371888283763 -0.0008187050904540069 -0.011303818958707648
53 0.00481627685000131 -0.009351966753547153 6.260837155600097e-05
51 0.004184002962189466 0.0016225914246992582 -0.005915648151035306
124 0.007005558281783665 0.0032962761872890284 -0.0029018796716070764
114 -0.007480938902493831 0.007553112031288739 -0.0020610861630912503
57 -0.018242576775212405 -0.02684591241492316 0.01498554544214969
71 0.020833910995780382 -0.006008260390495497 0.01982824769942186
131 0.006114678415658239 0.007363754791328549 -0.019898524126519112
50 -0.000256940992693271 0.0029048359809418353 0.0005078947683544434
126 0.007093282087418768 0.00021899660736858685 0.002515820288693054
130 0.007262696708969091 -0.015642957279006067 0.00774417581244581
120 -0.0028776732662136274 -0.015375736233087904 0.014348965378149694
64 0.008917593902626496 -0.00182606059753752 -0.0060675992074745375
66 0.0067158622298574685 0.006797501050936827 -0.000743077468460612
132 -0.015906524951454105 -0.010524425115821448 0.031323106653406985
118 -0.01584924865826876 -0.04470602294006638 -0.003827104059175007
34 0.0045537499266229695 0.009974602999419284 -0.008288279371331597
123 -0.0005903874652169829 0.005918306178996615 0.001228368974068363
11 0.004044629684266448 -0.016897756501106767 0.015568767979308768
12 0.0028376662280925726 0.0016487861485633914 -0.02087652483317422
1 -0.00968763855426754 -0.000677619561526489 0.00542809313269215
4 -0.0001635449406243524 0.0026331214629886526 -0.0033125870877907596
6 0.0017076336754868356 -0.0032040401203749856 0.0025768467045481085
317 0.0030808760201871564 0.0027964181181642897 -0.0027275434200158296
319 0.0192234547148805 -2.331475300640801e-05 0.00750769759218648
20 0.002188861752330277 -0.017026264314182308 0.0024741617428928027
320 0.0053188330867139765 -0.010998022008880679 0.0037701435036386795
21 0.004219336974020363 -0.01127319963512953 0.010126136077660459
27 -0.006004708609149077 0.0006554635705636873 0.0004894233935844315
314 -0.005954399220721707 0.0008794517172921794 -0.0025341789067182944
321 0.005493101128284171 0.001249722461429107 -0.010453574625359386
553 0.005646291648492152 -0.0001317270808970956 0.0016303484820172393
558 -0.0023255189303670004 -0.025230670926096325 -0.012333425235149086
2 -0.000345284702716888 -0.0029397552790941593 -0.004707687382667106
551 -0.0036395560076808407 -0.003677258902841335 -0.008272560185578048
557 -0.010671582961725774 0.01152203521711288 -0.024401513909629812
556 -0.0021042131782376084 0.004897528168436557 0.005219621010521
554 0.0112929698959421 0.0037494913927552296 0.010159390728154851
560 -0.00010656171628179889 0.013698329927561348 -0.0483200608192602
555 0.0018420991355863918 0.0019335147362296863 -0.003356175685191904
559 0.004011279714267911 0.00016496119110039057 0.01584246882661738
31 0.006311288999580522 0.0037497342784467615 0.0037139102680000136
436 0.002300543459912295 -0.0013041587965039768 0.005893507801438444
430 -0.024343725489553974 0.019672170451702338 0.02295384309595568
109 0.0013763163194933138 0.00047732159109182447 0.00233123969236778
609 -0.019341844203437403 -0.018794571335552172 0.009021922120996046
610 0.019036804717406607 -0.023197229046931493 -0.025594542405741563
605 -0.000742972730822022 0.0017570688737737208 0.007387746804375327
604 0.0003710692039769428 -0.0034911083849504415 0.007917603586350255
117 0.0002492405352863202 -0.000849836492772804 -0.020152398569648157
113 0.004486673329257274 -0.0003577579646326929 0.0005152572950833957
116 -0.0014059300938815997 -0.01950479795929574 -0.020213008319076527
115 -0.01140133087050364 -0.004500270770447451 -0.002884212387024745
111 0.007965958639971802 -0.00011091324264523825 0.001823833864473061
19 -0.01580124195262565 0.020158618326315856 0.017537779828794686
433 -0.006537225399080381 0.006908749888574602 -0.007733299109018271
17 0.003434940825544452 0.0035346073382850614 -0.0006801858771815722
15 0.0033979843503178847 -0.0019519737498633187 0.003615980435379004
440 0.005576105889084159 -0.028455070359282214 -0.004224323676643023
437 0.0075469030314059445 0.00571562530392775 -0.010680008928195673
435 0.0026100632457508725 -0.003149400569225011 -0.004854184386943124
439 0.0023594147586175757 0.004183477171165961 0.024319213265317257
441 0.007113655911293812 0.02237841001302102 0.023913433340990237
30 0.0026785517085264558 -0.0014104601834788167 0.004530862219289565
35 0.01051033431545377 -0.005891816458980336 -0.019844039381453293
211 0.010583048021920057 0.011087062276783882 -0.004745156492543608
212 0.0032125474384326314 -0.008862876912842758 0.0014190157344719124
28 -0.0005994072933387295 0.0022302245228383666 -0.0011590680189982215
25 -0.009046126851666685 -0.005545184852990802 0.002631845973320413
26 0.003087924525099961 0.0013738994240083036 -0.0016868718280095198
213 0.03869999930917326 -0.014780433436229264 0.0004195652709561524
209 0.004459547492621706 0.006645129865373093 0.006773770526844284
33 -0.037163834497573954 0.012204779787227508 0.009375204651850268
467 -0.004136607068067899 -0.021234170408515454 -0.02266509017028293
468 -0.014025802867847471 0.017742553843563692 0.008291092929481058
462 0.004417705820495788 0.0014366362307176204 0.004693088321948452
460 0.0010302288541000906 -0.005638762264823943 -0.00534857684286797
29 -0.0019746034151968883 -0.006524632140814472 4.6262108787899227e-05
32 0.01538107182589197 -0.00685716522739154 -0.02129222447172896
506 -0.0033775321281393975 0.010099093383325302 -0.0022614512281016286
380 -0.006534622767245272 0.001402953163207146 -0.004239946694316925
375 0.002227337994716574 -0.008093472913997453 -0.0010702218090775804
508 -0.0005589323633321739 -0.0013721826247938696 -0.0018447119200742715
505 -0.005648473539706873 0.009721872398568388 -0.006206625235487606
507 -0.007486519049791764 -0.0019914693863139353 -0.0014258772759024399
509 -0.006119941485119931 0.004494458089908552 -0.007469870539416619
513 -0.029008632606700696 0.03267700522870702 0.006117793357374485
511 0.006052637358884485 -0.0065535656138190086 0.007691905658778143
512 -0.001479833354861483 0.002312783457046369 -0.001805778197030414
603 0.0014889380363264718 -0.004350673715900066 0.009293622672344438
393 0.005574428840657146 -0.02891274373634283 0.006118706466346246
434 -0.007349239791690065 0.0037667228304175365 0.007142809478428991
717 0.018738918221394597 -0.005988075763989559 0.013781065998286922
391 0.021772805286714558 0.006690589356772077 0.02033582491557865
718 0.017616103528848168 0.010692362204083917 0.010416677892621051
716 0.005995632724156492 0.0006181779435105094 -0.00015824549044526432
389 0.004536610543448039 0.003825445211954134 -0.006002600910428184
392 0.024011862110522853 -0.002774853259750106 -0.0006751357213284022
601 0.00838370921581283 -0.002467007164676401 0.007060963850447861
602 9.254748846747564e-06 -0.0002526305199341184 0.0008826412992769472
720 -0.005921151885328154 -0.020545794412163646 -0.003363238012958325
715 -0.009433093573035737 0.0016221497337742126 0.002049083282701171
719 -0.005060983139491982 -0.013840006812057399 0.006190661025453473
714 -0.002287365358270608 -0.006152026310151079 -0.0063528275213958225
734 -0.0035239095702215223 -0.010225987064931837 -0.001983428549413343
170 -0.0006419825836245844 0.0011640108617427005 0.004200978956870441
23 0.023186721518257732 0.00402621505410585 -0.019301964005996437
13 -0.0061285198875787525 -0.002634702175284371 -0.005644380062565754
24 0.01943562994745071 -0.005697334596578825 0.005242469932640484
98 -0.005052383945912444 -0.0011546920317833608 -0.004071432398880619
100 0.0060779531600055735 0.004004567722039237 -0.00041473084266374746
16 -0.002365372081986183 0.008279185525232125 -0.004168801178452596
22 -0.0020537553710536266 -0.006525365561648177 0.0032139661159458154
18 0.0003429169520291924 -0.0011999556783028706 -0.0026986289109573697
102 -0.0033133650518513812 0.0002574750128575122 -0.005680989362189577
713 -0.004530925199349101 0.00414505644244211 -0.004584640869553009
107 0.010962814267149939 -0.031888824381050306 -0.02350078653591243
464 -0.016461147420802465 0.023777272897122535 -0.0021358667566264444
683 0.002944360356982892 0.007336867021023113 -0.0014106809023977228
181 -0.0006420677603709304 0.0053446999643701025 -0.002458536960603826
183 -0.00654652797906826 -0.0048288411610613625 0.0044653357601928045
182 0.0066458734294556334 0.006299009745193197 0.0018549815955440218
465 0.023524487390056102 -0.029775360969885544 -0.0024277747207572275
184 0.001076943946569163 -0.0001114420286518024 -0.004090404024286171
59 -0.022312191040422542 -0.05135833710381674 0.020445920402338575
54 6.931748414505143e-05 -0.0011747982445246322 0.007310051206687606
58 0.010690849378315909 0.0016622082513229172 -0.005378429364122003
688 0.007042517108104903 0.011994639138930304 0.013509013303978799
185 0.0009648124802394554 0.0015449763057858409 -0.0008044955970431137
189 -0.00977989096352138 0.0040101059139152065 0.0019573392441596727
187 0.007445834229790229 0.0008819579768043515 0.035454676363210806
461 0.0058367905721020625 -0.008171828681077109 -0.00145112516969386
685 0.0004698336527772828 0.005922926398580723 -0.008985350636622714
686 -0.0030228134415770575 -0.004500079320154543 0.004542362123225044
363 0.0068819476428161 -0.0035722492917448813 -0.00032296660220515293
690 -0.005262712488508136 0.011184071210032958 0.05017519674783357
362 0.0028977765712263895 -0.0007472409189125854 0.001902902497519647
361 -0.0009456761749423706 0.001619410240034898 0.00346083163624044
364 -0.0009294935744071567 -0.0008888099100116987 -0.0019719763408759606
188 0.013514858893863956 0.010915081174200394 0.0005207436209654989
365 -0.007082120254083027 -0.00493414716366859 -0.0006641805812152572
369 -0.010441225880719695 0.0054048933737701295 0.00015719407406776674
368 0.017422966290491972 -0.000547012593272481 -0.005819612833436005
500 -0.02528961375932064 0.012175871689493108 0.019810577360840846
497 -0.0053621788181978545 -0.007046069698547783 -0.00022572915264051785
374 0.0015977852362318752 0.00010279331011819046 0.004477410772310211
334 -0.030818427624490496 -0.011844671639201644 -0.03348736129342782
330 -0.00150930041117058 0.0006862385330577877 0.007919788785128652
335 -0.02766952758750817 -0.002998685622712639 -0.0012495845991528259
87 -0.007893232773482781 -0.00025010085029511883 -0.004862755370470449
367 0.04738860631441503 -0.02257530397554218 -0.017950599177103406
370 -0.02887443372932407 0.0023585733156731526 0.019345657260329753
327 -0.0022440528719105245 -0.004084582629345618 -0.002395048172840106
88 0.0017296997431520318 -0.004505189567638799 0.008532936295089647
90 -0.0010888432324911834 0.006061805630475565 -0.0013663802768412296
96 -0.003987356232953228 -0.012360162368389466 -0.026419073712420787
94 0.025142619891609524 0.010954195648602758 -0.026289402224502052
85 -0.003938376293179832 -0.004616044500698539 -0.010997880843408213
95 0.024750030397345874 -0.02675492324662023 0.009954572771583304
79 -0.012061720239385225 -0.012149388358981682 -0.009158413005211509
80 -0.03881177258333759 0.008089458153497734 0.022112877550727834
81 0.021268818869142444 -0.015490888208515111 -0.01807084492469896
77 0.007136459209078222 -0.007139913644755431 0.0004539789402193693
73 -0.0035602925094789625 -0.0006759755899274592 6.761488927868416e-05
75 0.0015229192335331067 -0.000871416337622341 -0.002095512698906788
74 0.0027713104809008802 0.0030151951335107767 4.26961648515768e-05
415 0.022972856533337322 0.0022349482813663 -0.002589618514706548
52 -0.002503934854926959 0.0011537132845811646 0.004806876966960893
416 -0.006218170798984367 0.00613389101366123 -0.03349252530996456
60 0.0019065315613919166 -0.010335312816028728 -0.02222717271003065
498 0.0034602917919270373 -0.004794148758638071 -0.0019862561711723116
504 0.014320398979169124 0.003998561654300938 -0.022398520825510665
503 0.026501305855325095 -0.004511173334414256 -0.0012160793412610968
502 -0.004625494132127228 0.00034984989126398005 -0.017773297896182635
290 0.0026544327961293894 -0.0008538116185463106 -0.0021774871032587064
129 -0.028363778830316343 -0.034285904186798784 0.005136901147925339
125 0.008285011077081895 0.006787042177028561 0.0006065331886272665
128 -0.004738463975416996 0.014086163818384458 -0.01441042974873428
687 -0.00840976425092536 -0.008479277985735686 0.004526860746692368
496 0.0003879509263899841 -0.00695062679853838 -0.0020111702157964563
495 0.007678207839246262 0.0016782541901553599 0.00400790658635401
493 -0.00073461031673329 -0.0009895057191295121 0.008175063466399353
39 0.005991791506348894 -0.00811771253205891 -0.002817448708054104
41 -0.0018397554125168605 0.0044982817427290725 -0.002038125861161532
43 -0.026884045827123164 -0.026027377733281627 0.01759192999172425
40 -0.002819180228801767 -0.0025364789331210084 0.005559634767541562
45 -0.0006531798643428914 0.015539409241563822 0.0017777155022187694
37 0.008823667096100078 -0.003483839090361701 -0.0009349454336181085
329 -0.005368370103570712 0.007286224070827559 -0.0022049720783731963
332 -0.020290032241510648 -0.012083012516808623 -0.011024362641907754
331 0.001565104706382312 0.007047679487855249 0.002990562432044411
333 0.007469255782465593 -0.0076319635204729844 0.0008805909181852676
48 -0.020032269549102037 0.024798040636389056 -0.011495136549297895
38 -0.007772780854880885 0.004033869230523692 -0.0019158317734367912
47 0.0019002188171015131 -0.02552509319562538 0.003861903712706058
46 0.0017077219033691275 -0.0038344650259153237 -0.016332260193503815
42 0.0065650089746462055 -0.002804783235873594 0.011049387035652752
410 -0.0015475109814019486 -0.0005048439855724622 -0.0053717537461686745
414 -0.0007608881795842516 -0.005043974973337545 -0.003933884464715838
409 -0.006387633538627297 -0.0025779876876425934 0.008496535910217335
420 0.017282037390921642 -0.0064457056070793125 0.0037146987171474944
418 0.011453420372463205 -0.02771031686539238 -0.028891110436305666
55 -0.006337224294322347 -0.0006003943499318887 0.004073446538539669
49 -0.004663165999275555 -8.390854059669424e-06 -0.0049176734964679865
56 -0.0038022419503999736 -0.013790073547843685 0.03234110768067129
417 0.0071699358428671655 -0.030084497427832445 0.0029992308558960327
412 -0.0011185830471159728 0.006799545522134876 -0.0011419479827245063
419 -0.01944475571874329 0.015973855195788478 0.007862680632204262
142 0.0011597909050293734 -0.006741286587082779 -0.005626108331715071
413 0.004186212456167581 -0.006232919902761087 0.007912369682232183
411 0.004600224114883471 0.0029259197996313662 0.001081321351400581
144 0.011459919577270498 0.004706550699107189 0.02011174874374983
143 0.007802181848123602 0.02458386523005385 0.0019122548168666715
138 0.006471681826664489 -0.0038852662308682877 -0.006963399581601273
136 -0.0008776796841329299 0.0011702947690973003 -0.010760849461672656
134 -0.0007833288444466493 -0.0017859878891219802 -0.0028995407702161876
133 -0.00182761380897925 -0.0017409632954334332 -0.0010007909210205399
315 0.003350310032874019 -0.006822513075640684 0.003787764153465459
127 0.01330174081919315 -0.029048696458505174 -0.014099418462200714
652 -0.002406155590331691 0.007296673773908403 -0.006451607620495973
651 0.0028171742359945854 0.004721516175001507 0.007070851741198437
653 -0.0005918326538369283 0.0007340941216565343 0.009517681160261006
318 -0.010360187987202181 -0.0014384612661710212 0.0024863667804641775
657 -0.0035338092370433105 -0.011443887608319752 -0.0065609759003217635
313 0.004840735017711553 0.000562238014582745 -0.0015974556219750993
316 -0.0019016107485531769 0.0006315422963803172 0.001341940244550487
656 -0.005434251497986129 0.005552713021419937 0.002835024019644449
324 -0.011367068740259575 0.03746371252537072 0.02789206085131157
658 -0.00717132962929953 -0.005676766380811409 -0.006498710654649435
323 0.02604625794348159 -0.025521910521240688 -0.000543872354561656
655 0.005906774096947614 0.0017609283773018657 -0.002055610055508625
406 -0.007116838232133396 -0.0075681040503570805 -0.014779880692413129
44 -0.019798714072104456 0.014007955333877137 -0.01319453944639853
408 0.02894053789094309 0.008179765476275424 0.0034193864795354022
407 -0.016635863683504434 -0.004193010721115086 -0.0016730424590748378
402 0.0016083694558892217 0.005448621855612422 0.005936871545573992
398 -0.002021267281540999 0.007739029796131586 -0.006192268273753588
397 0.001399062175453471 -0.004844141127434584 -0.004226331909873948
252 0.009141568102138928 0.018187843981906652 -0.013085642505997775
247 0.019308267498444786 -0.005026948564118955 0.021985352252284995
248 -0.000613736749333736 0.0021356892661449686 -0.041329099752854405
243 -0.004537870219088714 0.004381608261563976 0.003519870416464357
249 0.008169626847969009 -0.02626517986835078 0.02252724901384103
245 0.0030401380114023044 0.0010202561160193517 -0.0017363737569491137
472 0.008972847803733594 -0.0012355093291840072 -4.4207910416424885e-05
399 0.0033353134045849405 0.0005592246415685263 0.0016584902345420178
474 -0.004077362896531349 -0.0029583239680309303 -0.0010933148895733585
478 0.015102688714753548 -0.0013161199326864018 0.016902707598595093
139 0.014953285705080872 -0.007471182967570978 0.01687458917040656
140 -0.005230845634962593 0.012926301453786492 -0.030490825991918574
470 0.0027585818204374714 -0.006417663583636296 0.0022200731184639985
141 -0.028825275490459084 -0.010419693920027097 -0.023758513688560426
135 0.00729764834413651 -0.0018180324130318201 0.0051594947173565775
137 0.001781403914732847 0.002077594458035623 -0.010315053940812587
469 -0.0024412537906339953 -0.004349381566034868 0.0010254179475275317
480 -0.009593092123779777 -0.009956704745233818 -0.021574186391773515
466 -0.02227317670352931 0.02406478126596423 -0.013336289495192843
186 -0.0004439899582224122 -0.008297087565182264 -0.006393947862924993
322 -0.0006284435067863501 -0.014993915527157464 0.006948428558766383
190 0.03494764809555764 0.017937741153545423 0.031562648810842836
191 -0.0032709012224815164 -0.012858986845288313 -0.025476859540618256
722 -0.0035182584602246607 0.0013465394119868363 -0.003484585066635668
458 -0.0030649570795991954 0.0037605946723620583 -0.006750846769381873
459 -0.0033554948411627337 -0.002037613861022717 -0.006833820785839661
457 0.000951305830618718 0.004934144115266858 0.009842153816722298
373 -0.001488965795798464 -0.004490873206917474 0.0068865857393670534
400 0.004386998311427669 -0.0009060839666522051 -0.007713785844036596
371 -0.0007292230229210843 0.015872578023606095 0.0011061422643274372
376 -0.00024922637199517464 -0.004607154126976293 0.0009785631523809954
382 -0.0010546581619318188 0.01029395416624291 0.028422276039241114
384 -0.01630075403280024 0.002547395913621129 0.003131080604090327
378 -0.004787347929352254 -0.011500642708306958 0.0011852714412628803
383 0.004978277980014553 -0.019352793765676193 0.004124324946367073
662 -0.0032518989610183435 -0.0009980628654481345 0.007319445659001859
366 0.005339029307758358 0.0043829220371826095 0.005153604206603601
372 0.008725298255741904 0.013628533628415318 -0.012573755418209825
404 0.010044025790927925 -0.03792945924265 0.02133213018328576
84 -0.024865081542324113 0.0022807038374155065 -0.026480296089985367
403 0.017368979756647817 -0.013553437258302452 0.0023200760761269267
405 -0.0026492523094285465 -0.00958452414097763 -0.005329385896451534
401 -0.007739798869654621 -0.001573230418272648 0.008289141602893417
562 -0.006060751250175644 0.0003829711623098574 0.0025282114080393257
561 -0.003648957709672041 0.0009599034479863068 0.007316895132817032
564 0.0014038604526878731 -0.003024026425385522 -0.0038145978723073647
83 0.040131427893730816 0.004095925937476189 -0.018972821470647806
78 0.009175864179505229 -0.008225321490599609 0.008080898743605387
82 0.0009168802771442002 -0.008693385159623847 -0.003417168032961173
479 -0.022451980688018486 0.017708975740529074 -0.018105548992381017
14 -0.0025141765588601625 -0.00311312893303093 -0.002303248008802334
108 0.023612094091993007 -0.00878875471622193 -0.020729769110039188
106 -0.0010922437408574179 0.03755131066897259 0.03702515585026543
76 -0.0008340074391258304 -0.005085269832160751 0.005765120275417294
721 -0.006259942617110862 0.00554361140630392 0.0027300475501954367
711 0.005262974095187906 -0.0040640002274702665 -0.00360052941836804
729 -0.026730144508282608 0.023619346374859452 0.015167403747843144
727 -0.01799057938307384 0.030657567891880646 -0.00833587513975834
712 -0.002941150950544065 0.002241677810663562 -0.00031358150293901666
728 0.02527894628163509 0.03681641626910492 -0.0005644374707940941
726 -0.003977396767166274 -0.0010133976210166481 -0.008722017244002062
725 -0.0019438640093359947 -0.0003582511615712704 0.0047528405261128785
723 0.00118840500718799 0.00036361872848769054 -0.0013287939250857116
738 0.0015485478131024397 -0.005239083039816093 0.0004902204758801178
296 0.02517996559989593 0.004778320802350604 -0.023641221756182905
192 -0.0007833354883174354 0.02301688263705349 0.0026537901926296952
640 0.03997549890553548 0.010330883195989918 0.012397955212881053
639 0.016213742996606585 0.010408310991700585 -0.0028588239576279417
635 -0.004296999032495676 0.007021742290692436 -0.004608148729147403
636 -0.006237802481737177 0.0033243748814426157 0.0046241242795015056
637 -0.02717018504125271 0.0015720177293902572 -0.023030643050846643
634 0.0009681875441433496 0.0012455960328732224 -0.0003717767230232261
297 -0.004828771054309957 -0.01990355743914112 0.008415373460681367
299 0.005404472874642073 -0.01678802405194321 -0.0034256445094260424
156 0.00026998066121398554 0.005162191705226857 0.02889869966379751
155 0.028082694978688653 -0.014400806422872937 -0.004717912865170088
300 0.011005723010769814 -0.03207648231160381 0.012234518945918864
488 0.009008620455519013 -0.009348889903399358 -0.016801819449371435
483 -0.0013081902354824683 0.001279600963167322 0.006380428778070275
499 -0.015593072277843779 -0.011363596092181152 0.01259766933327337
92 -0.00621445798708864 -0.004381619468453812 -0.006559917419673235
91 0.002425039186555632 0.012664769162491332 0.0030426999537656995
487 -0.0021599912045964236 -0.016085108468584495 -0.01690762453997977
485 0.004888253219963529 0.007407150892905657 0.0013915352208267722
633 0.006451178229188508 -0.003954939767867554 -0.0025906496160456125
93 -0.008284265248498507 -0.0023008375985967785 -0.020828625169839892
631 -0.008375620656885286 0.005342579626889562 0.007182919989803566
89 -0.008447205241101034 0.0026380186266274685 -0.001781574574068265
632 0.00450685461294753 -0.002824041547605216 0.001633713298317305
587 -0.013637814263928922 0.001661722075418679 -0.00935210324660545
491 0.013997882464735502 -0.02009290589259053 0.01358014759624964
492 -0.013369863311475967 0.004483965556816375 0.012313877007349155
490 0.002616060776433221 -0.014250280756092373 0.019964466248672708
86 0.003109760216315893 -0.0022637619800246625 -0.0027819806987734756
486 -0.0013239731606614338 -0.0037429838061261095 -0.0026564797049667623
482 -0.00017712985232694296 7.790928884184641e-06 4.527072551581215e-05
484 -0.005385746527471782 -0.003116434496779287 -0.0009646674869763375
481 -0.006471478349072972 -0.0033196003412852442 0.0002244824003347935
702 -0.00617414799869042 -0.0036479847289515943 0.005320491447295732
701 -0.0032338878529878136 -0.0014708331794252144 0.001970016082746156
704 0.0044404780141471065 -0.0004498325447084886 0.001093130868943917
280 -0.009387326578085615 -0.00039959861283140393 0.00017241591940765746
287 0.009345405490895301 -0.0065164143960721 0.0038388905294125483
282 -0.005695871089677191 -0.001139471721866013 0.004059344394711429
295 0.009332436094437162 0.003580485435996885 -3.7556401016844634e-05
154 -0.036414823619458817 0.004970186874862804 0.025435314103772932
150 0.001415505097474853 0.004760167405948338 -0.002291349221392269
148 0.002933440716609014 0.003595912727535431 -0.006326940359727541
145 -0.006449636013455568 -0.0009413486030047518 -0.008982639332821032
146 0.0021997392507873866 0.0011187785793622435 -0.0021833943427756247
149 -0.0016599119497995765 -0.0006496065754447287 0.005697510521184703
147 0.005375118983686679 0.0025447765217854823 0.002056744709641127
151 -0.016354206202587377 -0.025988241460287487 -0.0328625964185976
153 -0.021645103253405254 0.011624029317055841 0.012816181401851466
152 0.016765599713287036 -0.011301289437573716 -0.019116546124404138
293 -0.008701089529825672 0.00724161865250247 -0.006572963486341697
289 0.003100867514189546 -0.0010516150693115679 0.002844432766034468
298 -0.0009849210666288742 0.018480662585083445 0.00665021072711956
739 -0.001663422700912027 -0.006773780025390661 0.004189885652228092
238 0.013748556857336926 0.01718789698739206 -0.006853651207095073
294 -0.0030143136722661223 -0.0026511035094026647 0.004768136420331518
292 0.00858301258389494 0.0009528720087665357 -0.00477076355130206
234 0.00135151458788251 0.0009652189789744294 0.002702434214956849
240 0.012509551471746485 0.018095627937444618 0.02254778386158492
232 0.0032480690616610514 -0.0006554032068066541 -0.0067382654851838196
239 2.5091509497727954e-05 -0.000695371906992509 -0.013360093626458123
229 0.0012592487704841402 -0.007585128733410381 -0.0016108575274656474
312 0.016401694354259116 -0.010153243892181708 -0.0016988172501653386
582 -0.009518094111285616 -0.0024377793132799542 -0.003904743927293544
590 -0.0015915182014346195 0.013261705552412975 -0.03899625151216848
501 -0.0019769256743344802 -0.0007971828957554513 -0.01520479962546077
585 0.0011646568504081317 -0.0037023220239541634 0.002143500444358252
589 0.005316138289987688 -0.010517529055474224 0.0012778402900080754
494 -0.0003269377026194492 0.0007667845337521145 0.0006908631335568717
584 -0.010204589362769686 -0.008381959304472933 0.0067077522389988025
586 0.003687401295201423 -0.003356482028960316 -2.921528074267352e-05
676 -0.0015510341182022084 -0.008814537180268919 0.004389277137881671
671 0.004218005070745338 -0.0044440110857451144 0.0033948129777706254
673 -0.006297940672317801 -0.0010096664178391782 0.0023622357589353883
675 -0.0007589833631387413 0.005361764728444639 0.0003152628448309985
677 0.020575898692280735 -0.030433219216889323 -0.005548568767605272
678 -0.00881396553802631 -0.009106726646986337 -1.913147625869531e-05
674 0.004657289835449853 0.0045670732671760925 -0.002297777512222898
672 0.0030166657295685943 0.004171670008868413 0.007066897581359554
733 0.00679954014262818 -0.003247846359256437 0.0032191521782362065
594 0.0038141036929866057 0.002362053501640815 0.00019750995363168017
593 -0.0029014753972910275 0.004475521918547688 0.0013704480053399026
592 0.0005493247275427996 0.001755910406632062 0.003583757580010147
591 -0.004549515249841992 0.003060163819050485 0.006246068062381555
595 -0.009952917434759357 0.003048561390487203 -0.0010869863054773794
596 0.004217892066868157 -0.0033074309143689517 -0.006740667979461848
600 0.007774414060728985 -0.009033944893705464 0.008515332193771534
598 0.016441747767826594 0.01310380134728938 -0.018472669124880166
597 0.019677761269817177 0.016835254586906375 0.01539453597469963
599 0.019937132426089167 0.009361883833904032 0.020372346132438317
284 -0.023742797178974605 0.018862354547438603 0.0191986649716561
283 -0.026392940701342644 -0.034682822836754994 0.0020516029477358542
281 -0.002760725401848415 -0.002103436419485746 -0.007488837321689316
291 0.00011825490318081898 0.0022945844488375913 -0.0050320350036728335
311 -0.0006653808127626367 -0.005837547476342677 0.021297061851673932
310 -0.020012622942714213 0.012846820684201763 -0.010146902957642244
306 -0.0016154241392877069 0.0014401084485433408 -0.0068907370066429476
302 -0.001734626547779505 0.003206266865911755 0.003734460380204503
304 0.0003264733404931867 -0.0019234373157180017 0.0006079236957776395
301 0.007356305508489209 -7.938591541999466e-05 0.0022083924033116007
303 0.0015920320891873064 -0.005565132995263115 0.011828741517964658
307 0.011137127936295664 -0.01173156508421752 0.007369596583493624
305 -0.007649861121724381 0.0006762429391093928 -0.0018003375072050245
231 -0.005910026431960326 -0.004614426673969455 -0.001743730353519501
659 -0.005439362342259029 0.011412182989475134 -0.0052973024339502675
654 -0.004612086582561165 0.006278619441257904 -0.0033472949754265006
230 -0.001259784238862532 -0.0036650246520648906 -0.0005104180909527242
536 0.01781758629493082 0.032345608150709665 -0.0028496216023490874
533 0.0020871444842919065 -0.007353422526126383 -0.0016522356589242532
235 -0.033483891502090246 0.003895121573779471 0.01661941437376346
537 -0.04624708438834812 0.011811349669928438 -0.015026288769297371
531 -0.005691722125747221 -0.00042768648744436724 0.00016990775633365048
660 0.020036273324043542 0.009039417272540097 -0.02085223090018746
535 0.005354292471250683 -0.007883275773914865 0.032297758402648126
233 0.0012289657910856452 0.002301446383019541 0.0042706444349994484
236 -0.008339868599359843 -0.003515342267669854 -0.001767275164519532
680 -0.002467046727684285 -0.017502610450157084 -0.007696394068378506
679 -0.0008947469104428399 0.0020532453157014272 -0.0008803166328567218
251 0.0038556509373317907 0.007743416023193702 -0.01807519239585921
246 0.00973667808372898 0.0006749569864798331 -0.0009555309499460409
244 -0.003999106882185299 0.0028357612822731493 -0.00011315770370541877
250 0.008549943430948257 0.02179745799726441 -0.007503603161520741
538 0.00898264005727587 -0.01660945747759707 -0.016042933593341788
530 0.0016986386185379176 -0.0060429069122476895 -0.00343681563202828
529 -0.008039149646935554 -0.0049457669382468135 0.006123054159643424
532 -0.0032969502252583275 -0.0006530762231255082 0.0068947558962821984
619 0.009883835053770034 -0.001387310226601568 -0.0011386992639949875
618 0.02225646580968521 -0.00011593841062199195 -0.048278272980552275
616 -0.004338260530229927 0.00035912613290506193 -0.0010892831579643188
617 -0.00956568439805681 -0.009441593566719598 0.05789971891854406
620 0.0003945270839591301 -0.015250494190712732 -0.01429563295064566
615 0.0031844802493355435 0.004272267192012866 -0.0072193409286810525
360 -0.032453595012901924 0.005466038572294276 -0.030561082640661482
253 0.005165189980049476 0.004565286256064862 0.008532962771620566
241 0.001430552019718998 -0.0060439005471995344 -0.001644450772400217
254 0.003406921710603185 0.0007610450283899566 0.004987748827109977
242 0.00886196315922197 -0.0014125721404808582 0.0016380041820244608
614 -0.0021522814236610783 -0.006646307005500559 -0.004514399241455143
473 -0.0028783973159643046 -0.0014834600050669668 -0.004954651943856559
477 0.0010845764697184526 0.02039414872287956 0.000968146943831013
475 -0.011841127247199766 0.01449416627128485 0.028479105558101955
611 -0.005785968748844619 -0.008393977392159314 0.0013697509271339383
476 0.02164386811174155 -0.013407362174263335 -0.054080153030408605
257 -0.01166725805447399 -0.0059158937694662175 0.00024813741958301476
260 0.0005344102304168258 -0.03839031002312844 0.007911553298448002
471 -0.002219451913182707 0.012507229089459433 -0.003798865249551799
255 0.012915876026904775 5.8663845240718804e-05 0.0030180298214228128
237 -0.02849133846819014 0.007841595067794508 -0.014750944273635666
259 -0.02876804009144994 0.008149996546199858 -0.023191394637216183
309 -0.010147113822630284 0.01640178219887018 0.0029006772048707536
308 -0.0038371969347290743 0.006225212429503767 0.009333043503713064
692 0.0045352642332629305 -0.001761358156390279 0.004963155338165579
694 -0.004086371322294072 0.0006698483284489629 -0.0012833349886053965
691 0.0008888511338054023 -0.0026980073617536627 0.009725893580754067
167 -0.0398988127026388 -0.005056975035277247 0.050811340502710224
160 0.002501047276236367 -0.002081849223825161 -0.0005330826574598986
638 -0.02083397661143544 0.011960725936856868 -0.0177266769579669
158 0.004486805224503812 0.0057555665387595545 0.00013085155179882262
163 0.010075778089010124 -0.004331685893225775 -0.0003458443774623001
164 -0.03310699846847807 0.007146294762097948 -0.0005252510392237802
165 -0.016910114935167916 -0.010709554620950603 -0.03168762256788551
159 0.0015586192704352237 -1.2386860767767912e-06 -0.0022698927164133747
161 -0.007968369934909595 -0.0035309807635438375 0.003971768552736983
157 -0.007066694833100601 -0.0026035655652220106 -0.008344944318148527
661 0.0002144977763103111 0.007218831398109672 -0.0005813180717151151
613 0.0015106357167456324 0.0017209995027998696 -0.005329075790340312
761 -0.0010258039459341594 -0.0027668785057084616 0.0041076878703322295
663 0.0031183881675019114 0.0028024745146153097 -0.00018300501951918333
668 -0.012202217356940598 0.0040688215398115395 -0.007354106387128243
664 -0.000784490978848642 0.016828783477009737 0.005853757703290093
667 0.006216523213440644 0.025533640171967294 -0.0009282392460421634
758 -0.0022808554850989216 0.0032914029797259797 0.0003524705211848311
763 0.0005813176938384551 -0.0034409114549852466 -0.0021260131040430107
670 -0.0009990872130052882 0.007379890134461221 -0.011495335882621497
669 -0.015957740106898117 -0.005971056343456889 0.02380141380855144
665 0.011109473530997083 0.0009259520021183395 0.007109596696887336
666 0.00207133474750885 -0.0034183107269598898 -0.007234527702434187
563 -0.00449079985403596 0.0035471551777966214 0.00013950415673862442
707 0.022088195112929393 -0.008370932618998418 0.010907161808953361
703 -0.0023127899741731566 0.007310471606851492 0.0033979164487332263
570 0.005952414146281298 -0.0029106039083242703 -0.005969904088918281
358 0.01709212634987136 0.011763984212430132 -0.015164644704869045
612 -0.0030296583384566826 0.0009387730518227028 0.0017337957492683592
568 -0.023636986299629594 -0.024578288569555063 -0.028492555269158944
709 -0.003572372163589714 -0.02159143843654421 -0.010728168707342486
565 0.001899818133910381 0.0026569580204116603 0.0043286933612352715
708 -0.005507391326858478 0.037169451622148374 -0.02331144162336698
706 -0.005945211583675055 -0.011665754472797283 -0.011377062767529448
710 0.02378445317365476 -0.014577407906741282 -0.008101436017960059
567 0.005660191321510445 -0.01087674698215454 -0.025283706606767396
566 0.0015136054479306176 0.0066486914643743966 0.0002734713109139726
569 0.02712915184566862 -0.02196278527235538 -0.0007865775338932587
705 0.008299314596483993 0.001796509454713802 -0.002920474732281462
770 -0.0010965858088506195 -0.00356021040007178 -0.0005045385210117005
724 -0.0018738442703344629 0.0013909088511120512 -0.0028575204443541577
730 0.008818887081372084 0.005570936598581445 0.01726646935729486
767 0.0005235925513544643 -0.0006207877828060827 0.0005721479834127352
699 0.010293838671615149 0.012836003851484685 0.016011673013123208
697 0.001847375866563089 -0.026047784775401494 0.04340740028583585
693 -0.0037205977762459763 -0.004771816489783654 -0.0017769994482842496
698 -0.005629823486520652 -0.002495387745184576 -0.01752799168677934
700 -0.003482085603657797 -0.02816434349866763 0.010151129263629873
695 0.003640009527537395 -0.0014451171876122201 0.002612896205373067
696 0.0021536833912675895 -0.004170533711095688 0.0017284797947974152

Bonds

1 15 736 737
2 15 736 738
3 15 736 739
4 15 736 740
5 15 736 741
6 15 736 742
7 4 341 343
8 4 341 344
9 4 341 345
10 4 269 271
11 4 269 272
12 4 269 273
13 7 339 341
14 8 337 338
15 7 337 339
16 7 337 340
17 4 342 346
18 4 342 347
19 4 342 348
20 7 340 342
21 7 543 546
22 8 541 542
23 7 541 543
24 7 541 544
25 7 544 545
26 4 546 547
27 4 546 548
28 1 545 546
29 4 545 549
30 4 545 550
31 7 267 269
32 4 270 274
33 4 270 275
34 4 270 276
35 7 268 270
36 8 265 266
37 7 265 267
38 7 265 268
39 8 217 218
40 7 217 219
41 7 217 220
42 7 220 222
43 4 222 226
44 4 222 227
45 4 222 228
46 7 219 221
47 4 221 223
48 4 221 224
49 4 221 225
50 8 445 446
51 7 445 447
52 7 445 448
53 7 448 450
54 8 581 582
55 7 581 583
56 7 581 584
57 7 583 586
58 4 450 454
59 4 450 455
60 4 450 456
61 4 449 451
62 4 449 452
63 4 449 453
64 7 447 449
65 7 424 426
66 8 421 422
67 7 421 423
68 7 421 424
69 7 423 425
70 8 61 62
71 7 61 63
72 7 61 64
73 4 65 67
74 4 65 68
75 4 65 69
76 7 63 65
77 7 279 281
78 8 277 278
79 7 277 279
80 7 277 280
81 4 425 427
82 4 425 428
83 4 425 429
84 7 196 198
85 4 198 202
86 4 198 203
87 4 198 204
88 8 193 194
89 7 193 195
90 7 193 196
91 7 195 197
92 7 3 5
93 4 5 7
94 4 5 8
95 4 5 9
96 15 743 744
97 15 743 745
98 15 743 746
99 15 743 747
100 15 743 748
101 15 743 749
102 4 534 538
103 4 534 539
104 4 534 540
105 7 256 258
106 4 258 262
107 4 258 263
108 4 258 264
109 4 438 442
110 4 438 443
111 4 438 444
112 15 750 751
113 15 750 752
114 15 750 753
115 15 750 754
116 15 750 755
117 15 750 756
118 7 208 210
119 4 210 214
120 4 210 215
121 4 210 216
122 7 643 646
123 8 205 206
124 7 205 207
125 7 205 208
126 4 162 166
127 4 162 167
128 4 162 168
129 7 207 209
130 4 197 199
131 4 197 200
132 4 197 201
133 15 757 758
134 15 757 759
135 15 757 760
136 15 757 761
137 15 757 762
138 15 757 763
139 4 353 355
140 4 353 356
141 4 353 357
142 4 510 514
143 4 510 515
144 4 510 516
145 4 606 607
146 4 606 608
147 4 354 358
148 4 354 359
149 4 354 360
150 7 351 353
151 8 349 350
152 7 349 351
153 7 349 352
154 7 352 354
155 4 173 175
156 4 173 176
157 4 173 177
158 7 171 173
159 4 646 647
160 4 646 648
161 15 764 765
162 15 764 766
163 15 764 767
164 15 764 768
165 15 764 769
166 15 764 770
167 1 645 646
168 4 645 649
169 4 645 650
170 7 644 645
171 8 641 642
172 7 641 643
173 7 641 644
174 4 521 523
175 4 521 524
176 4 521 525
177 8 517 518
178 7 517 519
179 7 517 520
180 7 519 521
181 7 684 685
182 7 520 522
183 8 681 682
184 7 681 683
185 7 681 684
186 4 390 394
187 4 390 395
188 4 390 396
189 7 388 390
190 4 377 379
191 4 377 380
192 4 377 381
193 7 387 389
194 8 385 386
195 7 385 387
196 7 385 388
197 8 325 326
198 7 325 327
199 7 325 328
200 7 328 330
201 7 172 174
202 4 174 178
203 4 174 179
204 4 174 180
205 4 101 103
206 4 101 104
207 4 101 105
208 7 99 101
209 8 97 98
210 7 97 99
211 7 97 100
212 8 169 170
213 7 169 171
214 7 169 172
215 4 522 526
216 4 522 527
217 4 522 528
218 8 121 122
219 7 121 123
220 7 121 124
221 1 625 626
222 4 625 629
223 4 625 630
224 7 624 625
225 7 623 626
226 8 621 622
227 7 621 623
228 7 621 624
229 4 626 627
230 4 626 628
231 7 574 575
232 4 576 577
233 4 576 578
234 7 573 576
235 1 575 576
236 4 575 579
237 4 575 580
238 8 571 572
239 7 571 573
240 7 571 574
241 7 112 114
242 4 426 430
243 4 426 431
244 4 426 432
245 4 53 55
246 4 53 56
247 4 53 57
248 7 51 53
249 7 124 126
250 4 114 118
251 4 114 119
252 4 114 120
253 4 126 130
254 4 126 131
255 4 126 132
256 7 64 66
257 4 66 70
258 4 66 71
259 4 66 72
260 7 123 125
261 8 1 2
262 7 1 3
263 7 1 4
264 7 4 6
265 4 6 10
266 4 6 11
267 4 6 12
268 4 317 319
269 4 317 320
270 4 317 321
271 7 27 29
272 7 553 556
273 8 551 552
274 7 551 553
275 7 551 554
276 4 556 557
277 4 556 558
278 7 554 555
279 1 555 556
280 4 555 559
281 4 555 560
282 7 436 438
283 8 109 110
284 7 109 111
285 7 109 112
286 1 605 606
287 4 605 609
288 4 605 610
289 7 604 605
290 4 113 115
291 4 113 116
292 4 113 117
293 7 111 113
294 8 433 434
295 7 433 435
296 7 433 436
297 4 17 19
298 4 17 20
299 4 17 21
300 7 15 17
301 4 437 439
302 4 437 440
303 4 437 441
304 7 435 437
305 4 30 34
306 4 30 35
307 4 30 36
308 7 28 30
309 8 25 26
310 7 25 27
311 7 25 28
312 4 209 211
313 4 209 212
314 4 209 213
315 4 462 466
316 4 462 467
317 4 462 468
318 7 460 462
319 4 29 31
320 4 29 32
321 4 29 33
322 7 375 377
323 7 508 510
324 8 505 506
325 7 505 507
326 7 505 508
327 7 507 509
328 4 509 511
329 4 509 512
330 4 509 513
331 7 603 606
332 4 716 717
333 4 716 718
334 4 389 391
335 4 389 392
336 4 389 393
337 8 601 602
338 7 601 603
339 7 601 604
340 1 715 716
341 4 715 719
342 4 715 720
343 7 714 715
344 8 13 14
345 7 13 15
346 7 13 16
347 7 100 102
348 7 16 18
349 4 18 22
350 4 18 23
351 4 18 24
352 4 102 106
353 4 102 107
354 4 102 108
355 7 713 716
356 7 683 686
357 8 181 182
358 7 181 183
359 7 181 184
360 7 183 185
361 7 184 186
362 4 54 58
363 4 54 59
364 4 54 60
365 4 185 187
366 4 185 188
367 4 185 189
368 4 461 463
369 4 461 464
370 4 461 465
371 1 685 686
372 4 685 689
373 4 685 690
374 4 686 687
375 4 686 688
376 7 363 365
377 8 361 362
378 7 361 363
379 7 361 364
380 7 364 366
381 4 365 367
382 4 365 368
383 4 365 369
384 4 497 499
385 4 497 500
386 4 497 501
387 4 330 334
388 4 330 335
389 4 330 336
390 7 87 89
391 7 327 329
392 7 88 90
393 4 90 94
394 4 90 95
395 4 90 96
396 8 85 86
397 7 85 87
398 7 85 88
399 4 77 79
400 4 77 80
401 4 77 81
402 8 73 74
403 7 73 75
404 7 73 76
405 7 75 77
406 7 52 54
407 4 498 502
408 4 498 503
409 4 498 504
410 4 125 127
411 4 125 128
412 4 125 129
413 7 496 498
414 7 495 497
415 8 493 494
416 7 493 495
417 7 493 496
418 7 39 41
419 4 41 43
420 4 41 44
421 4 41 45
422 7 40 42
423 8 37 38
424 7 37 39
425 7 37 40
426 4 329 331
427 4 329 332
428 4 329 333
429 4 42 46
430 4 42 47
431 4 42 48
432 4 414 418
433 4 414 419
434 4 414 420
435 8 409 410
436 7 409 411
437 7 409 412
438 8 49 50
439 7 49 51
440 7 49 52
441 7 412 414
442 4 413 415
443 4 413 416
444 4 413 417
445 7 411 413
446 4 138 142
447 4 138 143
448 4 138 144
449 7 136 138
450 8 133 134
451 7 133 135
452 7 133 136
453 7 315 317
454 8 651 652
455 7 651 653
456 7 651 654
457 7 653 656
458 4 318 322
459 4 318 323
460 4 318 324
461 8 313 314
462 7 313 315
463 7 313 316
464 7 316 318
465 4 656 657
466 4 656 658
467 1 655 656
468 4 655 659
469 4 655 660
470 4 402 406
471 4 402 407
472 4 402 408
473 8 397 398
474 7 397 399
475 7 397 400
476 7 243 245
477 4 245 247
478 4 245 248
479 4 245 249
480 7 472 474
481 7 399 401
482 4 474 478
483 4 474 479
484 4 474 480
485 7 135 137
486 4 137 139
487 4 137 140
488 4 137 141
489 8 469 470
490 7 469 471
491 7 469 472
492 4 186 190
493 4 186 191
494 4 186 192
495 7 459 461
496 8 457 458
497 7 457 459
498 7 457 460
499 8 373 374
500 7 373 375
501 7 373 376
502 7 400 402
503 7 376 378
504 4 378 382
505 4 378 383
506 4 378 384
507 4 366 370
508 4 366 371
509 4 366 372
510 4 401 403
511 4 401 404
512 4 401 405
513 8 561 562
514 7 561 563
515 7 561 564
516 7 564 565
517 4 78 82
518 4 78 83
519 4 78 84
520 7 76 78
521 8 721 722
522 7 721 723
523 7 721 724
524 8 711 712
525 7 711 713
526 7 711 714
527 4 726 727
528 4 726 728
529 1 725 726
530 4 725 729
531 4 725 730
532 7 723 726
533 1 635 636
534 4 635 639
535 4 635 640
536 4 636 637
537 4 636 638
538 7 634 635
539 7 483 485
540 4 485 487
541 4 485 488
542 4 485 489
543 7 633 636
544 8 631 632
545 7 631 633
546 7 631 634
547 4 89 91
548 4 89 92
549 4 89 93
550 4 486 490
551 4 486 491
552 4 486 492
553 7 484 486
554 8 481 482
555 7 481 483
556 7 481 484
557 8 701 702
558 7 701 703
559 7 701 704
560 7 704 705
561 7 280 282
562 4 282 286
563 4 282 287
564 4 282 288
565 4 150 154
566 4 150 155
567 4 150 156
568 7 148 150
569 8 145 146
570 7 145 147
571 7 145 148
572 4 149 151
573 4 149 152
574 4 149 153
575 7 147 149
576 4 293 295
577 4 293 296
578 4 293 297
579 8 289 290
580 7 289 291
581 7 289 292
582 4 294 298
583 4 294 299
584 4 294 300
585 7 292 294
586 4 234 238
587 4 234 239
588 4 234 240
589 7 232 234
590 8 229 230
591 7 229 231
592 7 229 232
593 1 585 586
594 4 585 589
595 4 585 590
596 7 584 585
597 4 586 587
598 4 586 588
599 4 676 677
600 4 676 678
601 8 671 672
602 7 671 673
603 7 671 674
604 7 673 676
605 1 675 676
606 4 675 679
607 4 675 680
608 7 674 675
609 7 594 595
610 7 593 596
611 8 591 592
612 7 591 593
613 7 591 594
614 1 595 596
615 4 595 599
616 4 595 600
617 4 596 597
618 4 596 598
619 4 281 283
620 4 281 284
621 4 281 285
622 7 291 293
623 4 306 310
624 4 306 311
625 4 306 312
626 7 304 306
627 8 301 302
628 7 301 303
629 7 301 304
630 7 303 305
631 4 305 307
632 4 305 308
633 4 305 309
634 7 231 233
635 7 654 655
636 4 533 535
637 4 533 536
638 4 533 537
639 7 531 533
640 4 233 235
641 4 233 236
642 4 233 237
643 4 246 250
644 4 246 251
645 4 246 252
646 7 244 246
647 8 529 530
648 7 529 531
649 7 529 532
650 7 532 534
651 4 616 617
652 4 616 618
653 1 615 616
654 4 615 619
655 4 615 620
656 8 253 254
657 7 253 255
658 7 253 256
659 8 241 242
660 7 241 243
661 7 241 244
662 7 614 615
663 4 473 475
664 4 473 476
665 4 473 477
666 8 611 612
667 7 611 613
668 7 611 614
669 4 257 259
670 4 257 260
671 4 257 261
672 7 471 473
673 7 255 257
674 7 694 695
675 8 691 692
676 7 691 693
677 7 691 694
678 7 160 162
679 7 159 161
680 4 161 163
681 4 161 164
682 4 161 165
683 8 157 158
684 7 157 159
685 7 157 160
686 8 661 662
687 7 661 663
688 7 661 664
689 7 613 616
690 7 663 666
691 7 664 665
692 1 665 666
693 4 665 669
694 4 665 670
695 4 666 667
696 4 666 668
697 7 563 566
698 7 703 706
699 1 565 566
700 4 565 569
701 4 565 570
702 4 706 707
703 4 706 708
704 4 566 567
705 4 566 568
706 1 705 706
707 4 705 709
708 4 705 710
709 7 724 725
710 7 693 696
711 1 695 696
712 4 695 699
713 4 695 700
714 4 696 697
715 4 696 698

Angles

1 18 737 736 738
2 18 739 736 740
3 18 741 736 742
4 17 737 736 739
5 17 737 736 740
6 17 737 736 741
7 17 737 736 742
8 17 738 736 739
9 17 738 736 740
10 17 738 736 741
11 17 738 736 742
12 17 739 736 741
13 17 739 736 742
14 17 740 736 741
15 17 740 736 742
16 4 339 341 343
17 4 339 341 344
18 4 339 341 345
19 7 343 341 344
20 7 343 341 345
21 7 344 341 345
22 4 267 269 271
23 4 267 269 272
24 4 267 269 273
25 7 271 269 272
26 7 271 269 273
27 7 272 269 273
28 9 337 339 341
29 11 338 337 339
30 11 338 337 340
31 12 339 337 340
32 4 340 342 346
33 4 340 342 347
34 4 340 342 348
35 7 346 342 347
36 7 346 342 348
37 7 347 342 348
38 9 337 340 342
39 9 541 543 546
40 11 542 541 543
41 11 542 541 544
42 12 543 541 544
43 9 541 544 545
44 13 543 546 545
45 4 545 546 547
46 4 545 546 548
47 6 547 546 548
48 13 544 545 546
49 4 546 545 549
50 4 546 545 550
51 6 549 545 550
52 9 265 267 269
53 4 268 270 274
54 4 268 270 275
55 4 268 270 276
56 7 274 270 275
57 7 274 270 276
58 7 275 270 276
59 9 265 268 270
60 11 266 265 267
61 11 266 265 268
62 12 267 265 268
63 11 218 217 219
64 11 218 217 220
65 12 219 217 220
66 9 217 220 222
67 4 220 222 226
68 4 220 222 227
69 4 220 222 228
70 7 226 222 227
71 7 226 222 228
72 7 227 222 228
73 9 217 219 221
74 4 219 221 223
75 4 219 221 224
76 4 219 221 225
77 7 223 221 224
78 7 223 221 225
79 7 224 221 225
80 11 446 445 447
81 11 446 445 448
82 12 447 445 448
83 9 445 448 450
84 11 582 581 583
85 11 582 581 584
86 12 583 581 584
87 9 581 583 586
88 4 448 450 454
89 4 448 450 455
90 4 448 450 456
91 7 454 450 455
92 7 454 450 456
93 7 455 450 456
94 4 447 449 451
95 4 447 449 452
96 4 447 449 453
97 7 451 449 452
98 7 451 449 453
99 7 452 449 453
100 9 445 447 449
101 9 421 424 426
102 11 422 421 423
103 11 422 421 424
104 12 423 421 424
105 9 421 423 425
106 11 62 61 63
107 11 62 61 64
108 12 63 61 64
109 4 63 65 67
110 4 63 65 68
111 4 63 65 69
112 7 67 65 68
113 7 67 65 69
114 7 68 65 69
115 9 61 63 65
116 9 277 279 281
117 11 278 277 279
118 11 278 277 280
119 12 279 277 280
120 4 423 425 427
121 4 423 425 428
122 4 423 425 429
123 7 427 425 428
124 7 427 425 429
125 7 428 425 429
126 9 193 196 198
127 4 196 198 202
128 4 196 198 203
129 4 196 198 204
130 7 202 198 203
131 7 202 198 204
132 7 203 198 204
133 11 194 193 195
134 11 194 193 196
135 12 195 193 196
136 9 193 195 197
137 9 1 3 5
138 4 3 5 7
139 4 3 5 8
140 4 3 5 9
141 7 7 5 8
142 7 7 5 9
143 7 8 5 9
144 18 744 743 745
145 18 746 743 747
146 18 748 743 749
147 17 744 743 746
148 17 744 743 747
149 17 744 743 748
150 17 744 743 749
151 17 745 743 746
152 17 745 743 747
153 17 745 743 748
154 17 745 743 749
155 17 746 743 748
156 17 746 743 749
157 17 747 743 748
158 17 747 743 749
159 4 532 534 538
160 4 532 534 539
161 4 532 534 540
162 7 538 534 539
163 7 538 534 540
164 7 539 534 540
165 9 253 256 258
166 4 256 258 262
167 4 256 258 263
168 4 256 258 264
169 7 262 258 263
170 7 262 258 264
171 7 263 258 264
172 4 436 438 442
173 4 436 438 443
174 4 436 438 444
175 7 442 438 443
176 7 442 438 444
177 7 443 438 444
178 18 751 750 752
179 18 753 750 754
180 18 755 750 756
181 17 751 750 753
182 17 751 750 754
183 17 751 750 755
184 17 751 750 756
185 17 752 750 753
186 17 752 750 754
187 17 752 750 755
188 17 752 750 756
189 17 753 750 755
190 17 753 750 756
191 17 754 750 755
192 17 754 750 756
193 9 205 208 210
194 4 208 210 214
195 4 208 210 215
196 4 208 210 216
197 7 214 210 215
198 7 214 210 216
199 7 215 210 216
200 9 641 643 646
201 11 206 205 207
202 11 206 205 208
203 12 207 205 208
204 4 160 162 166
205 4 160 162 167
206 4 160 162 168
207 7 166 162 167
208 7 166 162 168
209 7 167 162 168
210 9 205 207 209
211 4 195 197 199
212 4 195 197 200
213 4 195 197 201
214 7 199 197 200
215 7 199 197 201
216 7 200 197 201
217 18 758 757 759
218 18 760 757 761
219 18 762 757 763
220 17 758 757 760
221 17 758 757 761
222 17 758 757 762
223 17 758 757 763
224 17 759 757 760
225 17 759 757 761
226 17 759 757 762
227 17 759 757 763
228 17 760 757 762
229 17 760 757 763
230 17 761 757 762
231 17 761 757 763
232 4 351 353 355
233 4 351 353 356
234 4 351 353 357
235 7 355 353 356
236 7 355 353 357
237 7 356 353 357
238 4 508 510 514
239 4 508 510 515
240 4 508 510 516
241 7 514 510 515
242 7 514 510 516
243 7 515 510 516
244 13 603 606 605
245 4 605 606 607
246 4 605 606 608
247 6 607 606 608
248 4 352 354 358
249 4 352 354 359
250 4 352 354 360
251 7 358 354 359
252 7 358 354 360
253 7 359 354 360
254 9 349 351 353
255 11 350 349 351
256 11 350 349 352
257 12 351 349 352
258 9 349 352 354
259 4 171 173 175
260 4 171 173 176
261 4 171 173 177
262 7 175 173 176
263 7 175 173 177
264 7 176 173 177
265 9 169 171 173
266 13 643 646 645
267 4 645 646 647
268 4 645 646 648
269 6 647 646 648
270 18 765 764 766
271 18 767 764 768
272 18 769 764 770
273 17 765 764 767
274 17 765 764 768
275 17 765 764 769
276 17 765 764 770
277 17 766 764 767
278 17 766 764 768
279 17 766 764 769
280 17 766 764 770
281 17 767 764 769
282 17 767 764 770
283 17 768 764 769
284 17 768 764 770
285 13 644 645 646
286 4 646 645 649
287 4 646 645 650
288 6 649 645 650
289 9 641 644 645
290 11 642 641 643
291 11 642 641 644
292 12 643 641 644
293 4 519 521 523
294 4 519 521 524
295 4 519 521 525
296 7 523 521 524
297 7 523 521 525
298 7 524 521 525
299 11 518 517 519
300 11 518 517 520
301 12 519 517 520
302 9 517 519 521
303 9 681 684 685
304 9 517 520 522
305 11 682 681 683
306 11 682 681 684
307 12 683 681 684
308 4 388 390 394
309 4 388 390 395
310 4 388 390 396
311 7 394 390 395
312 7 394 390 396
313 7 395 390 396
314 9 385 388 390
315 4 375 377 379
316 4 375 377 380
317 4 375 377 381
318 7 379 377 380
319 7 379 377 381
320 7 380 377 381
321 9 385 387 389
322 11 386 385 387
323 11 386 385 388
324 12 387 385 388
325 11 326 325 327
326 11 326 325 328
327 12 327 325 328
328 9 325 328 330
329 9 169 172 174
330 4 172 174 178
331 4 172 174 179
332 4 172 174 180
333 7 178 174 179
334 7 178 174 180
335 7 179 174 180
336 4 99 101 103
337 4 99 101 104
338 4 99 101 105
339 7 103 101 104
340 7 103 101 105
341 7 104 101 105
342 9 97 99 101
343 11 98 97 99
344 11 98 97 100
345 12 99 97 100
346 11 170 169 171
347 11 170 169 172
348 12 171 169 172
349 4 520 522 526
350 4 520 522 527
351 4 520 522 528
352 7 526 522 527
353 7 526 522 528
354 7 527 522 528
355 11 122 121 123
356 11 122 121 124
357 12 123 121 124
358 13 624 625 626
359 4 626 625 629
360 4 626 625 630
361 6 629 625 630
362 9 621 624 625
363 9 621 623 626
364 11 622 621 623
365 11 622 621 624
366 12 623 621 624
367 13 623 626 625
368 4 625 626 627
369 4 625 626 628
370 6 627 626 628
371 9 571 574 575
372 13 573 576 575
373 4 575 576 577
374 4 575 576 578
375 6 577 576 578
376 9 571 573 576
377 13 574 575 576
378 4 576 575 579
379 4 576 575 580
380 6 579 575 580
381 11 572 571 573
382 11 572 571 574
383 12 573 571 574
384 9 109 112 114
385 4 424 426 430
386 4 424 426 431
387 4 424 426 432
388 7 430 426 431
389 7 430 426 432
390 7 431 426 432
391 4 51 53 55
392 4 51 53 56
393 4 51 53 57
394 7 55 53 56
395 7 55 53 57
396 7 56 53 57
397 9 49 51 53
398 9 121 124 126
399 4 112 114 118
400 4 112 114 119
401 4 112 114 120
402 7 118 114 119
403 7 118 114 120
404 7 119 114 120
405 4 124 126 130
406 4 124 126 131
407 4 124 126 132
408 7 130 126 131
409 7 130 126 132
410 7 131 126 132
411 9 61 64 66
412 4 64 66 70
413 4 64 66 71
414 4 64 66 72
415 7 70 66 71
416 7 70 66 72
417 7 71 66 72
418 9 121 123 125
419 11 2 1 3
420 11 2 1 4
421 12 3 1 4
422 9 1 4 6
423 4 4 6 10
424 4 4 6 11
425 4 4 6 12
426 7 10 6 11
427 7 10 6 12
428 7 11 6 12
429 4 315 317 319
430 4 315 317 320
431 4 315 317 321
432 7 319 317 320
433 7 319 317 321
434 7 320 317 321
435 9 25 27 29
436 9 551 553 556
437 11 552 551 553
438 11 552 551 554
439 12 553 551 554
440 13 553 556 555
441 4 555 556 557
442 4 555 556 558
443 6 557 556 558
444 9 551 554 555
445 13 554 555 556
446 4 556 555 559
447 4 556 555 560
448 6 559 555 560
449 9 433 436 438
450 11 110 109 111
451 11 110 109 112
452 12 111 109 112
453 13 604 605 606
454 4 606 605 609
455 4 606 605 610
456 6 609 605 610
457 9 601 604 605
458 4 111 113 115
459 4 111 113 116
460 4 111 113 117
461 7 115 113 116
462 7 115 113 117
463 7 116 113 117
464 9 109 111 113
465 11 434 433 435
466 11 434 433 436
467 12 435 433 436
468 4 15 17 19
469 4 15 17 20
470 4 15 17 21
471 7 19 17 20
472 7 19 17 21
473 7 20 17 21
474 9 13 15 17
475 4 435 437 439
476 4 435 437 440
477 4 435 437 441
478 7 439 437 440
479 7 439 437 441
480 7 440 437 441
481 9 433 435 437
482 4 28 30 34
483 4 28 30 35
484 4 28 30 36
485 7 34 30 35
486 7 34 30 36
487 7 35 30 36
488 9 25 28 30
489 11 26 25 27
490 11 26 25 28
491 12 27 25 28
492 4 207 209 211
493 4 207 209 212
494 4 207 209 213
495 7 211 209 212
496 7 211 209 213
497 7 212 209 213
498 4 460 462 466
499 4 460 462 467
500 4 460 462 468
501 7 466 462 467
502 7 466 462 468
503 7 467 462 468
504 9 457 460 462
505 4 27 29 31
506 4 27 29 32
507 4 27 29 33
508 7 31 29 32
509 7 31 29 33
510 7 32 29 33
511 9 373 375 377
512 9 505 508 510
513 11 506 505 507
514 11 506 505 508
515 12 507 505 508
516 9 505 507 509
517 4 507 509 511
518 4 507 509 512
519 4 507 509 513
520 7 511 509 512
521 7 511 509 513
522 7 512 509 513
523 9 601 603 606
524 13 713 716 715
525 4 715 716 717
526 4 715 716 718
527 6 717 716 718
528 4 387 389 391
529 4 387 389 392
530 4 387 389 393
531 7 391 389 392
532 7 391 389 393
533 7 392 389 393
534 11 602 601 603
535 11 602 601 604
536 12 603 601 604
537 13 714 715 716
538 4 716 715 719
539 4 716 715 720
540 6 719 715 720
541 9 711 714 715
542 11 14 13 15
543 11 14 13 16
544 12 15 13 16
545 9 97 100 102
546 9 13 16 18
547 4 16 18 22
548 4 16 18 23
549 4 16 18 24
550 7 22 18 23
551 7 22 18 24
552 7 23 18 24
553 4 100 102 106
554 4 100 102 107
555 4 100 102 108
556 7 106 102 107
557 7 106 102 108
558 7 107 102 108
559 9 711 713 716
560 9 681 683 686
561 11 182 181 183
562 11 182 181 184
563 12 183 181 184
564 9 181 183 185
565 9 181 184 186
566 4 52 54 58
567 4 52 54 59
568 4 52 54 60
569 7 58 54 59
570 7 58 54 60
571 7 59 54 60
572 4 183 185 187
573 4 183 185 188
574 4 183 185 189
575 7 187 185 188
576 7 187 185 189
577 7 188 185 189
578 4 459 461 463
579 4 459 461 464
580 4 459 461 465
581 7 463 461 464
582 7 463 461 465
583 7 464 461 465
584 13 684 685 686
585 4 686 685 689
586 4 686 685 690
587 6 689 685 690
588 13 683 686 685
589 4 685 686 687
590 4 685 686 688
591 6 687 686 688
592 9 361 363 365
593 11 362 361 363
594 11 362 361 364
595 12 363 361 364
596 9 361 364 366
597 4 363 365 367
598 4 363 365 368
599 4 363 365 369
600 7 367 365 368
601 7 367 365 369
602 7 368 365 369
603 4 495 497 499
604 4 495 497 500
605 4 495 497 501
606 7 499 497 500
607 7 499 497 501
608 7 500 497 501
609 4 328 330 334
610 4 328 330 335
611 4 328 330 336
612 7 334 330 335
613 7 334 330 336
614 7 335 330 336
615 9 85 87 89
616 9 325 327 329
617 9 85 88 90
618 4 88 90 94
619 4 88 90 95
620 4 88 90 96
621 7 94 90 95
622 7 94 90 96
623 7 95 90 96
624 11 86 85 87
625 11 86 85 88
626 12 87 85 88
627 4 75 77 79
628 4 75 77 80
629 4 75 77 81
630 7 79 77 80
631 7 79 77 81
632 7 80 77 81
633 11 74 73 75
634 11 74 73 76
635 12 75 73 76
636 9 73 75 77
637 9 49 52 54
638 4 496 498 502
639 4 496 498 503
640 4 496 498 504
641 7 502 498 503
642 7 502 498 504
643 7 503 498 504
644 4 123 125 127
645 4 123 125 128
646 4 123 125 129
647 7 127 125 128
648 7 127 125 129
649 7 128 125 129
650 9 493 496 498
651 9 493 495 497
652 11 494 493 495
653 11 494 493 496
654 12 495 493 496
655 9 37 39 41
656 4 39 41 43
657 4 39 41 44
658 4 39 41 45
659 7 43 41 44
660 7 43 41 45
661 7 44 41 45
662 9 37 40 42
663 11 38 37 39
664 11 38 37 40
665 12 39 37 40
666 4 327 329 331
667 4 327 329 332
668 4 327 329 333
669 7 331 329 332
670 7 331 329 333
671 7 332 329 333
672 4 40 42 46
673 4 40 42 47
674 4 40 42 48
675 7 46 42 47
676 7 46 42 48
677 7 47 42 48
678 4 412 414 418
679 4 412 414 419
680 4 412 414 420
681 7 418 414 419
682 7 418 414 420
683 7 419 414 420
684 11 410 409 411
685 11 410 409 412
686 12 411 409 412
687 11 50 49 51
688 11 50 49 52
689 12 51 49 52
690 9 409 412 414
691 4 411 413 415
692 4 411 413 416
693 4 411 413 417
694 7 415 413 416
695 7 415 413 417
696 7 416 413 417
697 9 409 411 413
698 4 136 138 142
699 4 136 138 143
700 4 136 138 144
701 7 142 138 143
702 7 142 138 144
703 7 143 138 144
704 9 133 136 138
705 11 134 133 135
706 11 134 133 136
707 12 135 133 136
708 9 313 315 317
709 11 652 651 653
710 11 652 651 654
711 12 653 651 654
712 9 651 653 656
713 4 316 318 322
714 4 316 318 323
715 4 316 318 324
716 7 322 318 323
717 7 322 318 324
718 7 323 318 324
719 11 314 313 315
720 11 314 313 316
721 12 315 313 316
722 9 313 316 318
723 13 653 656 655
724 4 655 656 657
725 4 655 656 658
726 6 657 656 658
727 13 654 655 656
728 4 656 655 659
729 4 656 655 660
730 6 659 655 660
731 4 400 402 406
732 4 400 402 407
733 4 400 402 408
734 7 406 402 407
735 7 406 402 408
736 7 407 402 408
737 11 398 397 399
738 11 398 397 400
739 12 399 397 400
740 9 241 243 245
741 4 243 245 247
742 4 243 245 248
743 4 243 245 249
744 7 247 245 248
745 7 247 245 249
746 7 248 245 249
747 9 469 472 474
748 9 397 399 401
749 4 472 474 478
750 4 472 474 479
751 4 472 474 480
752 7 478 474 479
753 7 478 474 480
754 7 479 474 480
755 9 133 135 137
756 4 135 137 139
757 4 135 137 140
758 4 135 137 141
759 7 139 137 140
760 7 139 137 141
761 7 140 137 141
762 11 470 469 471
763 11 470 469 472
764 12 471 469 472
765 4 184 186 190
766 4 184 186 191
767 4 184 186 192
768 7 190 186 191
769 7 190 186 192
770 7 191 186 192
771 9 457 459 461
772 11 458 457 459
773 11 458 457 460
774 12 459 457 460
775 11 374 373 375
776 11 374 373 376
777 12 375 373 376
778 9 397 400 402
779 9 373 376 378
780 4 376 378 382
781 4 376 378 383
782 4 376 378 384
783 7 382 378 383
784 7 382 378 384
785 7 383 378 384
786 4 364 366 370
787 4 364 366 371
788 4 364 366 372
789 7 370 366 371
790 7 370 366 372
791 7 371 366 372
792 4 399 401 403
793 4 399 401 404
794 4 399 401 405
795 7 403 401 404
796 7 403 401 405
797 7 404 401 405
798 11 562 561 563
799 11 562 561 564
800 12 563 561 564
801 9 561 564 565
802 4 76 78 82
803 4 76 78 83
804 4 76 78 84
805 7 82 78 83
806 7 82 78 84
807 7 83 78 84
808 9 73 76 78
809 11 722 721 723
810 11 722 721 724
811 12 723 721 724
812 11 712 711 713
813 11 712 711 714
814 12 713 711 714
815 13 723 726 725
816 4 725 726 727
817 4 725 726 728
818 6 727 726 728
819 13 724 725 726
820 4 726 725 729
821 4 726 725 730
822 6 729 725 730
823 9 721 723 726
824 13 634 635 636
825 4 636 635 639
826 4 636 635 640
827 6 639 635 640
828 13 633 636 635
829 4 635 636 637
830 4 635 636 638
831 6 637 636 638
832 9 631 634 635
833 9 481 483 485
834 4 483 485 487
835 4 483 485 488
836 4 483 485 489
837 7 487 485 488
838 7 487 485 489
839 7 488 485 489
840 9 631 633 636
841 11 632 631 633
842 11 632 631 634
843 12 633 631 634
844 4 87 89 91
845 4 87 89 92
846 4 87 89 93
847 7 91 89 92
848 7 91 89 93
849 7 92 89 93
850 4 484 486 490
851 4 484 486 491
852 4 484 486 492
853 7 490 486 491
854 7 490 486 492
855 7 491 486 492
856 9 481 484 486
857 11 482 481 483
858 11 482 481 484
859 12 483 481 484
860 11 702 701 703
861 11 702 701 704
862 12 703 701 704
863 9 701 704 705
864 9 277 280 282
865 4 280 282 286
866 4 280 282 287
867 4 280 282 288
868 7 286 282 287
869 7 286 282 288
870 7 287 282 288
871 4 148 150 154
872 4 148 150 155
873 4 148 150 156
874 7 154 150 155
875 7 154 150 156
876 7 155 150 156
877 9 145 148 150
878 11 146 145 147
879 11 146 145 148
880 12 147 145 148
881 4 147 149 151
882 4 147 149 152
883 4 147 149 153
884 7 151 149 152
885 7 151 149 153
886 7 152 149 153
887 9 145 147 149
888 4 291 293 295
889 4 291 293 296
890 4 291 293 297
891 7 295 293 296
892 7 295 293 297
893 7 296 293 297
894 11 290 289 291
895 11 290 289 292
896 12 291 289 292
897 4 292 294 298
898 4 292 294 299
899 4 292 294 300
900 7 298 294 299
901 7 298 294 300
902 7 299 294 300
903 9 289 292 294
904 4 232 234 238
905 4 232 234 239
906 4 232 234 240
907 7 238 234 239
908 7 238 234 240
909 7 239 234 240
910 9 229 232 234
911 11 230 229 231
912 11 230 229 232
913 12 231 229 232
914 13 584 585 586
915 4 586 585 589
916 4 586 585 590
917 6 589 585 590
918 9 581 584 585
919 13 583 586 585
920 4 585 586 587
921 4 585 586 588
922 6 587 586 588
923 13 673 676 675
924 4 675 676 677
925 4 675 676 678
926 6 677 676 678
927 11 672 671 673
928 11 672 671 674
929 12 673 671 674
930 9 671 673 676
931 13 674 675 676
932 4 676 675 679
933 4 676 675 680
934 6 679 675 680
935 9 671 674 675
936 9 591 594 595
937 9 591 593 596
938 11 592 591 593
939 11 592 591 594
940 12 593 591 594
941 13 594 595 596
942 4 596 595 599
943 4 596 595 600
944 6 599 595 600
945 13 593 596 595
946 4 595 596 597
947 4 595 596 598
948 6 597 596 598
949 4 279 281 283
950 4 279 281 284
951 4 279 281 285
952 7 283 281 284
953 7 283 281 285
954 7 284 281 285
955 9 289 291 293
956 4 304 306 310
957 4 304 306 311
958 4 304 306 312
959 7 310 306 311
960 7 310 306 312
961 7 311 306 312
962 9 301 304 306
963 11 302 301 303
964 11 302 301 304
965 12 303 301 304
966 9 301 303 305
967 4 303 305 307
968 4 303 305 308
969 4 303 305 309
970 7 307 305 308
971 7 307 305 309
972 7 308 305 309
973 9 229 231 233
974 9 651 654 655
975 4 531 533 535
976 4 531 533 536
977 4 531 533 537
978 7 535 533 536
979 7 535 533 537
980 7 536 533 537
981 9 529 531 533
982 4 231 233 235
983 4 231 233 236
984 4 231 233 237
985 7 235 233 236
986 7 235 233 237
987 7 236 233 237
988 4 244 246 250
989 4 244 246 251
990 4 244 246 252
991 7 250 246 251
992 7 250 246 252
993 7 251 246 252
994 9 241 244 246
995 11 530 529 531
996 11 530 529 532
997 12 531 529 532
998 9 529 532 534
999 13 613 616 615
1000 4 615 616 617
1001 4 615 616 618
1002 6 617 616 618
1003 13 614 615 616
1004 4 616 615 619
1005 4 616 615 620
1006 6 619 615 620
1007 11 254 253 255
1008 11 254 253 256
1009 12 255 253 256
1010 11 242 241 243
1011 11 242 241 244
1012 12 243 241 244
1013 9 611 614 615
1014 4 471 473 475
1015 4 471 473 476
1016 4 471 473 477
1017 7 475 473 476
1018 7 475 473 477
1019 7 476 473 477
1020 11 612 611 613
1021 11 612 611 614
1022 12 613 611 614
1023 4 255 257 259
1024 4 255 257 260
1025 4 255 257 261
1026 7 259 257 260
1027 7 259 257 261
1028 7 260 257 261
1029 9 469 471 473
1030 9 253 255 257
1031 9 691 694 695
1032 11 692 691 693
1033 11 692 691 694
1034 12 693 691 694
1035 9 157 160 162
1036 9 157 159 161
1037 4 159 161 163
1038 4 159 161 164
1039 4 159 161 165
1040 7 163 161 164
1041 7 163 161 165
1042 7 164 161 165
1043 11 158 157 159
1044 11 158 157 160
1045 12 159 157 160
1046 11 662 661 663
1047 11 662 661 664
1048 12 663 661 664
1049 9 611 613 616
1050 9 661 663 666
1051 9 661 664 665
1052 13 664 665 666
1053 4 666 665 669
1054 4 666 665 670
1055 6 669 665 670
1056 13 663 666 665
1057 4 665 666 667
1058 4 665 666 668
1059 6 667 666 668
1060 9 561 563 566
1061 9 701 703 706
1062 13 564 565 566
1063 4 566 565 569
1064 4 566 565 570
1065 6 569 565 570
1066 13 703 706 705
1067 4 705 706 707
1068 4 705 706 708
1069 6 707 706 708
1070 13 563 566 565
1071 4 565 566 567
1072 4 565 566 568
1073 6 567 566 568
1074 13 704 705 706
1075 4 706 705 709
1076 4 706 705 710
1077 6 709 705 710
1078 9 721 724 725
1079 9 691 693 696
1080 13 694 695 696
1081 4 696 695 699
1082 4 696 695 700
1083 6 699 695 700
1084 13 693 696 695
1085 4 695 696 697
1086 4 695 696 698
1087 6 697 696 698

Dihedrals

1 6 337 339 341 343
2 6 337 339 341 344
3 6 337 339 341 345
4 8 338 337 339 341
5 8 338 337 340 342
6 6 337 340 342 346
7 6 337 340 342 347
8 6 337 340 342 348
9 5 541 543 546 545
10 8 542 541 543 546
11 8 542 541 544 545
12 7 541 544 545 546
13 7 543 546 545 544
14 6 265 267 269 271
15 6 265 267 269 272
16 6 265 267 269 273
17 6 265 268 270 274
18 6 265 268 270 275
19 6 265 268 270 276
20 8 266 265 267 269
21 8 266 265 268 270
22 8 218 217 219 221
23 8 218 217 220 222
24 6 217 220 222 226
25 6 217 220 222 227
26 6 217 220 222 228
27 6 217 219 221 223
28 6 217 219 221 224
29 6 217 219 221 225
30 8 446 445 447 449
31 8 446 445 448 450
32 6 445 448 450 454
33 6 445 448 450 455
34 6 445 448 450 456
35 8 582 581 583 586
36 8 582 581 584 585
37 5 581 583 586 585
38 6 445 447 449 451
39 6 445 447 449 452
40 6 445 447 449 453
41 6 421 424 426 430
42 6 421 424 426 431
43 6 421 424 426 432
44 8 422 421 423 425
45 8 422 421 424 426
46 6 421 423 425 427
47 6 421 423 425 428
48 6 421 423 425 429
49 8 62 61 63 65
50 8 62 61 64 66
51 6 61 63 65 67
52 6 61 63 65 68
53 6 61 63 65 69
54 6 277 279 281 283
55 6 277 279 281 284
56 6 277 279 281 285
57 8 278 277 279 281
58 8 278 277 280 282
59 6 193 196 198 202
60 6 193 196 198 203
61 6 193 196 198 204
62 8 194 193 195 197
63 8 194 193 196 198
64 6 193 195 197 199
65 6 193 195 197 200
66 6 193 195 197 201
67 6 1 3 5 7
68 6 1 3 5 8
69 6 1 3 5 9
70 6 253 256 258 262
71 6 253 256 258 263
72 6 253 256 258 264
73 6 205 208 210 214
74 6 205 208 210 215
75 6 205 208 210 216
76 5 641 643 646 645
77 8 206 205 207 209
78 8 206 205 208 210
79 6 205 207 209 211
80 6 205 207 209 212
81 6 205 207 209 213
82 7 603 606 605 604
83 6 349 351 353 355
84 6 349 351 353 356
85 6 349 351 353 357
86 8 350 349 351 353
87 8 350 349 352 354
88 6 349 352 354 358
89 6 349 352 354 359
90 6 349 352 354 360
91 6 169 171 173 175
92 6 169 171 173 176
93 6 169 171 173 177
94 7 643 646 645 644
95 7 641 644 645 646
96 8 642 641 643 646
97 8 642 641 644 645
98 8 518 517 519 521
99 8 518 517 520 522
100 6 517 519 521 523
101 6 517 519 521 524
102 6 517 519 521 525
103 7 681 684 685 686
104 6 517 520 522 526
105 6 517 520 522 527
106 6 517 520 522 528
107 8 682 681 683 686
108 8 682 681 684 685
109 6 385 388 390 394
110 6 385 388 390 395
111 6 385 388 390 396
112 6 385 387 389 391
113 6 385 387 389 392
114 6 385 387 389 393
115 8 386 385 387 389
116 8 386 385 388 390
117 8 326 325 327 329
118 8 326 325 328 330
119 6 325 328 330 334
120 6 325 328 330 335
121 6 325 328 330 336
122 6 169 172 174 178
123 6 169 172 174 179
124 6 169 172 174 180
125 6 97 99 101 103
126 6 97 99 101 104
127 6 97 99 101 105
128 8 98 97 99 101
129 8 98 97 100 102
130 8 170 169 171 173
131 8 170 169 172 174
132 8 122 121 123 125
133 8 122 121 124 126
134 7 621 624 625 626
135 5 621 623 626 625
136 8 622 621 623 626
137 8 622 621 624 625
138 7 623 626 625 624
139 7 571 574 575 576
140 7 573 576 575 574
141 5 571 573 576 575
142 8 572 571 573 576
143 8 572 571 574 575
144 6 109 112 114 118
145 6 109 112 114 119
146 6 109 112 114 120
147 6 49 51 53 55
148 6 49 51 53 56
149 6 49 51 53 57
150 6 121 124 126 130
151 6 121 124 126 131
152 6 121 124 126 132
153 6 61 64 66 70
154 6 61 64 66 71
155 6 61 64 66 72
156 6 121 123 125 127
157 6 121 123 125 128
158 6 121 123 125 129
159 8 2 1 3 5
160 8 2 1 4 6
161 6 1 4 6 10
162 6 1 4 6 11
163 6 1 4 6 12
164 6 25 27 29 31
165 6 25 27 29 32
166 6 25 27 29 33
167 5 551 553 556 555
168 8 552 551 553 556
169 8 552 551 554 555
170 7 553 556 555 554
171 7 551 554 555 556
172 6 433 436 438 442
173 6 433 436 438 443
174 6 433 436 438 444
175 8 110 109 111 113
176 8 110 109 112 114
177 7 601 604 605 606
178 6 109 111 113 115
179 6 109 111 113 116
180 6 109 111 113 117
181 8 434 433 435 437
182 8 434 433 436 438
183 6 13 15 17 19
184 6 13 15 17 20
185 6 13 15 17 21
186 6 433 435 437 439
187 6 433 435 437 440
188 6 433 435 437 441
189 6 25 28 30 34
190 6 25 28 30 35
191 6 25 28 30 36
192 8 26 25 27 29
193 8 26 25 28 30
194 6 457 460 462 466
195 6 457 460 462 467
196 6 457 460 462 468
197 6 373 375 377 379
198 6 373 375 377 380
199 6 373 375 377 381
200 6 505 508 510 514
201 6 505 508 510 515
202 6 505 508 510 516
203 8 506 505 507 509
204 8 506 505 508 510
205 6 505 507 509 511
206 6 505 507 509 512
207 6 505 507 509 513
208 5 601 603 606 605
209 7 713 716 715 714
210 8 602 601 603 606
211 8 602 601 604 605
212 7 711 714 715 716
213 8 14 13 15 17
214 8 14 13 16 18
215 6 97 100 102 106
216 6 97 100 102 107
217 6 97 100 102 108
218 6 13 16 18 22
219 6 13 16 18 23
220 6 13 16 18 24
221 5 711 713 716 715
222 5 681 683 686 685
223 8 182 181 183 185
224 8 182 181 184 186
225 6 181 183 185 187
226 6 181 183 185 188
227 6 181 183 185 189
228 6 181 184 186 190
229 6 181 184 186 191
230 6 181 184 186 192
231 7 683 686 685 684
232 6 361 363 365 367
233 6 361 363 365 368
234 6 361 363 365 369
235 8 362 361 363 365
236 8 362 361 364 366
237 6 361 364 366 370
238 6 361 364 366 371
239 6 361 364 366 372
240 6 85 87 89 91
241 6 85 87 89 92
242 6 85 87 89 93
243 6 325 327 329 331
244 6 325 327 329 332
245 6 325 327 329 333
246 6 85 88 90 94
247 6 85 88 90 95
248 6 85 88 90 96
249 8 86 85 87 89
250 8 86 85 88 90
251 8 74 73 75 77
252 8 74 73 76 78
253 6 73 75 77 79
254 6 73 75 77 80
255 6 73 75 77 81
256 6 49 52 54 58
257 6 49 52 54 59
258 6 49 52 54 60
259 6 493 496 498 502
260 6 493 496 498 503
261 6 493 496 498 504
262 6 493 495 497 499
263 6 493 495 497 500
264 6 493 495 497 501
265 8 494 493 495 497
266 8 494 493 496 498
267 6 37 39 41 43
268 6 37 39 41 44
269 6 37 39 41 45
270 6 37 40 42 46
271 6 37 40 42 47
272 6 37 40 42 48
273 8 38 37 39 41
274 8 38 37 40 42
275 8 410 409 411 413
276 8 410 409 412 414
277 8 50 49 51 53
278 8 50 49 52 54
279 6 409 412 414 418
280 6 409 412 414 419
281 6 409 412 414 420
282 6 409 411 413 415
283 6 409 411 413 416
284 6 409 411 413 417
285 6 133 136 138 142
286 6 133 136 138 143
287 6 133 136 138 144
288 8 134 133 135 137
289 8 134 133 136 138
290 6 313 315 317 319
291 6 313 315 317 320
292 6 313 315 317 321
293 8 652 651 653 656
294 8 652 651 654 655
295 5 651 653 656 655
296 8 314 313 315 317
297 8 314 313 316 318
298 6 313 316 318 322
299 6 313 316 318 323
300 6 313 316 318 324
301 7 653 656 655 654
302 8 398 397 399 401
303 8 398 397 400 402
304 6 241 243 245 247
305 6 241 243 245 248
306 6 241 243 245 249
307 6 469 472 474 478
308 6 469 472 474 479
309 6 469 472 474 480
310 6 397 399 401 403
311 6 397 399 401 404
312 6 397 399 401 405
313 6 133 135 137 139
314 6 133 135 137 140
315 6 133 135 137 141
316 8 470 469 471 473
317 8 470 469 472 474
318 6 457 459 461 463
319 6 457 459 461 464
320 6 457 459 461 465
321 8 458 457 459 461
322 8 458 457 460 462
323 8 374 373 375 377
324 8 374 373 376 378
325 6 397 400 402 406
326 6 397 400 402 407
327 6 397 400 402 408
328 6 373 376 378 382
329 6 373 376 378 383
330 6 373 376 378 384
331 8 562 561 563 566
332 8 562 561 564 565
333 7 561 564 565 566
334 6 73 76 78 82
335 6 73 76 78 83
336 6 73 76 78 84
337 8 722 721 723 726
338 8 722 721 724 725
339 8 712 711 713 716
340 8 712 711 714 715
341 7 723 726 725 724
342 5 721 723 726 725
343 7 633 636 635 634
344 7 631 634 635 636
345 6 481 483 485 487
346 6 481 483 485 488
347 6 481 483 485 489
348 5 631 633 636 635
349 8 632 631 633 636
350 8 632 631 634 635
351 6 481 484 486 490
352 6 481 484 486 491
353 6 481 484 486 492
354 8 482 481 483 485
355 8 482 481 484 486
356 8 702 701 703 706
357 8 702 701 704 705
358 7 701 704 705 706
359 6 277 280 282 286
360 6 277 280 282 287
361 6 277 280 282 288
362 6 145 148 150 154
363 6 145 148 150 155
364 6 145 148 150 156
365 8 146 145 147 149
366 8 146 145 148 150
367 6 145 147 149 151
368 6 145 147 149 152
369 6 145 147 149 153
370 8 290 289 291 293
371 8 290 289 292 294
372 6 289 292 294 298
373 6 289 292 294 299
374 6 289 292 294 300
375 6 229 232 234 238
376 6 229 232 234 239
377 6 229 232 234 240
378 8 230 229 231 233
379 8 230 229 232 234
380 7 581 584 585 586
381 7 583 586 585 584
382 7 673 676 675 674
383 8 672 671 673 676
384 8 672 671 674 675
385 5 671 673 676 675
386 7 671 674 675 676
387 7 591 594 595 596
388 5 591 593 596 595
389 8 592 591 593 596
390 8 592 591 594 595
391 7 593 596 595 594
392 6 289 291 293 295
393 6 289 291 293 296
394 6 289 291 293 297
395 6 301 304 306 310
396 6 301 304 306 311
397 6 301 304 306 312
398 8 302 301 303 305
399 8 302 301 304 306
400 6 301 303 305 307
401 6 301 303 305 308
402 6 301 303 305 309
403 6 229 231 233 235
404 6 229 231 233 236
405 6 229 231 233 237
406 7 651 654 655 656
407 6 529 531 533 535
408 6 529 531 533 536
409 6 529 531 533 537
410 6 241 244 246 250
411 6 241 244 246 251
412 6 241 244 246 252
413 8 530 529 531 533
414 8 530 529 532 534
415 6 529 532 534 538
416 6 529 532 534 539
417 6 529 532 534 540
418 7 613 616 615 614
419 8 254 253 255 257
420 8 254 253 256 258
421 8 242 241 243 245
422 8 242 241 244 246
423 7 611 614 615 616
424 8 612 611 613 616
425 8 612 611 614 615
426 6 469 471 473 475
427 6 469 471 473 476
428 6 469 471 473 477
429 6 253 255 257 259
430 6 253 255 257 260
431 6 253 255 257 261
432 7 691 694 695 696
433 8 692 691 693 696
434 8 692 691 694 695
435 6 157 160 162 166
436 6 157 160 162 167
437 6 157 160 162 168
438 6 157 159 161 163
439 6 157 159 161 164
440 6 157 159 161 165
441 8 158 157 159 161
442 8 158 157 160 162
443 8 662 661 663 666
444 8 662 661 664 665
445 5 611 613 616 615
446 5 661 663 666 665
447 7 661 664 665 666
448 7 663 666 665 664
449 5 561 563 566 565
450 5 701 703 706 705
451 7 703 706 705 704
452 7 563 566 565 564
453 7 721 724 725 726
454 5 691 693 696 695
455 7 693 696 695 694
