LAMMPS (23 Jun 2022 - Update 4)
# =============================================================================
# LAMMPS Minimization Input Script (Single-Step Soft Potential Strategy)
# Generated by Jinja2 template engine
# Generation time: 2026-07-08T14:18:51.150996500
# Job ID: 1350001
# =============================================================================
#
# Single-step soft potential minimization strategy:
#   Use soft potential with small cutoff (2.5A) and A=1000 to resolve
#   inter-molecular overlaps without disturbing properly packed atoms.
#
# CRITICAL FIX (v5):
#   v4 used multi-cutoff strategy (2.5 -> 4.0 -> 6.0) which DESTROYED the
#   structure. The soft potential with larger cutoffs (4.0, 6.0) pushed
#   apart atoms at legitimate distances (2.5-6.0A), causing the molecular
#   structure to collapse. Testing showed:
#     - After step 1 (rc=2.5): min distance 1.07A, 0 pairs < 1.0A (PERFECT)
#     - After step 2 (rc=4.0): min distance 0.00A, 891 pairs < 1.0A (DESTROYED)
#     - After step 3 (rc=6.0): min distance 0.00A, 3937 pairs < 1.0A (WORSE)
#   v5 uses ONLY a single step with rc=2.5, which resolves all close contacts
#   without disturbing the properly packed structure.
#
# Why small cutoff (2.5A) works:
#   - Packmol initial structure typically has only a few close contacts
#     (min distance ~0.67A, 4 pairs < 1.0A)
#   - Soft potential with rc=2.5A only acts on pairs < 2.5A
#   - Special_bonds lj 0 0 0.5 protects bonded pairs (1-2, 1-3)
#   - A=1000 gives max force 800 at r=0, strong enough to push apart overlaps
#     but only within the small cutoff range
#
# Bond force constants for reference:
#   C-C (sp3): k=268, C=C: k=414, C=O: k=570, C-H: k=340, C-O: k=320
#   Angle force constants: k=50-80
#   With A=1000, rc=2.5: max soft force = 2*1000/2.5 = 800
#   This is stronger than angle forces (50-80) and comparable to bond forces
#   (268-570), but only acts on non-bonded pairs within 2.5A.

# =============================================================================
# Single Step: Soft potential with small cutoff (2.5A) - resolve all overlaps
# =============================================================================
units           real
atom_style      full
dimension       3
boundary        p p p

# Bonded interactions (needed for bond/angle force computation)
bond_style      harmonic
angle_style     harmonic
dihedral_style  none
improper_style  none

# Use lj/cut first to match the pair_coeff format in system.in.settings
pair_style      lj/cut/coul/cut 8.0 8.0
special_bonds   lj 0.0 0.0 0.5 coul 0.0 0.0 0.5
kspace_style    none

# Read structure file
read_data       system.data
Reading data file ...
  orthogonal box = (0 0 0) to (20 20 20)
  1 by 1 by 1 MPI processor grid
  reading atoms ...
  770 atoms
  scanning bonds ...
  6 = max bonds/atom
  scanning angles ...
  15 = max angles/atom
  scanning dihedrals ...
  3 = max dihedrals/atom
  reading bonds ...
  715 bonds
  reading angles ...
  1087 angles
  reading dihedrals ...
  455 dihedrals
Finding 1-2 1-3 1-4 neighbors ...
  special bond factors lj:    0        0        0.5     
  special bond factors coul:  0        0        0.5     
     6 = max # of 1-2 neighbors
     5 = max # of 1-3 neighbors
     9 = max # of 1-4 neighbors
    11 = max # of special neighbors
  special bonds CPU = 0.000 seconds
  read_data CPU = 0.023 seconds

# Include force field parameters (bond_coeff, angle_coeff)
include         system.in.settings
pair_coeff 1 1 0.066 3.50
pair_coeff 2 2 0.066 3.50
pair_coeff 3 3 0.066 3.50
pair_coeff 4 4 0.066 3.50
pair_coeff 5 5 0.070 3.55
pair_coeff 6 6 0.070 3.55
pair_coeff 7 7 0.070 3.55
pair_coeff 8 8 0.070 3.55
pair_coeff 9 9 0.105 3.75
pair_coeff 10 10 0.105 3.75
pair_coeff 11 11 0.030 2.50
pair_coeff 12 12 0.030 2.50
pair_coeff 13 13 0.030 2.50
pair_coeff 14 14 0.030 2.42
pair_coeff 15 15 0.030 2.50
pair_coeff 16 16 0.030 2.50
pair_coeff 17 17 0.030 2.50
pair_coeff 18 18 0.170 3.00
pair_coeff 19 19 0.170 3.00
pair_coeff 20 20 0.170 2.96
pair_coeff 21 21 0.170 3.00
pair_coeff 22 22 0.170 3.25
pair_coeff 23 23 0.170 3.25
pair_coeff 24 24 0.170 3.25
pair_coeff 25 25 0.170 3.25
pair_coeff 26 26 0.255 2.95
pair_coeff 27 27 0.200 3.70
pair_coeff 28 28 0.0025 1.506
pair_coeff 29 29 0.250 3.55
pair_coeff 30 30 0.250 3.55
#  -
bond_coeff 1  268.0  1.529   # C-C   (sp3-sp3)
bond_coeff 2  414.0  1.330   # C=C   (sp2-sp2)
bond_coeff 3 320.0  1.400   #   C-C

#  -
bond_coeff 4     340.0  1.090   # C-H  (sp3 )
bond_coeff 5     340.0  1.080   # C-H  (sp2 )
bond_coeff 6    340.0  1.080   # C-H  (   )

#  -
bond_coeff 7  320.0  1.410   # C-O   (   )
bond_coeff 8  570.0  1.229   # C=O   (  )
bond_coeff 9    320.0  1.360   # C-O  (  )

#  -
bond_coeff 10  300.0  1.470   # C-N   ( )
bond_coeff 11  440.0  1.270   # C=N   (  )
bond_coeff 12   350.0  1.340   # C-N  (  )

#  -
bond_coeff 13         340.0  0.960   # O-H  (    )

#  -
bond_coeff 14         340.0  1.010   # N-H  ( )

#  -   (PF6)
bond_coeff 15         420.0  1.560   # P-F  (     )

#  -
bond_coeff 16         200.0  1.810   # S-C  (  )

#  -
bond_coeff 17         300.0  1.430   # S-O  (   )
#  - -
angle_coeff 1    50.0  109.5   # C-C-C (sp3)
angle_coeff 2    80.0  120.0   # C-C-C (sp2)
angle_coeff 3   60.0  120.0   # C-C-C (  )

#  - -
angle_coeff 4    37.5  110.7   # C-C-H (sp3)
angle_coeff 5    40.0  120.0   # C-C-H (sp2)

#  - -
angle_coeff 6    33.0  106.4   # H-C-H (sp3   )
angle_coeff 7   33.0  107.8   # H-C-H (sp3  )
angle_coeff 8    35.0  120.0   # H-C-H (sp2)

#  - -
angle_coeff 9  60.0  109.5   # C-O-C ( )
angle_coeff 10  60.0  124.0   # C-O-C ( )

#  - -
angle_coeff 11   80.0  123.0   # O-C=O (  )
angle_coeff 12  80.0  120.4   # O-C-O ( )

#  - -
angle_coeff 13        50.0  109.5   # C-C-O

#  - -
angle_coeff 14        50.0  109.5   # C-O-H ( )

#  - -
angle_coeff 15        50.0  109.5   # C-N-C ( )
angle_coeff 16  50.0  120.0   # C-N-C (  )

#  - -    (PF6)
angle_coeff 17        80.0   90.0   # F-P-F (     )
angle_coeff 18    80.0  180.0   # F-P-F (  )
#  - - -

#  - - -

#  - - -

#  - - -

#  - - -

#  - - -

#  - - =
#

#
pair_coeff 31 31 0.00034 2.126

# Switch to soft potential with small cutoff (2.5A)
# A=1000: strong repulsive force (max 2*A/rc = 800 at r=0)
# Only acts on pairs < 2.5A, preserving properly packed structure
pair_style      soft 2.5
pair_coeff      * * 1000.0

# Neighbor list settings
neighbor        2.0 bin
neigh_modify    every 1 delay 0 check yes

# Thermodynamic output
thermo          100
thermo_style    custom step temp pe ke etotal press vol

# SD minimization (Steepest Descent - robust for high-energy starts)
min_style       sd
minimize        1e-06 0.0001 5000 5000
Generated 0 of 465 mixed pair_coeff terms from geometric mixing rule
WARNING: Dihedrals are defined but no dihedral style is set (../force.cpp:202)
WARNING: Likewise 1-4 special neighbor interactions != 1.0 (../force.cpp:204)
Neighbor list info ...
  update every 1 steps, delay 0 steps, check yes
  max neighbors/atom: 2000, page size: 100000
  master list distance cutoff = 4.5
  ghost atom cutoff = 4.5
  binsize = 2.25, bins = 9 9 9
  1 neighbor lists, perpetual/occasional/extra = 1 0 0
  (1) pair soft, perpetual
      attributes: half, newton on
      pair build: half/bin/newton
      stencil: half/bin/3d
      bin: standard
WARNING: Communication cutoff 4.5 is shorter than a bond length based estimate of 4.715. This may lead to errors. (../comm.cpp:727)
Per MPI rank memory allocation (min/avg/max) = 13.29 | 13.29 | 13.29 Mbytes
   Step          Temp          PotEng         KinEng         TotEng         Press          Volume    
         0   0              149472.14      0              149472.14      1805377.1      8000         
       100   0              1839.8715      0              1839.8715      120173.62      8000         
       200   0              1137.3227      0              1137.3227      80948.015      8000         
       300   0              884.12641      0              884.12641      65386.559      8000         
       400   0              737.32627      0              737.32627      57010.098      8000         
       500   0              630.51888      0              630.51888      51540.898      8000         
       600   0              539.43908      0              539.43908      47053.413      8000         
       700   0              468.04918      0              468.04918      43016.014      8000         
       800   0              415.62309      0              415.62309      39476.766      8000         
       900   0              378.18645      0              378.18645      36138.552      8000         
      1000   0              350.75572      0              350.75572      33464.697      8000         
      1100   0              329.23414      0              329.23414      31191.775      8000         
      1200   0              310.12743      0              310.12743      29398.115      8000         
      1300   0              290.92711      0              290.92711      27882.311      8000         
      1400   0              267.49683      0              267.49683      26818.132      8000         
      1500   0              241.39259      0              241.39259      25147.66       8000         
      1600   0              222.84567      0              222.84567      23576.863      8000         
      1700   0              208.77888      0              208.77888      21802.272      8000         
      1800   0              197.30754      0              197.30754      20215.958      8000         
      1900   0              187.34113      0              187.34113      18618.786      8000         
      2000   0              178.69116      0              178.69116      17295.288      8000         
      2100   0              170.96295      0              170.96295      15993.721      8000         
      2200   0              164.10257      0              164.10257      14808.436      8000         
      2300   0              158.00564      0              158.00564      13698.78       8000         
      2400   0              152.7544       0              152.7544       12753.74       8000         
      2500   0              148.18843      0              148.18843      11887.175      8000         
      2515   0              147.54411      0              147.54411      11735.255      8000         
Loop time of 0.459562 on 1 procs for 2515 steps with 770 atoms

99.8% CPU use with 1 MPI tasks x no OpenMP threads

Minimization stats:
  Stopping criterion = max force evaluations
  Energy initial, next-to-last, final = 
      149472.137806704   147.591558197415   147.544110521507
  Force two-norm initial, final = 28917.653 32.712242
  Force max component initial, final = 4273.0644 7.9651325
  Final line search alpha, max atom move = 0.011833743 0.094257335
  Iterations, force evaluations = 2515 5001

MPI task timing breakdown:
Section |  min time  |  avg time  |  max time  |%varavg| %total
---------------------------------------------------------------
Pair    | 0.21991    | 0.21991    | 0.21991    |   0.0 | 47.85
Bond    | 0.18823    | 0.18823    | 0.18823    |   0.0 | 40.96
Neigh   | 0.0039429  | 0.0039429  | 0.0039429  |   0.0 |  0.86
Comm    | 0.015586   | 0.015586   | 0.015586   |   0.0 |  3.39
Output  | 0.0016501  | 0.0016501  | 0.0016501  |   0.0 |  0.36
Modify  | 0          | 0          | 0          |   0.0 |  0.00
Other   |            | 0.03024    |            |       |  6.58

Nlocal:            770 ave         770 max         770 min
Histogram: 1 0 0 0 0 0 0 0 0 0
Nghost:           1375 ave        1375 max        1375 min
Histogram: 1 0 0 0 0 0 0 0 0 0
Neighs:          12235 ave       12235 max       12235 min
Histogram: 1 0 0 0 0 0 0 0 0 0

Total # of neighbors = 12235
Ave neighs/atom = 15.88961
Ave special neighs/atom = 6.7376623
Neighbor list builds = 5
Dangerous builds = 0

# Write final minimized configuration
write_data      minimized.data nocoeff
System init for write_data ...
Generated 0 of 465 mixed pair_coeff terms from geometric mixing rule
WARNING: Dihedrals are defined but no dihedral style is set (../force.cpp:202)
WARNING: Likewise 1-4 special neighbor interactions != 1.0 (../force.cpp:204)
WARNING: Communication cutoff 4.5 is shorter than a bond length based estimate of 4.715. This may lead to errors. (../comm.cpp:727)
Total wall time: 0:00:00
LAMMPS (23 Jun 2022 - Update 4)
# =============================================================================
# LAMMPS Equilibrium Input Script (Gradual LJ Transition via NVE/limit)
# Generated by Jinja2 template engine
# Generation time: 2026-07-08T14:18:51.150996500
# Job ID: 1350001
# =============================================================================
#
# Six-phase gradual relaxation strategy:
#   Phase 0: NVE/limit with real LJ (cutoff=4.0A) and tiny timestep.
#            After soft potential minimization, atoms are at safe distances
#            (>= ~2.5A). NVE/limit with small displacement limit (0.02A)
#            safely transitions to real LJ dynamics without energy explosions.
#   Phase 1: NVE/limit with cutoff=5.0A.
#   Phase 2: NVE/limit with cutoff=6.0A.
#   Phase 3: NVE/limit with full cutoff=8.0A.
#   Phase 4: NVT thermostat at target temperature.
#   Phase 5: NPT barostat at target pressure.
#
# CRITICAL FIX (v4):
#   v3 used CG minimization for the LJ transition (Phase 0), which failed
#   because CG can make large steps that cause atoms to overlap.
#   v4 uses NVE/limit which limits displacement per step, preventing
#   energy explosions even if some close contacts remain.
#
# Why NVE/limit instead of CG minimization:
#   - CG minimization uses line search, which can fail (alpha=0) when forces
#     are extreme, leaving the structure unrelaxed.
#   - NVE/limit simply limits displacement per step, always making progress.
#   - NVE/limit is faster (no line search) and more robust.

# Initialization settings
units           real
atom_style      full
dimension       3
boundary        p p p

# Force field styles
bond_style      harmonic
angle_style     harmonic
dihedral_style  none
improper_style  none

# Start with real LJ at small cutoff=4.0A for safe transition
pair_style      lj/cut/coul/cut 4.0 4.0
special_bonds   lj 0.0 0.0 0.5 coul 0.0 0.0 0.5
kspace_style    none

# Read the FINAL minimized configuration (from minimization step 3)
read_data       minimized.data
Reading data file ...
  orthogonal box = (0 0 0) to (20 20 20)
  1 by 1 by 1 MPI processor grid
  reading atoms ...
  770 atoms
  reading velocities ...
  770 velocities
  scanning bonds ...
  6 = max bonds/atom
  scanning angles ...
  15 = max angles/atom
  scanning dihedrals ...
  3 = max dihedrals/atom
  reading bonds ...
  715 bonds
  reading angles ...
  1087 angles
  reading dihedrals ...
  455 dihedrals
Finding 1-2 1-3 1-4 neighbors ...
  special bond factors lj:    0        0        0.5     
  special bond factors coul:  0        0        0.5     
     6 = max # of 1-2 neighbors
     5 = max # of 1-3 neighbors
     9 = max # of 1-4 neighbors
    11 = max # of special neighbors
  special bonds CPU = 0.000 seconds
  read_data CPU = 0.024 seconds

# Include force field parameters (bond_coeff, angle_coeff, pair_coeff)
include         system.in.settings
pair_coeff 1 1 0.066 3.50
pair_coeff 2 2 0.066 3.50
pair_coeff 3 3 0.066 3.50
pair_coeff 4 4 0.066 3.50
pair_coeff 5 5 0.070 3.55
pair_coeff 6 6 0.070 3.55
pair_coeff 7 7 0.070 3.55
pair_coeff 8 8 0.070 3.55
pair_coeff 9 9 0.105 3.75
pair_coeff 10 10 0.105 3.75
pair_coeff 11 11 0.030 2.50
pair_coeff 12 12 0.030 2.50
pair_coeff 13 13 0.030 2.50
pair_coeff 14 14 0.030 2.42
pair_coeff 15 15 0.030 2.50
pair_coeff 16 16 0.030 2.50
pair_coeff 17 17 0.030 2.50
pair_coeff 18 18 0.170 3.00
pair_coeff 19 19 0.170 3.00
pair_coeff 20 20 0.170 2.96
pair_coeff 21 21 0.170 3.00
pair_coeff 22 22 0.170 3.25
pair_coeff 23 23 0.170 3.25
pair_coeff 24 24 0.170 3.25
pair_coeff 25 25 0.170 3.25
pair_coeff 26 26 0.255 2.95
pair_coeff 27 27 0.200 3.70
pair_coeff 28 28 0.0025 1.506
pair_coeff 29 29 0.250 3.55
pair_coeff 30 30 0.250 3.55
#  -
bond_coeff 1  268.0  1.529   # C-C   (sp3-sp3)
bond_coeff 2  414.0  1.330   # C=C   (sp2-sp2)
bond_coeff 3 320.0  1.400   #   C-C

#  -
bond_coeff 4     340.0  1.090   # C-H  (sp3 )
bond_coeff 5     340.0  1.080   # C-H  (sp2 )
bond_coeff 6    340.0  1.080   # C-H  (   )

#  -
bond_coeff 7  320.0  1.410   # C-O   (   )
bond_coeff 8  570.0  1.229   # C=O   (  )
bond_coeff 9    320.0  1.360   # C-O  (  )

#  -
bond_coeff 10  300.0  1.470   # C-N   ( )
bond_coeff 11  440.0  1.270   # C=N   (  )
bond_coeff 12   350.0  1.340   # C-N  (  )

#  -
bond_coeff 13         340.0  0.960   # O-H  (    )

#  -
bond_coeff 14         340.0  1.010   # N-H  ( )

#  -   (PF6)
bond_coeff 15         420.0  1.560   # P-F  (     )

#  -
bond_coeff 16         200.0  1.810   # S-C  (  )

#  -
bond_coeff 17         300.0  1.430   # S-O  (   )
#  - -
angle_coeff 1    50.0  109.5   # C-C-C (sp3)
angle_coeff 2    80.0  120.0   # C-C-C (sp2)
angle_coeff 3   60.0  120.0   # C-C-C (  )

#  - -
angle_coeff 4    37.5  110.7   # C-C-H (sp3)
angle_coeff 5    40.0  120.0   # C-C-H (sp2)

#  - -
angle_coeff 6    33.0  106.4   # H-C-H (sp3   )
angle_coeff 7   33.0  107.8   # H-C-H (sp3  )
angle_coeff 8    35.0  120.0   # H-C-H (sp2)

#  - -
angle_coeff 9  60.0  109.5   # C-O-C ( )
angle_coeff 10  60.0  124.0   # C-O-C ( )

#  - -
angle_coeff 11   80.0  123.0   # O-C=O (  )
angle_coeff 12  80.0  120.4   # O-C-O ( )

#  - -
angle_coeff 13        50.0  109.5   # C-C-O

#  - -
angle_coeff 14        50.0  109.5   # C-O-H ( )

#  - -
angle_coeff 15        50.0  109.5   # C-N-C ( )
angle_coeff 16  50.0  120.0   # C-N-C (  )

#  - -    (PF6)
angle_coeff 17        80.0   90.0   # F-P-F (     )
angle_coeff 18    80.0  180.0   # F-P-F (  )
#  - - -

#  - - -

#  - - -

#  - - -

#  - - -

#  - - -

#  - - =
#

#
pair_coeff 31 31 0.00034 2.126

# Neighbor list settings
neighbor        2.0 bin
neigh_modify    every 1 delay 0 check yes

# Thermodynamic output
thermo          100
thermo_style    custom step temp pe ke etotal press vol density

# =============================================================================
# Phase 0: NVE/limit with real LJ (cutoff=4.0A)
# Very small timestep (0.05 fs) and strict displacement limit (0.02 A).
# This safely transitions from soft potential to real LJ dynamics.
# =============================================================================
timestep        0.05
fix             nve_limit all nve/limit 0.02
run             500
Generated 465 of 465 mixed pair_coeff terms from geometric mixing rule
WARNING: Dihedrals are defined but no dihedral style is set (../force.cpp:202)
WARNING: Likewise 1-4 special neighbor interactions != 1.0 (../force.cpp:204)
Neighbor list info ...
  update every 1 steps, delay 0 steps, check yes
  max neighbors/atom: 2000, page size: 100000
  master list distance cutoff = 6
  ghost atom cutoff = 6
  binsize = 3, bins = 7 7 7
  1 neighbor lists, perpetual/occasional/extra = 1 0 0
  (1) pair lj/cut/coul/cut, perpetual
      attributes: half, newton on
      pair build: half/bin/newton
      stencil: half/bin/3d
      bin: standard
Per MPI rank memory allocation (min/avg/max) = 12.22 | 12.22 | 12.22 Mbytes
   Step          Temp          PotEng         KinEng         TotEng         Press          Volume        Density    
         0   0             -588.77138      0             -588.77138      70480.373      8000           1.3463241    
       100   99.327101     -813.82704      227.68184     -586.14519      67148.999      8000           1.3463241    
       200   222.80546     -979.16554      510.72424     -468.4413       61668.194      8000           1.3463241    
       300   306.06925     -1293.9498      701.58506     -592.36476      58046.157      8000           1.3463241    
       400   354.18206     -1745.9172      811.87133     -934.04591      51357.775      8000           1.3463241    
       500   392.61484     -1524.1564      899.96859     -624.18781      45971.741      8000           1.3463241    
Loop time of 0.102041 on 1 procs for 500 steps with 770 atoms

Performance: 21.168 ns/day, 1.134 hours/ns, 4899.977 timesteps/s
99.4% CPU use with 1 MPI tasks x no OpenMP threads

MPI task timing breakdown:
Section |  min time  |  avg time  |  max time  |%varavg| %total
---------------------------------------------------------------
Pair    | 0.079269   | 0.079269   | 0.079269   |   0.0 | 77.68
Bond    | 0.016284   | 0.016284   | 0.016284   |   0.0 | 15.96
Neigh   | 0.0010403  | 0.0010403  | 0.0010403  |   0.0 |  1.02
Comm    | 0.0026074  | 0.0026074  | 0.0026074  |   0.0 |  2.56
Output  | 8.5981e-05 | 8.5981e-05 | 8.5981e-05 |   0.0 |  0.08
Modify  | 0.0017872  | 0.0017872  | 0.0017872  |   0.0 |  1.75
Other   |            | 0.0009666  |            |       |  0.95

Nlocal:            770 ave         770 max         770 min
Histogram: 1 0 0 0 0 0 0 0 0 0
Nghost:           2235 ave        2235 max        2235 min
Histogram: 1 0 0 0 0 0 0 0 0 0
Neighs:          31923 ave       31923 max       31923 min
Histogram: 1 0 0 0 0 0 0 0 0 0

Total # of neighbors = 31923
Ave neighs/atom = 41.458442
Ave special neighs/atom = 6.7376623
Neighbor list builds = 1
Dangerous builds = 0
unfix           nve_limit

# =============================================================================
# Phase 1: NVE/limit with cutoff=5.0A
# =============================================================================
pair_style      lj/cut/coul/cut 5.0 5.0
include         system.in.settings
pair_coeff 1 1 0.066 3.50
pair_coeff 2 2 0.066 3.50
pair_coeff 3 3 0.066 3.50
pair_coeff 4 4 0.066 3.50
pair_coeff 5 5 0.070 3.55
pair_coeff 6 6 0.070 3.55
pair_coeff 7 7 0.070 3.55
pair_coeff 8 8 0.070 3.55
pair_coeff 9 9 0.105 3.75
pair_coeff 10 10 0.105 3.75
pair_coeff 11 11 0.030 2.50
pair_coeff 12 12 0.030 2.50
pair_coeff 13 13 0.030 2.50
pair_coeff 14 14 0.030 2.42
pair_coeff 15 15 0.030 2.50
pair_coeff 16 16 0.030 2.50
pair_coeff 17 17 0.030 2.50
pair_coeff 18 18 0.170 3.00
pair_coeff 19 19 0.170 3.00
pair_coeff 20 20 0.170 2.96
pair_coeff 21 21 0.170 3.00
pair_coeff 22 22 0.170 3.25
pair_coeff 23 23 0.170 3.25
pair_coeff 24 24 0.170 3.25
pair_coeff 25 25 0.170 3.25
pair_coeff 26 26 0.255 2.95
pair_coeff 27 27 0.200 3.70
pair_coeff 28 28 0.0025 1.506
pair_coeff 29 29 0.250 3.55
pair_coeff 30 30 0.250 3.55
#  -
bond_coeff 1  268.0  1.529   # C-C   (sp3-sp3)
bond_coeff 2  414.0  1.330   # C=C   (sp2-sp2)
bond_coeff 3 320.0  1.400   #   C-C

#  -
bond_coeff 4     340.0  1.090   # C-H  (sp3 )
bond_coeff 5     340.0  1.080   # C-H  (sp2 )
bond_coeff 6    340.0  1.080   # C-H  (   )

#  -
bond_coeff 7  320.0  1.410   # C-O   (   )
bond_coeff 8  570.0  1.229   # C=O   (  )
bond_coeff 9    320.0  1.360   # C-O  (  )

#  -
bond_coeff 10  300.0  1.470   # C-N   ( )
bond_coeff 11  440.0  1.270   # C=N   (  )
bond_coeff 12   350.0  1.340   # C-N  (  )

#  -
bond_coeff 13         340.0  0.960   # O-H  (    )

#  -
bond_coeff 14         340.0  1.010   # N-H  ( )

#  -   (PF6)
bond_coeff 15         420.0  1.560   # P-F  (     )

#  -
bond_coeff 16         200.0  1.810   # S-C  (  )

#  -
bond_coeff 17         300.0  1.430   # S-O  (   )
#  - -
angle_coeff 1    50.0  109.5   # C-C-C (sp3)
angle_coeff 2    80.0  120.0   # C-C-C (sp2)
angle_coeff 3   60.0  120.0   # C-C-C (  )

#  - -
angle_coeff 4    37.5  110.7   # C-C-H (sp3)
angle_coeff 5    40.0  120.0   # C-C-H (sp2)

#  - -
angle_coeff 6    33.0  106.4   # H-C-H (sp3   )
angle_coeff 7   33.0  107.8   # H-C-H (sp3  )
angle_coeff 8    35.0  120.0   # H-C-H (sp2)

#  - -
angle_coeff 9  60.0  109.5   # C-O-C ( )
angle_coeff 10  60.0  124.0   # C-O-C ( )

#  - -
angle_coeff 11   80.0  123.0   # O-C=O (  )
angle_coeff 12  80.0  120.4   # O-C-O ( )

#  - -
angle_coeff 13        50.0  109.5   # C-C-O

#  - -
angle_coeff 14        50.0  109.5   # C-O-H ( )

#  - -
angle_coeff 15        50.0  109.5   # C-N-C ( )
angle_coeff 16  50.0  120.0   # C-N-C (  )

#  - -    (PF6)
angle_coeff 17        80.0   90.0   # F-P-F (     )
angle_coeff 18    80.0  180.0   # F-P-F (  )
#  - - -

#  - - -

#  - - -

#  - - -

#  - - -

#  - - -

#  - - =
#

#
pair_coeff 31 31 0.00034 2.126
neighbor        2.0 bin
neigh_modify    every 1 delay 0 check yes
timestep        0.1
fix             nve_limit all nve/limit 0.05
run             500
Generated 465 of 465 mixed pair_coeff terms from geometric mixing rule
WARNING: Dihedrals are defined but no dihedral style is set (../force.cpp:202)
WARNING: Likewise 1-4 special neighbor interactions != 1.0 (../force.cpp:204)
Per MPI rank memory allocation (min/avg/max) = 12.25 | 12.25 | 12.25 Mbytes
   Step          Temp          PotEng         KinEng         TotEng         Press          Volume        Density    
       500   392.61484     -601.54209      899.96859      298.4265       45863.78       8000           1.3463241    
       600   444.08959     -709.58057      1017.9612      308.38066      36365.395      8000           1.3463241    
       700   482.8564      -1220.7816      1106.8242     -113.95745      39013.422      8000           1.3463241    
       800   509.97525     -1627.7196      1168.9872     -458.73247      46700.348      8000           1.3463241    
       900   516.38571     -1712.6182      1183.6815     -528.93675      48136.495      8000           1.3463241    
      1000   526.41129     -2008.8742      1206.6625     -802.21164      39500.919      8000           1.3463241    
Loop time of 0.178813 on 1 procs for 500 steps with 770 atoms

Performance: 24.159 ns/day, 0.993 hours/ns, 2796.217 timesteps/s
98.8% CPU use with 1 MPI tasks x no OpenMP threads

MPI task timing breakdown:
Section |  min time  |  avg time  |  max time  |%varavg| %total
---------------------------------------------------------------
Pair    | 0.15021    | 0.15021    | 0.15021    |   0.0 | 84.00
Bond    | 0.015937   | 0.015937   | 0.015937   |   0.0 |  8.91
Neigh   | 0.0045682  | 0.0045682  | 0.0045682  |   0.0 |  2.55
Comm    | 0.003295   | 0.003295   | 0.003295   |   0.0 |  1.84
Output  | 0.0018478  | 0.0018478  | 0.0018478  |   0.0 |  1.03
Modify  | 0.0018946  | 0.0018946  | 0.0018946  |   0.0 |  1.06
Other   |            | 0.00106    |            |       |  0.59

Nlocal:            770 ave         770 max         770 min
Histogram: 1 0 0 0 0 0 0 0 0 0
Nghost:           2886 ave        2886 max        2886 min
Histogram: 1 0 0 0 0 0 0 0 0 0
Neighs:          51381 ave       51381 max       51381 min
Histogram: 1 0 0 0 0 0 0 0 0 0

Total # of neighbors = 51381
Ave neighs/atom = 66.728571
Ave special neighs/atom = 6.7376623
Neighbor list builds = 3
Dangerous builds = 0
unfix           nve_limit

# =============================================================================
# Phase 2: NVE/limit with cutoff=6.0A
# =============================================================================
pair_style      lj/cut/coul/cut 6.0 6.0
include         system.in.settings
pair_coeff 1 1 0.066 3.50
pair_coeff 2 2 0.066 3.50
pair_coeff 3 3 0.066 3.50
pair_coeff 4 4 0.066 3.50
pair_coeff 5 5 0.070 3.55
pair_coeff 6 6 0.070 3.55
pair_coeff 7 7 0.070 3.55
pair_coeff 8 8 0.070 3.55
pair_coeff 9 9 0.105 3.75
pair_coeff 10 10 0.105 3.75
pair_coeff 11 11 0.030 2.50
pair_coeff 12 12 0.030 2.50
pair_coeff 13 13 0.030 2.50
pair_coeff 14 14 0.030 2.42
pair_coeff 15 15 0.030 2.50
pair_coeff 16 16 0.030 2.50
pair_coeff 17 17 0.030 2.50
pair_coeff 18 18 0.170 3.00
pair_coeff 19 19 0.170 3.00
pair_coeff 20 20 0.170 2.96
pair_coeff 21 21 0.170 3.00
pair_coeff 22 22 0.170 3.25
pair_coeff 23 23 0.170 3.25
pair_coeff 24 24 0.170 3.25
pair_coeff 25 25 0.170 3.25
pair_coeff 26 26 0.255 2.95
pair_coeff 27 27 0.200 3.70
pair_coeff 28 28 0.0025 1.506
pair_coeff 29 29 0.250 3.55
pair_coeff 30 30 0.250 3.55
#  -
bond_coeff 1  268.0  1.529   # C-C   (sp3-sp3)
bond_coeff 2  414.0  1.330   # C=C   (sp2-sp2)
bond_coeff 3 320.0  1.400   #   C-C

#  -
bond_coeff 4     340.0  1.090   # C-H  (sp3 )
bond_coeff 5     340.0  1.080   # C-H  (sp2 )
bond_coeff 6    340.0  1.080   # C-H  (   )

#  -
bond_coeff 7  320.0  1.410   # C-O   (   )
bond_coeff 8  570.0  1.229   # C=O   (  )
bond_coeff 9    320.0  1.360   # C-O  (  )

#  -
bond_coeff 10  300.0  1.470   # C-N   ( )
bond_coeff 11  440.0  1.270   # C=N   (  )
bond_coeff 12   350.0  1.340   # C-N  (  )

#  -
bond_coeff 13         340.0  0.960   # O-H  (    )

#  -
bond_coeff 14         340.0  1.010   # N-H  ( )

#  -   (PF6)
bond_coeff 15         420.0  1.560   # P-F  (     )

#  -
bond_coeff 16         200.0  1.810   # S-C  (  )

#  -
bond_coeff 17         300.0  1.430   # S-O  (   )
#  - -
angle_coeff 1    50.0  109.5   # C-C-C (sp3)
angle_coeff 2    80.0  120.0   # C-C-C (sp2)
angle_coeff 3   60.0  120.0   # C-C-C (  )

#  - -
angle_coeff 4    37.5  110.7   # C-C-H (sp3)
angle_coeff 5    40.0  120.0   # C-C-H (sp2)

#  - -
angle_coeff 6    33.0  106.4   # H-C-H (sp3   )
angle_coeff 7   33.0  107.8   # H-C-H (sp3  )
angle_coeff 8    35.0  120.0   # H-C-H (sp2)

#  - -
angle_coeff 9  60.0  109.5   # C-O-C ( )
angle_coeff 10  60.0  124.0   # C-O-C ( )

#  - -
angle_coeff 11   80.0  123.0   # O-C=O (  )
angle_coeff 12  80.0  120.4   # O-C-O ( )

#  - -
angle_coeff 13        50.0  109.5   # C-C-O

#  - -
angle_coeff 14        50.0  109.5   # C-O-H ( )

#  - -
angle_coeff 15        50.0  109.5   # C-N-C ( )
angle_coeff 16  50.0  120.0   # C-N-C (  )

#  - -    (PF6)
angle_coeff 17        80.0   90.0   # F-P-F (     )
angle_coeff 18    80.0  180.0   # F-P-F (  )
#  - - -

#  - - -

#  - - -

#  - - -

#  - - -

#  - - -

#  - - =
#

#
pair_coeff 31 31 0.00034 2.126
neighbor        2.0 bin
neigh_modify    every 1 delay 0 check yes
fix             nve_limit all nve/limit 0.1
run             500
Generated 465 of 465 mixed pair_coeff terms from geometric mixing rule
WARNING: Dihedrals are defined but no dihedral style is set (../force.cpp:202)
WARNING: Likewise 1-4 special neighbor interactions != 1.0 (../force.cpp:204)
Per MPI rank memory allocation (min/avg/max) = 12.31 | 12.31 | 12.31 Mbytes
   Step          Temp          PotEng         KinEng         TotEng         Press          Volume        Density    
      1000   526.41129     -1429.9022      1206.6625     -223.23966      39457.067      8000           1.3463241    
      1100   557.18404     -1402.969       1277.2012     -125.76782      37582.368      8000           1.3463241    
      1200   578.75443     -1570.8987      1326.6458     -244.25294      42112.792      8000           1.3463241    
      1300   593.77133     -1694.7377      1361.0681     -333.66957      41078.536      8000           1.3463241    
      1400   607.08661     -1642.1948      1391.59       -250.60478      36091.331      8000           1.3463241    
      1500   608.7005      -1784.0013      1395.2894     -388.7119       35080.389      8000           1.3463241    
Loop time of 0.285701 on 1 procs for 500 steps with 770 atoms

Performance: 15.121 ns/day, 1.587 hours/ns, 1750.083 timesteps/s
99.1% CPU use with 1 MPI tasks x no OpenMP threads

MPI task timing breakdown:
Section |  min time  |  avg time  |  max time  |%varavg| %total
---------------------------------------------------------------
Pair    | 0.25006    | 0.25006    | 0.25006    |   0.0 | 87.52
Bond    | 0.017777   | 0.017777   | 0.017777   |   0.0 |  6.22
Neigh   | 0.0079305  | 0.0079305  | 0.0079305  |   0.0 |  2.78
Comm    | 0.0046508  | 0.0046508  | 0.0046508  |   0.0 |  1.63
Output  | 0.0017582  | 0.0017582  | 0.0017582  |   0.0 |  0.62
Modify  | 0.0020309  | 0.0020309  | 0.0020309  |   0.0 |  0.71
Other   |            | 0.001498   |            |       |  0.52

Nlocal:            770 ave         770 max         770 min
Histogram: 1 0 0 0 0 0 0 0 0 0
Nghost:           3726 ave        3726 max        3726 min
Histogram: 1 0 0 0 0 0 0 0 0 0
Neighs:          77452 ave       77452 max       77452 min
Histogram: 1 0 0 0 0 0 0 0 0 0

Total # of neighbors = 77452
Ave neighs/atom = 100.58701
Ave special neighs/atom = 6.7376623
Neighbor list builds = 4
Dangerous builds = 0
unfix           nve_limit

# =============================================================================
# Phase 3: NVE/limit with full cutoff=8.0A
# =============================================================================
pair_style      lj/cut/coul/cut 8.0 8.0
include         system.in.settings
pair_coeff 1 1 0.066 3.50
pair_coeff 2 2 0.066 3.50
pair_coeff 3 3 0.066 3.50
pair_coeff 4 4 0.066 3.50
pair_coeff 5 5 0.070 3.55
pair_coeff 6 6 0.070 3.55
pair_coeff 7 7 0.070 3.55
pair_coeff 8 8 0.070 3.55
pair_coeff 9 9 0.105 3.75
pair_coeff 10 10 0.105 3.75
pair_coeff 11 11 0.030 2.50
pair_coeff 12 12 0.030 2.50
pair_coeff 13 13 0.030 2.50
pair_coeff 14 14 0.030 2.42
pair_coeff 15 15 0.030 2.50
pair_coeff 16 16 0.030 2.50
pair_coeff 17 17 0.030 2.50
pair_coeff 18 18 0.170 3.00
pair_coeff 19 19 0.170 3.00
pair_coeff 20 20 0.170 2.96
pair_coeff 21 21 0.170 3.00
pair_coeff 22 22 0.170 3.25
pair_coeff 23 23 0.170 3.25
pair_coeff 24 24 0.170 3.25
pair_coeff 25 25 0.170 3.25
pair_coeff 26 26 0.255 2.95
pair_coeff 27 27 0.200 3.70
pair_coeff 28 28 0.0025 1.506
pair_coeff 29 29 0.250 3.55
pair_coeff 30 30 0.250 3.55
#  -
bond_coeff 1  268.0  1.529   # C-C   (sp3-sp3)
bond_coeff 2  414.0  1.330   # C=C   (sp2-sp2)
bond_coeff 3 320.0  1.400   #   C-C

#  -
bond_coeff 4     340.0  1.090   # C-H  (sp3 )
bond_coeff 5     340.0  1.080   # C-H  (sp2 )
bond_coeff 6    340.0  1.080   # C-H  (   )

#  -
bond_coeff 7  320.0  1.410   # C-O   (   )
bond_coeff 8  570.0  1.229   # C=O   (  )
bond_coeff 9    320.0  1.360   # C-O  (  )

#  -
bond_coeff 10  300.0  1.470   # C-N   ( )
bond_coeff 11  440.0  1.270   # C=N   (  )
bond_coeff 12   350.0  1.340   # C-N  (  )

#  -
bond_coeff 13         340.0  0.960   # O-H  (    )

#  -
bond_coeff 14         340.0  1.010   # N-H  ( )

#  -   (PF6)
bond_coeff 15         420.0  1.560   # P-F  (     )

#  -
bond_coeff 16         200.0  1.810   # S-C  (  )

#  -
bond_coeff 17         300.0  1.430   # S-O  (   )
#  - -
angle_coeff 1    50.0  109.5   # C-C-C (sp3)
angle_coeff 2    80.0  120.0   # C-C-C (sp2)
angle_coeff 3   60.0  120.0   # C-C-C (  )

#  - -
angle_coeff 4    37.5  110.7   # C-C-H (sp3)
angle_coeff 5    40.0  120.0   # C-C-H (sp2)

#  - -
angle_coeff 6    33.0  106.4   # H-C-H (sp3   )
angle_coeff 7   33.0  107.8   # H-C-H (sp3  )
angle_coeff 8    35.0  120.0   # H-C-H (sp2)

#  - -
angle_coeff 9  60.0  109.5   # C-O-C ( )
angle_coeff 10  60.0  124.0   # C-O-C ( )

#  - -
angle_coeff 11   80.0  123.0   # O-C=O (  )
angle_coeff 12  80.0  120.4   # O-C-O ( )

#  - -
angle_coeff 13        50.0  109.5   # C-C-O

#  - -
angle_coeff 14        50.0  109.5   # C-O-H ( )

#  - -
angle_coeff 15        50.0  109.5   # C-N-C ( )
angle_coeff 16  50.0  120.0   # C-N-C (  )

#  - -    (PF6)
angle_coeff 17        80.0   90.0   # F-P-F (     )
angle_coeff 18    80.0  180.0   # F-P-F (  )
#  - - -

#  - - -

#  - - -

#  - - -

#  - - -

#  - - -

#  - - =
#

#
pair_coeff 31 31 0.00034 2.126
neighbor        2.0 bin
neigh_modify    every 1 delay 0 check yes
timestep        0.25
fix             nve_limit all nve/limit 0.2
run             500
Generated 465 of 465 mixed pair_coeff terms from geometric mixing rule
WARNING: Dihedrals are defined but no dihedral style is set (../force.cpp:202)
WARNING: Likewise 1-4 special neighbor interactions != 1.0 (../force.cpp:204)
Per MPI rank memory allocation (min/avg/max) = 12.83 | 12.83 | 12.83 Mbytes
   Step          Temp          PotEng         KinEng         TotEng         Press          Volume        Density    
      1500   608.7005      -1775.8485      1395.2894     -380.55911      33685.806      8000           1.3463241    
      1600   605.14433     -1734.7348      1387.1378     -347.59694      36325.868      8000           1.3463241    
      1700   622.05937     -1871.1167      1425.9112     -445.20556      37368.003      8000           1.3463241    
      1800   642.60473     -1808.7941      1473.0062     -335.78795      28911.051      8000           1.3463241    
      1900   614.55364     -1445.3653      1408.7062     -36.659099      35374.606      8000           1.3463241    
      2000   616.85171     -1893.4414      1413.974      -479.46744      32226.089      8000           1.3463241    
Loop time of 0.560363 on 1 procs for 500 steps with 770 atoms

Performance: 19.273 ns/day, 1.245 hours/ns, 892.279 timesteps/s
99.8% CPU use with 1 MPI tasks x no OpenMP threads

MPI task timing breakdown:
Section |  min time  |  avg time  |  max time  |%varavg| %total
---------------------------------------------------------------
Pair    | 0.50855    | 0.50855    | 0.50855    |   0.0 | 90.75
Bond    | 0.017883   | 0.017883   | 0.017883   |   0.0 |  3.19
Neigh   | 0.021149   | 0.021149   | 0.021149   |   0.0 |  3.77
Comm    | 0.0072318  | 0.0072318  | 0.0072318  |   0.0 |  1.29
Output  | 0.0013897  | 0.0013897  | 0.0013897  |   0.0 |  0.25
Modify  | 0.0021331  | 0.0021331  | 0.0021331  |   0.0 |  0.38
Other   |            | 0.002026   |            |       |  0.36

Nlocal:            770 ave         770 max         770 min
Histogram: 1 0 0 0 0 0 0 0 0 0
Nghost:           5390 ave        5390 max        5390 min
Histogram: 1 0 0 0 0 0 0 0 0 0
Neighs:         153081 ave      153081 max      153081 min
Histogram: 1 0 0 0 0 0 0 0 0 0

Total # of neighbors = 153081
Ave neighs/atom = 198.80649
Ave special neighs/atom = 6.7376623
Neighbor list builds = 7
Dangerous builds = 0
unfix           nve_limit

# =============================================================================
# Phase 4: NVT equilibration
# =============================================================================
velocity        all create 353.0 44222 dist gaussian
fix             nvt all nvt temp 353.0 353.0 100.0
timestep        1.0

# Trajectory output
dump            1 all custom 50 dump.equilibrium.lammpstrj id mol type x y z vx vy vz

run             500
Generated 465 of 465 mixed pair_coeff terms from geometric mixing rule
WARNING: Dihedrals are defined but no dihedral style is set (../force.cpp:202)
WARNING: Likewise 1-4 special neighbor interactions != 1.0 (../force.cpp:204)
Per MPI rank memory allocation (min/avg/max) = 14.13 | 14.13 | 14.13 Mbytes
   Step          Temp          PotEng         KinEng         TotEng         Press          Volume        Density    
      2000   353           -1893.4414      809.16175     -1084.2796      28770.171      8000           1.3463241    
      2100   448.72073     -2148.8288      1028.5769     -1120.2519      23808.85       8000           1.3463241    
      2200   427.46452     -2335.8151      979.85253     -1355.9625      21950.386      8000           1.3463241    
      2300   394.78308     -1748.7956      904.93873     -843.85691      17312.446      8000           1.3463241    
      2400   372.06749     -2204.4893      852.86908     -1351.6202      19457.9        8000           1.3463241    
      2500   374.10215     -2704.9413      857.53302     -1847.4083      16335.266      8000           1.3463241    
Loop time of 0.634478 on 1 procs for 500 steps with 770 atoms

Performance: 68.087 ns/day, 0.352 hours/ns, 788.049 timesteps/s
93.1% CPU use with 1 MPI tasks x no OpenMP threads

MPI task timing breakdown:
Section |  min time  |  avg time  |  max time  |%varavg| %total
---------------------------------------------------------------
Pair    | 0.50373    | 0.50373    | 0.50373    |   0.0 | 79.39
Bond    | 0.01774    | 0.01774    | 0.01774    |   0.0 |  2.80
Neigh   | 0.05451    | 0.05451    | 0.05451    |   0.0 |  8.59
Comm    | 0.0075446  | 0.0075446  | 0.0075446  |   0.0 |  1.19
Output  | 0.045302   | 0.045302   | 0.045302   |   0.0 |  7.14
Modify  | 0.0038633  | 0.0038633  | 0.0038633  |   0.0 |  0.61
Other   |            | 0.001792   |            |       |  0.28

Nlocal:            770 ave         770 max         770 min
Histogram: 1 0 0 0 0 0 0 0 0 0
Nghost:           5390 ave        5390 max        5390 min
Histogram: 1 0 0 0 0 0 0 0 0 0
Neighs:         153028 ave      153028 max      153028 min
Histogram: 1 0 0 0 0 0 0 0 0 0

Total # of neighbors = 153028
Ave neighs/atom = 198.73766
Ave special neighs/atom = 6.7376623
Neighbor list builds = 20
Dangerous builds = 0
unfix           nvt

# =============================================================================
# Phase 5: NPT equilibration
# =============================================================================
fix             npt all npt temp 353.0 353.0 100.0 iso 1.0 1.0 1000.0
timestep        1.0
run             500
Generated 465 of 465 mixed pair_coeff terms from geometric mixing rule
WARNING: Dihedrals are defined but no dihedral style is set (../force.cpp:202)
WARNING: Likewise 1-4 special neighbor interactions != 1.0 (../force.cpp:204)
Per MPI rank memory allocation (min/avg/max) = 14.13 | 14.13 | 14.13 Mbytes
   Step          Temp          PotEng         KinEng         TotEng         Press          Volume        Density    
      2500   374.10215     -2704.9413      857.53302     -1847.4083      16335.266      8000           1.3463241    
      2600   343.82677     -3241.8901      788.13447     -2453.7556      12304.649      8344.1615      1.2907939    
      2700   346.8412      -3275.9072      795.04428     -2480.8629      2305.9129      8872.613       1.2139144    
      2800   349.11272     -3481.0545      800.25117     -2680.8034     -772.24258      9209.6223      1.1694934    
      2900   354.96456     -3801.3681      813.66501     -2987.7031     -19.669263      9486.0181      1.1354177    
      3000   359.19628     -3807.861       823.36514     -2984.4958     -2633.8515      9666.8889      1.1141736    
Loop time of 0.607683 on 1 procs for 500 steps with 770 atoms

Performance: 71.090 ns/day, 0.338 hours/ns, 822.797 timesteps/s
93.4% CPU use with 1 MPI tasks x no OpenMP threads

MPI task timing breakdown:
Section |  min time  |  avg time  |  max time  |%varavg| %total
---------------------------------------------------------------
Pair    | 0.47238    | 0.47238    | 0.47238    |   0.0 | 77.74
Bond    | 0.021026   | 0.021026   | 0.021026   |   0.0 |  3.46
Neigh   | 0.050173   | 0.050173   | 0.050173   |   0.0 |  8.26
Comm    | 0.0071766  | 0.0071766  | 0.0071766  |   0.0 |  1.18
Output  | 0.046096   | 0.046096   | 0.046096   |   0.0 |  7.59
Modify  | 0.008727   | 0.008727   | 0.008727   |   0.0 |  1.44
Other   |            | 0.0021     |            |       |  0.35

Nlocal:            770 ave         770 max         770 min
Histogram: 1 0 0 0 0 0 0 0 0 0
Nghost:           4884 ave        4884 max        4884 min
Histogram: 1 0 0 0 0 0 0 0 0 0
Neighs:         126745 ave      126745 max      126745 min
Histogram: 1 0 0 0 0 0 0 0 0 0

Total # of neighbors = 126745
Ave neighs/atom = 164.6039
Ave special neighs/atom = 6.7376623
Neighbor list builds = 19
Dangerous builds = 0
unfix           npt

# Output equilibrated configuration
write_data      equilibrated.data
System init for write_data ...
Generated 465 of 465 mixed pair_coeff terms from geometric mixing rule
WARNING: Dihedrals are defined but no dihedral style is set (../force.cpp:202)
WARNING: Likewise 1-4 special neighbor interactions != 1.0 (../force.cpp:204)
Total wall time: 0:00:02
LAMMPS (23 Jun 2022 - Update 4)
# =============================================================================
# LAMMPS Production Simulation Input Script
# Generated by Jinja2 template engine
# Generation time: 2026-07-08T14:18:51.150996500
# Job ID: 1350001
# Target properties: density, conductivity
# =============================================================================

# Initialization settings
units           real
atom_style      full
dimension       3
boundary        p p p

# Force field styles (using cutoff Coulomb to handle non-neutral system charge)
# Note: PPPM requires charge neutrality. The current force field gives DMC
# molecules a net charge of +0.12 each, making the system non-neutral.
# Using lj/cut/coul/cut with no kspace as a workaround.
bond_style      harmonic
angle_style     harmonic
dihedral_style  none
improper_style  none
pair_style      lj/cut/coul/cut 8.0 8.0
special_bonds   lj 0.0 0.0 0.5 coul 0.0 0.0 0.5
kspace_style    none

# Read equilibrated configuration
read_data       equilibrated.data
Reading data file ...
  orthogonal box = (-0.65120916 -0.65120916 -0.65120916) to (20.651209 20.651209 20.651209)
  1 by 1 by 1 MPI processor grid
  reading atoms ...
  770 atoms
  reading velocities ...
  770 velocities
  scanning bonds ...
  6 = max bonds/atom
  scanning angles ...
  15 = max angles/atom
  scanning dihedrals ...
  3 = max dihedrals/atom
  reading bonds ...
  715 bonds
  reading angles ...
  1087 angles
  reading dihedrals ...
  455 dihedrals
Finding 1-2 1-3 1-4 neighbors ...
  special bond factors lj:    0        0        0.5     
  special bond factors coul:  0        0        0.5     
     6 = max # of 1-2 neighbors
     5 = max # of 1-3 neighbors
     9 = max # of 1-4 neighbors
    11 = max # of special neighbors
  special bonds CPU = 0.000 seconds
  read_data CPU = 0.038 seconds

# Force field parameters (PPPM auto-selects grid size)
include         system.in.settings
pair_coeff 1 1 0.066 3.50
pair_coeff 2 2 0.066 3.50
pair_coeff 3 3 0.066 3.50
pair_coeff 4 4 0.066 3.50
pair_coeff 5 5 0.070 3.55
pair_coeff 6 6 0.070 3.55
pair_coeff 7 7 0.070 3.55
pair_coeff 8 8 0.070 3.55
pair_coeff 9 9 0.105 3.75
pair_coeff 10 10 0.105 3.75
pair_coeff 11 11 0.030 2.50
pair_coeff 12 12 0.030 2.50
pair_coeff 13 13 0.030 2.50
pair_coeff 14 14 0.030 2.42
pair_coeff 15 15 0.030 2.50
pair_coeff 16 16 0.030 2.50
pair_coeff 17 17 0.030 2.50
pair_coeff 18 18 0.170 3.00
pair_coeff 19 19 0.170 3.00
pair_coeff 20 20 0.170 2.96
pair_coeff 21 21 0.170 3.00
pair_coeff 22 22 0.170 3.25
pair_coeff 23 23 0.170 3.25
pair_coeff 24 24 0.170 3.25
pair_coeff 25 25 0.170 3.25
pair_coeff 26 26 0.255 2.95
pair_coeff 27 27 0.200 3.70
pair_coeff 28 28 0.0025 1.506
pair_coeff 29 29 0.250 3.55
pair_coeff 30 30 0.250 3.55
#  -
bond_coeff 1  268.0  1.529   # C-C   (sp3-sp3)
bond_coeff 2  414.0  1.330   # C=C   (sp2-sp2)
bond_coeff 3 320.0  1.400   #   C-C

#  -
bond_coeff 4     340.0  1.090   # C-H  (sp3 )
bond_coeff 5     340.0  1.080   # C-H  (sp2 )
bond_coeff 6    340.0  1.080   # C-H  (   )

#  -
bond_coeff 7  320.0  1.410   # C-O   (   )
bond_coeff 8  570.0  1.229   # C=O   (  )
bond_coeff 9    320.0  1.360   # C-O  (  )

#  -
bond_coeff 10  300.0  1.470   # C-N   ( )
bond_coeff 11  440.0  1.270   # C=N   (  )
bond_coeff 12   350.0  1.340   # C-N  (  )

#  -
bond_coeff 13         340.0  0.960   # O-H  (    )

#  -
bond_coeff 14         340.0  1.010   # N-H  ( )

#  -   (PF6)
bond_coeff 15         420.0  1.560   # P-F  (     )

#  -
bond_coeff 16         200.0  1.810   # S-C  (  )

#  -
bond_coeff 17         300.0  1.430   # S-O  (   )
#  - -
angle_coeff 1    50.0  109.5   # C-C-C (sp3)
angle_coeff 2    80.0  120.0   # C-C-C (sp2)
angle_coeff 3   60.0  120.0   # C-C-C (  )

#  - -
angle_coeff 4    37.5  110.7   # C-C-H (sp3)
angle_coeff 5    40.0  120.0   # C-C-H (sp2)

#  - -
angle_coeff 6    33.0  106.4   # H-C-H (sp3   )
angle_coeff 7   33.0  107.8   # H-C-H (sp3  )
angle_coeff 8    35.0  120.0   # H-C-H (sp2)

#  - -
angle_coeff 9  60.0  109.5   # C-O-C ( )
angle_coeff 10  60.0  124.0   # C-O-C ( )

#  - -
angle_coeff 11   80.0  123.0   # O-C=O (  )
angle_coeff 12  80.0  120.4   # O-C-O ( )

#  - -
angle_coeff 13        50.0  109.5   # C-C-O

#  - -
angle_coeff 14        50.0  109.5   # C-O-H ( )

#  - -
angle_coeff 15        50.0  109.5   # C-N-C ( )
angle_coeff 16  50.0  120.0   # C-N-C (  )

#  - -    (PF6)
angle_coeff 17        80.0   90.0   # F-P-F (     )
angle_coeff 18    80.0  180.0   # F-P-F (  )
#  - - -

#  - - -

#  - - -

#  - - -

#  - - -

#  - - -

#  - - =
#

#
pair_coeff 31 31 0.00034 2.126

# Neighbor list settings (delay 5 to reduce overhead)
neighbor        2.0 bin
neigh_modify    every 1 delay 5 check yes

# Thermodynamic output
thermo          1000

thermo_style    custom step temp pe ke etotal press vol density


# Output thermodynamic data to thermo.out file (for post-processing analysis)
# Format: step temp pe ke etotal press vol density
variable        s_out equal step
variable        t_out equal temp
variable        pe_out equal pe
variable        ke_out equal ke
variable        et_out equal etotal
variable        pr_out equal press
variable        v_out equal vol
variable        d_out equal density
fix             thermo_out all print 1000 "${s_out} ${t_out} ${pe_out} ${ke_out} ${et_out} ${pr_out} ${v_out} ${d_out}" file thermo.out screen no

# Trajectory output (production)
dump            1 all custom 50 dump.trajectory.lammpstrj id mol type x y z vx vy vz


# Conductivity/Dielectric: output trajectory with charges
compute         charge all property/atom q
dump            2 all custom 50 dump.charge.lammpstrj id type x y z c_charge








# NPT production simulation
timestep        1.0
fix             1 all npt temp 353.0 353.0 100.0 iso 1.0 1.0 1000.0
run             1000
Generated 465 of 465 mixed pair_coeff terms from geometric mixing rule
WARNING: Dihedrals are defined but no dihedral style is set (../force.cpp:202)
WARNING: Likewise 1-4 special neighbor interactions != 1.0 (../force.cpp:204)
Neighbor list info ...
  update every 1 steps, delay 5 steps, check yes
  max neighbors/atom: 2000, page size: 100000
  master list distance cutoff = 10
  ghost atom cutoff = 10
  binsize = 5, bins = 5 5 5
  1 neighbor lists, perpetual/occasional/extra = 1 0 0
  (1) pair lj/cut/coul/cut, perpetual
      attributes: half, newton on
      pair build: half/bin/newton
      stencil: half/bin/3d
      bin: standard
Per MPI rank memory allocation (min/avg/max) = 15.5 | 15.5 | 15.5 Mbytes
   Step          Temp          PotEng         KinEng         TotEng         Press          Volume        Density    
         0   359.19628     -3807.861       823.36514     -2984.4958     -2633.8515      9666.8889      1.1141736    
      1000   343.47504     -2603.6217      787.32824     -1816.2935     -181.13452      10019.238      1.0749912    
Loop time of 1.27472 on 1 procs for 1000 steps with 770 atoms

Performance: 67.780 ns/day, 0.354 hours/ns, 784.486 timesteps/s
89.2% CPU use with 1 MPI tasks x no OpenMP threads

MPI task timing breakdown:
Section |  min time  |  avg time  |  max time  |%varavg| %total
---------------------------------------------------------------
Pair    | 0.92051    | 0.92051    | 0.92051    |   0.0 | 72.21
Bond    | 0.04746    | 0.04746    | 0.04746    |   0.0 |  3.72
Neigh   | 0.10544    | 0.10544    | 0.10544    |   0.0 |  8.27
Comm    | 0.014332   | 0.014332   | 0.014332   |   0.0 |  1.12
Output  | 0.16371    | 0.16371    | 0.16371    |   0.0 | 12.84
Modify  | 0.019368   | 0.019368   | 0.019368   |   0.0 |  1.52
Other   |            | 0.003896   |            |       |  0.31

Nlocal:            770 ave         770 max         770 min
Histogram: 1 0 0 0 0 0 0 0 0 0
Nghost:           4756 ave        4756 max        4756 min
Histogram: 1 0 0 0 0 0 0 0 0 0
Neighs:         121894 ave      121894 max      121894 min
Histogram: 1 0 0 0 0 0 0 0 0 0

Total # of neighbors = 121894
Ave neighs/atom = 158.3039
Ave special neighs/atom = 6.7376623
Neighbor list builds = 39
Dangerous builds = 0
unfix           1

# Output final configuration
write_data      final.data
System init for write_data ...
Generated 465 of 465 mixed pair_coeff terms from geometric mixing rule
WARNING: Dihedrals are defined but no dihedral style is set (../force.cpp:202)
WARNING: Likewise 1-4 special neighbor interactions != 1.0 (../force.cpp:204)
Total wall time: 0:00:01
