LAMMPS data file via write_data, version 23 Jun 2022, timestep = 2515

770 atoms
31 atom types
715 bonds
17 bond types
1087 angles
18 angle types
455 dihedrals
9 dihedral types
0 impropers
2 improper types

0 20 xlo xhi
0 20 ylo yhi
0 20 zlo zhi

Masses

1 12.011
2 12.011
3 12.011
4 12.011
5 12.011
6 12.011
7 12.011
8 12.011
9 12.011
10 12.011
11 1.008
12 1.008
13 1.008
14 1.008
15 1.008
16 1.008
17 1.008
18 15.999
19 15.999
20 15.999
21 15.999
22 14.007
23 14.007
24 14.007
25 14.007
26 18.998
27 30.974
28 6.941
29 32.065
30 32.065
31 6.941

Atoms # full

9 1 11 0.06 4.406130945122056 0.11852847742858656 1.9932232011686466 0 1 0
477 40 11 0.06 7.632156483408253 1.286933650051445 2.213840036976849 0 0 0
707 62 11 0.06 10.714692310990497 1.739178068013925 0.25917630713914536 0 0 1
213 18 11 0.06 13.332783630211058 1.7035240472421596 1.2577784994571708 0 0 0
206 18 20 -0.5 15.731363729243057 1.9464268388311152 1.9870651687331415 0 0 0
733 67 31 1 17.385381566996355 0.88527713842791 0.43019579100235866 0 0 0
628 54 11 0.06 3.990671638901947 4.820239485940074 2.3100966493420447 0 0 0
626 54 2 0.22 3.786407560025747 4.95651788004434 1.2511453855456065 0 0 0
627 54 11 0.06 3.5855698130092124 3.9647287017667834 0.8444405130886571 0 0 0
471 40 19 -0.35 7.240415284178611 3.316780261103401 2.1133726326635642 0 0 0
200 17 11 0.06 6.6084396148728715 4.979318725336023 0.11622059275592164 0 0 1
731 65 31 1 8.957280545170528 3.5161816626775937 0.30389518291960443 0 0 0
212 18 11 0.06 12.252832753033019 3.0089741301173722 1.7656290798683865 0 0 0
209 18 1 0.22 13.264975021983844 2.614463779973681 1.8484671129406813 0 0 0
207 18 19 -0.35 14.20861980629529 3.575129549245195 1.4212694528064191 0 0 0
205 18 9 0.52 15.522838033020108 3.072412881605199 1.5410320669231417 0 0 0
208 18 19 -0.35 16.5926660882693 3.9095949239910084 1.156401745051801 0 0 0
210 18 1 0.22 17.674064608644645 3.759230890826539 2.050884544720053 0 0 0
214 18 11 0.06 18.452411660755264 4.494572067559907 1.8454755920624066 0 0 0
216 18 11 0.06 18.118511049812938 2.7679931614668933 1.962559743037897 0 0 0
629 54 11 0.06 2.2938556353785935 5.917601900481231 19.97179628058773 0 0 -1
630 54 11 0.06 1.7365879791881742 5.635682854445698 1.606845857615061 0 0 0
625 54 2 0.22 2.6085377550663598 5.917916760481156 1.015580985604327 0 0 0
624 54 19 -0.35 3.139132510885854 7.226008457534707 1.0326537109373013 0 0 0
621 54 9 0.52 4.502396800554824 7.0576145282288065 1.3241708551834832 0 0 0
623 54 19 -0.35 4.852238136698535 5.754990418210391 1.71573506515431 0 0 0
480 40 11 0.06 7.157895411409578 6.893006105165068 2.3311913835773574 0 0 0
718 63 11 0.06 11.533161910340125 5.4409239403604035 1.928853988804209 0 0 0
717 63 11 0.06 12.658023568940818 6.714379661663355 2.3733239181150347 0 0 0
40 4 19 -0.35 15.212868770496815 7.4684013181963405 1.3747817437133012 0 0 0
45 4 11 0.06 18.52570048087129 7.002913387267212 2.142285972038563 0 0 0
622 54 20 -0.5 5.344478557215199 7.837037390112285 0.8904064521027961 0 0 0
84 7 11 0.06 11.030193313062048 9.488628279157073 0.9421455027859611 0 0 1
82 7 11 0.06 10.500814138016384 7.972450191757016 0.2256950705633671 0 0 1
42 4 1 0.22 14.243253943146371 8.38607772350022 0.9218500278198545 0 0 0
46 4 11 0.06 13.493843280846374 7.872464353806308 0.32247226795613276 0 0 0
47 4 11 0.06 13.743209819391424 8.879532872305344 1.7559032528747054 0 0 0
48 4 11 0.06 14.691298063960126 9.160005935495086 0.3001422112050096 0 0 0
37 4 9 0.52 16.054558531202062 8.094524170425942 2.315288684914966 0 0 0
38 4 20 -0.5 16.12363128601968 9.319776671017067 2.3803405908173745 0 0 0
681 60 9 0.52 0.29519124352853154 12.274380350575354 1.6905276370911073 0 0 0
684 60 19 -0.35 1.6322166404229261 11.88169276542397 1.873578162239186 0 0 0
689 60 11 0.06 2.624250646850866 12.19329531777978 0.7870280010885153 0 0 0
591 51 9 0.52 6.946286893977528 11.066674121999746 1.5472794984491547 0 0 0
594 51 19 -0.35 6.150520469325187 9.971129629569438 1.9075035826466784 0 0 0
431 36 11 0.06 5.19038346172961 12.469246340469265 0.18466321506187963 0 0 1
593 51 19 -0.35 6.646363716223142 12.261555268908499 2.2148782754076644 0 0 0
592 51 20 -0.5 8.013372597489807 10.911015238588755 0.9708627748129499 0 0 0
273 23 11 0.06 11.636399054631003 12.44009917011203 1.6381893963914875 0 0 0
271 23 11 0.06 12.854107714515841 11.248110016866036 1.9415116323992976 0 0 0
269 23 1 0.22 12.561742475754313 12.269435366375118 2.1814452338807317 0 0 0
266 23 20 -0.5 15.26392295556007 11.80706376429487 1.6168034943666845 0 0 0
682 60 20 -0.5 19.392497020705235 11.449939205365643 1.5676362442696439 -1 0 0
683 60 19 -0.35 0.11702306532252883 13.618770594199535 1.322485652034247 0 0 0
685 60 2 0.22 2.400701764969651 13.001366260560372 1.4899871175778434 0 0 0
687 60 11 0.06 1.0354911892001453 13.932700389029831 19.973265539301632 0 0 -1
686 60 2 0.22 1.4046147112249527 14.087421886124242 0.9902678872340736 0 0 0
690 60 11 0.06 3.3562332987181005 13.38472933865565 1.8472528543886146 0 0 0
172 15 19 -0.35 9.523546837365409 13.747304207258127 1.9019956892172474 0 0 0
265 23 9 0.52 14.864440403452255 12.929616127395525 1.9276657575410165 0 0 0
267 23 19 -0.35 13.492374041056298 13.29088494853914 1.8348606744279026 0 0 0
268 23 19 -0.35 15.75500842082157 13.88140291950613 2.4830826697773376 0 0 0
270 23 1 0.22 16.858363406272154 14.163879113205628 1.6502694641090414 0 0 0
275 23 11 0.06 17.26522460084192 13.251300884461706 1.2227614760873675 0 0 0
276 23 11 0.06 16.591681953879547 14.857166185752881 0.8529678240587483 0 0 0
274 23 11 0.06 17.661891741934557 14.637604636931068 2.2130179917958577 0 0 0
688 60 11 0.06 1.7727479468551934 15.11778922894337 1.0128667762396732 0 0 0
169 15 9 0.52 9.869140784058088 15.094965376984286 2.125370443577491 0 0 0
171 15 19 -0.35 10.229160906234885 15.873369750992081 1.000486490400776 0 0 0
173 15 1 0.22 10.833614170837272 17.114349319122056 1.3163371823278993 0 0 0
175 15 11 0.06 11.383323190130676 17.142599030419007 2.250552501455346 0 0 0
176 15 11 0.06 11.57122944277646 17.40463622460979 0.5792315915698827 0 0 0
643 56 19 -0.35 13.667876697273561 15.774344755161074 0.4941621083108865 0 0 1
642 56 20 -0.5 15.475540319785976 17.161818812465434 0.13963135980267655 0 0 1
3 1 19 -0.35 3.523564200597256 18.26715899878586 2.239241424840465 0 0 0
177 15 11 0.06 10.08015652895983 17.892565457449916 1.3126034511906206 0 0 0
734 68 31 1 13.275631047406197 19.29396507151508 1.9384658861869193 0 0 0
732 66 31 1 18.138567504038495 18.65592384351621 1.2743975859167997 0 0 0
7 1 11 0.06 2.755195543413696 0.14894190717258254 2.6139518634700285 0 1 0
473 40 1 0.22 7.940608882788309 2.229315122288328 2.666718536501427 0 0 0
475 40 11 0.06 9.011906209691285 2.355769250676904 2.516985970193041 0 0 0
476 40 11 0.06 7.760772994133341 2.1686837012355777 3.738325956466014 0 0 0
760 73 26 -0.39 9.820173948484705 0.9956190150175708 4.5985308616306035 0 1 0
211 18 11 0.06 13.409251678965047 2.325380070191785 2.885560653628008 0 0 0
735 69 31 1 17.45115371211699 0.7233308994892098 3.397441067609894 0 1 0
770 74 26 -0.39 0.6259139179075841 4.782386621108736 4.049126702148321 0 0 0
570 48 11 0.06 4.811704742054256 3.7453600898260575 4.409812595745423 0 0 0
469 40 9 0.52 7.607770545712121 4.48391441580768 2.809955952310056 0 0 0
470 40 20 -0.5 8.786963883983844 4.81409564623848 2.9092602416509545 0 0 0
711 63 9 0.52 10.918196441161523 4.943947465461837 4.412776880960756 0 0 0
713 63 19 -0.35 11.916517322381617 4.880179621993387 3.428301120701051 0 0 0
485 41 1 0.22 14.726411009991486 3.8404393330102864 4.78534428929183 0 0 0
489 41 11 0.06 14.951975761568821 4.089897951698004 3.7513617467588496 0 0 0
215 18 11 0.06 17.35293874113049 3.8936392837768845 3.0836285445341987 0 0 0
766 74 26 -0.39 2.70934115534884 5.06364178561977 4.708357532433776 0 0 0
472 40 19 -0.35 6.592191467976369 5.22404069581504 3.4468314242616276 0 0 0
474 40 1 0.22 6.851364006037996 6.606439294814636 3.33869793577764 0 0 0
478 40 11 0.06 5.94981136154583 7.1651715582547535 3.5795467817482183 0 0 0
479 40 11 0.06 7.63416354260366 6.914201832164781 4.03221627346424 0 0 0
720 63 11 0.06 9.818832985318718 7.081202880186421 2.6972781177112584 0 0 0
714 63 19 -0.35 10.205476260550757 6.1551252212061405 4.470497754958091 0 0 0
715 63 2 0.22 10.66175571027596 6.912710474361252 3.3719328713333185 0 0 0
716 63 2 0.22 11.830184608895877 6.108478958619952 2.7416879727085535 0 0 0
738 70 26 -0.39 12.77947641232204 6.736705150152318 4.975378771330817 0 0 0
39 4 19 -0.35 16.775166384254657 7.278646630834499 3.213512794627549 0 0 0
44 4 11 0.06 18.711165977253206 7.047486763341177 3.8920196182338986 0 0 0
41 4 1 0.22 18.16385908399052 7.478297363627943 3.053795892513823 0 0 0
599 51 11 0.06 5.5305051107504 9.613332073065 3.308472778685952 0 0 0
719 63 11 0.06 10.94410859030975 7.90139525483253 3.7421544014804193 0 0 0
741 70 26 -0.39 13.613806898338984 8.646627742488194 4.245771442063546 0 0 0
43 4 11 0.06 18.414654329588423 8.538500696856286 3.004974784260445 0 0 0
600 51 11 0.06 4.1080813233398725 10.480812042609278 2.6725178211280562 0 0 0
595 51 2 0.22 5.195028436780732 10.509598146693223 2.7846568787310515 0 0 0
596 51 2 0.22 5.796480231323437 11.855012882694464 3.2578576979355467 0 0 0
597 51 11 0.06 6.470238573419091 11.777805759150032 4.115534176564387 0 0 0
178 15 11 0.06 9.022713165166953 12.040338623359217 2.959171785617526 0 0 0
272 23 11 0.06 12.302597083665903 12.288006822176436 3.2388724926504655 0 0 0
652 57 20 -0.5 14.57386507317061 11.608622938806628 4.0275392724016434 0 0 0
651 57 9 0.52 15.728665371012264 11.20745571625131 4.131366353444747 0 0 0
654 57 19 -0.35 16.074451963648787 10.269500490306568 5.107868428927957 0 0 0
653 57 19 -0.35 16.820029556864107 11.897703898233862 3.566627773603829 0 0 0
656 57 2 0.22 17.963095180614687 11.38486013041462 4.204402351389052 0 0 0
658 57 11 0.06 17.90542851182808 12.448774854589125 4.4249052760856165 0 0 0
657 57 11 0.06 19.014186251899613 11.162700878871512 4.021468150091266 0 0 0
10 1 11 0.06 1.6844695312998148 14.509986511068213 3.4665537266163655 0 0 0
598 51 11 0.06 5.074269529030136 12.629829305168325 3.4936844091410504 0 0 0
416 35 11 0.06 4.999071649718573 14.63767199238103 4.978616759438601 0 0 0
179 15 11 0.06 10.036519609254375 13.19791424839632 3.8079507727058743 0 0 0
174 15 1 0.22 9.20852382060875 13.10305205109699 3.112294068635186 0 0 0
180 15 11 0.06 8.317990908528442 13.534361155589178 3.564861856602777 0 0 0
587 50 11 0.06 11.993368826565796 14.740294784328718 3.6038305438952594 0 0 0
394 33 11 0.06 16.886382784208973 14.837451936670545 4.580116286264373 0 0 0
6 1 1 0.22 1.6769201762198842 15.58049692713726 3.672268948546724 0 0 0
11 1 11 0.06 1.5094459547754593 15.710632238582722 4.7408009248572816 0 0 0
12 1 11 0.06 0.8266220012112349 16.01314482621235 3.14404416081324 0 0 0
4 1 19 -0.35 2.8976827982629385 16.171116730972393 3.276354285656708 0 0 0
36 3 11 0.06 7.550639240600929 16.26326765238783 4.349350795589867 0 0 0
170 15 20 -0.5 9.679257682326542 15.603260132472299 3.2240391779498854 0 0 0
585 50 2 0.22 12.406603352482614 16.72734333935631 4.491066625128758 0 0 0
589 50 11 0.06 11.35563558134655 16.87152426041596 4.73399644776173 0 0 0
583 50 19 -0.35 14.03551609951961 15.195043261548816 3.7274044037227925 0 0 0
586 50 2 0.22 12.728163233237376 15.243892803296857 4.230667261268982 0 0 0
581 50 9 0.52 14.308867001141268 16.510092346558302 3.333256303461041 0 0 0
584 50 19 -0.35 13.366926593747117 17.46407480491 3.7604910166737753 0 0 0
582 50 20 -0.5 15.251529478389303 16.78958208514922 2.5992931207474266 0 0 0
69 6 11 0.06 19.018990597334877 16.10684719076868 4.865666103561316 0 0 0
2 1 20 -0.5 1.990340771920308 18.17495841003496 3.946208577098151 0 0 0
1 1 9 0.52 2.772226824062073 17.576040072595667 3.21114629069975 0 0 0
5 1 1 0.22 3.6995627336486314 19.605497648946216 2.6454456428814495 0 0 0
8 1 11 0.06 4.083684935212279 19.65542693625358 3.664339346168095 0 0 0
763 73 26 -0.39 9.702256907202857 19.958955139157897 2.662449800901284 0 0 0
757 73 27 1.34 9.616648015746767 19.514906380057006 4.1529215430766575 0 0 0
759 73 26 -0.39 8.075025366192586 19.719476321769303 4.117436365305601 0 0 0
761 73 26 -0.39 9.398407023336071 18.03778046899185 3.7111745090050463 0 0 0
758 73 26 -0.39 11.161412045333746 19.29940559730219 4.174502538266403 0 0 0
72 6 11 0.06 15.176931348214035 19.576712168130754 3.7397043730750372 0 0 0
61 6 9 0.52 17.325973979195858 17.939543333377706 4.7371238009712355 0 0 0
64 6 19 -0.35 15.913670631849643 17.915771783671815 4.72894024945615 0 0 0
66 6 1 0.22 15.350273906225695 19.214189279645545 4.752722215189438 0 0 0
62 6 20 -0.5 17.959049332104964 18.274980132252942 3.7386571248600893 0 0 0
264 22 11 0.06 3.40282033897379 1.080407828592326 7.024514954989596 0 0 0
561 48 9 0.52 6.295544073389392 1.462928349410801 5.6644209452128065 0 0 0
562 48 20 -0.5 6.5068146592970715 0.2946687237361505 5.973661987344324 0 0 0
564 48 19 -0.35 5.119356389099361 1.833345134257639 5.005250115576252 0 0 0
492 41 11 0.06 12.027454994201236 0.047732825652467406 6.596929008802861 0 0 0
481 41 9 0.52 13.603009436869165 1.945887350020248 5.674113694072131 0 0 0
484 41 19 -0.35 13.806216124908735 1.0862901121397 6.773331294317415 0 0 0
482 41 20 -0.5 12.471050494307798 2.235406490897445 5.293190004130648 0 0 0
483 41 19 -0.35 14.745285061580338 2.434980017766511 4.993895962588314 0 0 0
486 41 1 0.22 12.58251497028039 0.6476093753699013 7.317592110820446 0 0 0
764 74 27 1.34 1.368190943240318 4.706042067210617 5.418783331742314 0 0 0
765 74 26 -0.39 0.02524996612712699 4.347788891150101 6.126347980935294 0 0 0
767 74 26 -0.39 1.6469323709971089 3.1893578374626417 5.183209047975274 0 0 0
769 74 26 -0.39 2.1110424192619885 4.630614015261878 6.788758459290091 0 0 0
569 48 11 0.06 4.034515343876731 3.2933454595270364 5.916356595198025 0 0 0
565 48 2 0.22 4.946758640092901 3.191936991667228 5.332254159261919 0 0 0
563 48 19 -0.35 6.9924701420847315 2.5387282374669735 6.266178557349713 0 0 0
566 48 2 0.22 6.193525193966995 3.6982010761111006 6.076110554587659 0 0 0
567 48 11 0.06 6.3337626431140865 3.4751794173671318 7.136479455186573 0 0 0
568 48 11 0.06 7.112601958364655 3.815607530857374 5.502515901299918 0 0 0
399 34 19 -0.35 9.07590330120572 3.7982504477910624 7.047385177294612 0 0 0
712 63 20 -0.5 10.580553649361276 3.954502484916799 5.057880577479745 0 0 0
487 41 11 0.06 13.791994541319326 4.347615167323044 5.040423023395231 0 0 0
488 41 11 0.06 15.519857642555458 4.298150485490383 5.362891259651435 0 0 0
557 47 11 0.06 17.488244262794304 4.7344836476881795 6.838196798305942 0 0 0
768 74 26 -0.39 1.090154821089732 6.2227615237840865 5.655047358967433 0 0 0
633 55 19 -0.35 3.6488645551328447 6.750768448507336 6.295370417284841 0 0 0
637 55 11 0.06 4.6751036523039655 5.382407144139423 7.127714596615779 0 0 0
636 55 2 0.22 4.943787772614378 6.337002455655257 6.670380029058406 0 0 0
638 55 11 0.06 5.588576675628034 6.109944618749149 5.816642245721223 0 0 0
405 34 11 0.06 8.640022741654784 5.6875118544828815 6.361168872105617 0 0 0
401 34 1 0.22 8.827020034217934 5.176416024679166 7.303642608469952 0 0 0
739 70 26 -0.39 14.860788301946133 7.283165718838407 5.441678217276273 0 0 0
742 70 26 -0.39 13.328518363091327 7.284821759923569 7.0378653536365405 0 0 0
559 47 11 0.06 15.276923905911042 5.75646270959707 7.375875257192215 0 0 0
553 47 19 -0.35 18.2029481376455 6.10401290092618 6.750668074365943 0 0 0
551 47 9 0.52 17.71854871543877 7.413890691378522 6.84481977884575 0 0 0
632 55 20 -0.5 2.2588672223987136 8.38197485142178 7.144064431376142 0 0 0
502 42 11 0.06 3.2689328942810247 9.516676446909983 5.158708491725343 0 0 0
631 55 9 0.52 3.3759426160965633 7.871132322419997 7.095828717411212 0 0 0
498 42 1 0.22 4.122148937448874 9.968940443677582 5.664293004896575 0 0 0
493 42 9 0.52 6.448884899527439 9.700623684964013 5.923262964610936 0 0 0
496 42 19 -0.35 5.204060143283213 9.056002618766128 5.7262198954845696 0 0 0
495 42 19 -0.35 7.597084722557031 9.077053875921425 5.366043126709673 0 0 0
497 42 1 0.22 8.764917630359054 9.134995339929423 6.173325378314852 0 0 0
500 42 11 0.06 8.858263706899884 8.298309072473758 6.863123192763802 0 0 0
501 42 11 0.06 9.639334602113792 9.063046059200389 5.530192688328212 0 0 0
740 70 26 -0.39 12.0854009765572 8.649011641957303 5.83675638521174 0 0 0
736 70 27 1.34 13.472800898438857 7.964853031792502 5.64160446618486 0 0 0
737 70 26 -0.39 14.168692585482574 9.189238151920865 6.3119629088079074 0 0 0
659 57 11 0.06 17.38325161965003 9.493738799864936 5.075615242665303 0 0 0
552 47 20 -0.5 18.51897231130438 8.335311814797066 6.974263092823167 0 0 0
419 35 11 0.06 0.47110033978436644 11.930389512209214 6.359880701062976 0 0 0
503 42 11 0.06 3.790963020366622 10.29510497350873 6.646563049007215 0 0 0
504 42 11 0.06 4.369792731888626 10.874492964933074 5.125945357587417 0 0 0
494 42 20 -0.5 6.501033441365047 10.82052505260878 6.42933062070791 0 0 0
499 42 11 0.06 8.853893143524045 10.050588526022018 6.756265411200265 0 0 0
29 3 1 0.22 10.474404217285993 12.233300447096601 6.170519789759062 0 0 0
32 3 11 0.06 10.681897356973787 11.829202861565024 7.1589884624625455 0 0 0
33 3 11 0.06 10.521551075091812 11.399524132951587 5.473810018025699 0 0 0
655 57 2 0.22 17.429120324971837 10.542785765519387 5.3626540981488935 0 0 0
152 13 11 0.06 15.027090584776504 11.66000521005445 7.0378073025075585 0 0 0
660 57 11 0.06 18.02380086539857 10.67818810353617 6.263891406679131 0 0 0
414 35 1 0.22 0.32592617463296153 12.720180217845543 7.097998306433893 0 0 0
412 35 19 -0.35 1.1114303575969835 13.852043474656163 6.795001333100396 0 0 0
409 35 9 0.52 2.444339380839298 13.446234875285684 6.586479900349559 0 0 0
410 35 20 -0.5 2.9412136070767905 12.559334865325248 7.273343807597427 0 0 0
411 35 19 -0.35 3.13067280182705 13.952522181044511 5.4676935080921885 0 0 0
413 35 1 0.22 4.494019500374018 14.109301669453673 5.783454477573483 0 0 0
417 35 11 0.06 4.6203730195337895 14.67410857941582 6.7020611338055085 0 0 0
415 35 11 0.06 4.992453701970724 13.15453308970686 5.936038881587153 0 0 0
25 3 9 0.52 9.032633144405521 14.207607631746152 5.862980118018088 0 0 0
26 3 20 -0.5 9.994240737500697 14.9302174964054 5.6100589731437625 0 0 0
27 3 19 -0.35 9.172271719082937 12.817615510796461 6.154630636989459 0 0 0
28 3 19 -0.35 7.6999977703401195 14.678341481099116 5.699917280236545 0 0 0
31 3 11 0.06 11.330192016178316 12.848165149044666 5.917942654272874 0 0 0
588 50 11 0.06 12.869331779983224 14.64961787029179 5.126213888173757 0 0 0
147 13 19 -0.35 14.253542057979496 13.565445072810151 7.007089145634984 0 0 0
390 33 1 0.22 16.281093209485498 14.448065641990548 5.392386957204562 0 0 0
395 33 11 0.06 16.953561920127658 14.00649511159235 6.131487007993902 0 0 0
396 33 11 0.06 15.695798526601438 13.634368962814206 4.969153648038557 0 0 0
418 35 11 0.06 19.266764112209955 12.975250814496164 7.109859841866732 -1 0 0
34 3 11 0.06 6.587056324441527 16.40099425190485 5.755298420008057 0 0 0
30 3 1 0.22 7.559060555224514 16.063757348120614 5.417323803700673 0 0 0
35 3 11 0.06 8.282080441879243 16.72111309904281 5.9005818567454975 0 0 0
155 13 11 0.06 11.442622965843713 16.257659364752463 7.152932278071794 0 0 0
590 50 11 0.06 12.959806993247796 17.13530748179154 5.3370905480130615 0 0 0
148 13 19 -0.35 13.454130713667137 15.803068202893853 7.434550127312216 0 0 0
387 33 19 -0.35 15.833237582647493 17.468729845920343 7.185833695507254 0 0 0
385 33 9 0.52 15.913866238554668 16.065787193034655 7.076753992588374 0 0 0
388 33 19 -0.35 15.429101229713378 15.466461025215693 5.890186804760011 0 0 0
63 6 19 -0.35 17.987642040502713 17.55463120883497 5.922227617806644 0 0 0
65 6 1 0.22 19.18484386392777 16.88144955946723 5.609746242647253 0 0 0
68 6 11 0.06 19.60154686353338 16.39083825062017 6.487622982733395 0 0 0
322 27 11 0.06 1.3259575666733028 18.794146167777296 7.402099721873265 0 0 0
234 20 1 0.22 4.8263564206538945 18.20345781762463 7.465055663557852 0 0 0
240 20 11 0.06 5.086162520132154 18.28670642800205 6.412589340133986 0 0 0
762 73 26 -0.39 9.532377054616232 19.0752342405215 5.647170265393572 0 0 0
70 6 11 0.06 14.38648407771763 19.186139478758587 5.257582860683508 0 0 0
71 6 11 0.06 15.958421128907712 19.953196718221502 5.27875943390061 0 0 0
67 6 11 0.06 19.923083438679836 17.581517201031357 5.220374291265508 0 0 0
254 22 20 -0.5 1.2383521475699977 1.787694534558475 8.055541971624471 0 0 0
258 22 1 0.22 3.8351047590606404 1.4794267118013171 7.942013159570574 0 0 0
263 22 11 0.06 3.640257514539386 0.7736877915353259 8.748900854041018 0 0 0
262 22 11 0.06 4.910920300281213 1.5311263799279142 7.801106843289383 0 0 0
408 34 11 0.06 7.286739055848535 0.9108855620371107 8.264525703396535 0 0 0
400 34 19 -0.35 9.249758080200092 1.5615033302540828 7.97933032057576 0 0 0
402 34 1 0.22 8.307309633998539 0.6617365916398187 8.538828260955752 0 0 0
407 34 11 0.06 8.315767906642215 0.658181274436384 9.6252541180286 0 0 0
491 41 11 0.06 11.956380969266377 1.4855970268464302 7.621211340190296 0 0 0
531 45 19 -0.35 15.684464937087176 1.7383397963205687 8.28497134829671 0 0 0
533 45 1 0.22 17.080235201754316 1.7091816616430464 8.472078067510093 0 0 0
535 45 11 0.06 17.330342836334438 1.9543468097650716 9.502556676225105 0 0 0
536 45 11 0.06 17.482806968233003 0.7186707360469278 8.260138582233838 0 0 0
537 45 11 0.06 17.57516021364701 2.422636414550768 7.81332589913551 0 0 0
253 22 9 0.52 1.956496440756235 2.614232631852128 8.614569641087801 0 0 0
255 22 19 -0.35 1.4941557602879665 3.3578031141011166 9.719977751559846 0 0 0
256 22 19 -0.35 3.308585221904921 2.7511161034376808 8.245932882281549 0 0 0
397 34 9 0.52 8.796414135223978 2.892519321945916 8.10611175382732 0 0 0
398 34 20 -0.5 8.056573364886706 3.1783979285311785 9.039675003681818 0 0 0
538 45 11 0.06 12.288362751926934 4.388009090355575 7.714325022758425 0 0 0
225 19 11 0.06 10.389886381162908 4.1178131332125405 9.590841382206918 0 0 0
532 45 19 -0.35 14.1415888536141 3.4773351104521053 7.577330379725291 0 0 0
534 45 1 0.22 13.11617031654193 4.072230237003069 8.348287416874916 0 0 0
540 45 11 0.06 13.464253286532138 4.948471237941436 8.89537040432143 0 0 0
539 45 11 0.06 12.718256708257293 3.3701944402450317 9.075713310589833 0 0 0
529 45 9 0.52 15.204401815823829 3.059730103613154 8.407747385753526 0 0 0
530 45 20 -0.5 15.65627617918798 3.807446625097728 9.268594790054713 0 0 0
261 22 11 0.06 19.504592119059485 3.154381902029822 9.224068579976581 -1 0 0
558 47 11 0.06 17.805053111659017 4.867528003442783 8.573320751306683 0 0 0
571 49 9 0.52 1.0103831512804613 5.853470588607757 9.221799525496321 0 0 0
572 49 20 -0.5 0.24077858366601515 5.391648625196625 8.387573760770506 0 0 0
573 49 19 -0.35 2.1656723301091763 6.532302912515651 8.822916092170496 0 0 0
577 49 11 0.06 3.207778881360908 6.9410198371084135 9.702668902795036 0 0 0
635 55 2 0.22 5.487849224713964 7.403494736334163 7.662060128648685 0 0 0
639 55 11 0.06 5.494273159863091 7.119165791152963 8.713363994979243 0 0 0
403 34 11 0.06 7.95365552082372 5.402935857862463 7.915247761305906 0 0 0
404 34 11 0.06 9.698378464898246 5.6590861617655 7.745924747624035 0 0 0
555 47 2 0.22 16.127256856546758 6.2103007086579805 7.880495788144054 0 0 0
556 47 2 0.22 17.43951562580462 5.402592690467773 7.698338768154816 0 0 0
560 47 11 0.06 15.779354223100643 6.27738029422737 8.911161795240318 0 0 0
439 37 11 0.06 18.519952333652867 7.204297184300562 9.200305644651744 0 0 0
576 49 2 0.22 2.311174576244492 7.5616120106511495 9.77063281973848 0 0 0
578 49 11 0.06 2.5725281560379836 8.612408656394798 9.614841651454576 0 0 0
634 55 19 -0.35 4.413133061944915 8.262275935442748 7.961012777035108 0 0 0
98 9 20 -0.5 6.020474894927318 9.510955939310602 9.411089411164063 0 0 0
640 55 11 0.06 6.502221337901035 7.73687027959419 7.467995091251137 0 0 0
280 24 19 -0.35 10.082126070848778 8.290160083593022 9.501404456445696 0 0 0
282 24 1 0.22 10.667563109842199 9.475366840871903 8.993497004039373 0 0 0
286 24 11 0.06 10.934400164635944 9.339013656787424 7.945842063526215 0 0 0
288 24 11 0.06 11.582899149789284 9.735267133037706 9.519773264463314 0 0 0
443 37 11 0.06 14.266877680141036 8.918456929096044 9.781842497902142 0 0 0
554 47 19 -0.35 16.41774971965987 7.503620393583129 7.384760771212813 0 0 0
433 37 9 0.52 16.82157887585733 9.10801636499409 9.888286281790585 0 0 0
440 37 11 0.06 19.910295086305492 8.28024251173483 9.168647296769032 0 0 0
435 37 19 -0.35 18.079277497535017 9.240767121458223 9.261930448098509 0 0 0
437 37 1 0.22 18.910667205740886 8.144105797482897 9.579960526200006 0 0 0
420 35 11 0.06 0.5863160609699323 12.317270229447644 8.076941022467906 0 0 0
102 9 1 0.22 4.762791401185388 11.72937019669338 9.427249544306198 0 0 0
108 9 11 0.06 5.046093978910939 11.573262657295565 8.3883036965309 0 0 0
287 24 11 0.06 9.995135097960137 10.331018330872787 9.037483159224525 0 0 0
727 64 11 0.06 12.048747175146373 12.181216985822884 9.728196923863294 0 0 0
149 13 1 0.22 14.357989107363503 12.296165374122168 7.617718454558427 0 0 0
151 13 11 0.06 13.396858305231659 11.787320191624572 7.661435657609534 0 0 0
153 13 11 0.06 14.778322658773082 12.362902064323027 8.620443057340044 0 0 0
436 37 19 -0.35 15.912028393675953 10.182258142183985 9.792788122094338 0 0 0
106 9 11 0.06 4.136529173935565 12.619193570030363 9.466250747470914 0 0 0
233 20 1 0.22 7.119117789132044 14.230458475951183 8.576325579316077 0 0 0
237 20 11 0.06 6.693927272966783 13.58773153443087 7.805433553489444 0 0 0
236 20 11 0.06 7.444398105017192 13.59483554539573 9.399154103132036 0 0 0
235 20 11 0.06 8.016895974187333 14.693732456072022 8.177858434711945 0 0 0
146 13 20 -0.5 12.201203620169707 13.959345270298227 7.980007284633085 0 0 0
145 13 9 0.52 13.271295963595106 14.407539833980273 7.5797478091223125 0 0 0
165 14 11 0.06 16.589330010758033 13.480695674877108 9.957672675118312 0 0 0
343 29 11 0.06 0.9480518851416675 15.707444148831769 9.833789848340983 0 0 0
232 20 19 -0.35 4.851219754886068 16.854813827929643 7.897866943794279 0 0 0
345 29 11 0.06 2.4860644886244487 15.90274437567116 9.01197441102396 0 0 0
231 20 19 -0.35 6.170081356365413 15.170976892828415 9.036928303928947 0 0 0
229 20 9 0.52 6.130767520260165 16.363893173552764 8.270163615945313 0 0 0
230 20 20 -0.5 7.147396936535977 17.035077340610822 8.106210714931363 0 0 0
456 38 11 0.06 9.401991589109697 16.569099370011894 9.076086771139412 0 0 0
150 13 1 0.22 12.286653211718995 16.523194216310834 7.777188510340174 0 0 0
156 13 11 0.06 11.966817693863387 16.314645661884224 8.781653411328328 0 0 0
393 33 11 0.06 14.791253269508509 17.27062796189398 8.952799547367416 0 0 0
722 64 20 -0.5 13.87108396753319 15.142678796893517 9.887896213339568 0 0 0
386 33 20 -0.5 16.17605277159873 15.384077949937206 8.065692246089753 0 0 0
323 27 11 0.06 0.407373936952075 17.71567681054635 8.447124440734553 0 0 0
316 27 19 -0.35 1.721679287131837 18.962269504485725 9.430792427171896 0 0 0
318 27 1 0.22 0.8277153156855667 18.716344704370638 8.368016148808863 0 0 0
324 27 11 0.06 0.003634715898058928 19.429386334504276 8.376145920519733 0 0 0
238 20 11 0.06 3.81210908070868 18.58633121691577 7.552300767221597 0 0 0
453 38 11 0.06 4.06694036097175 18.25483351761242 10.017064946403089 0 0 0
239 20 11 0.06 5.463266301999028 18.876856980796052 8.039888656447589 0 0 0
406 34 11 0.06 8.506431259186916 19.642765263421197 8.208543709485346 0 -1 0
154 13 11 0.06 12.440816497121125 17.600726456165344 7.735487674223123 0 0 0
454 38 11 0.06 10.306108780592076 17.775708076163088 9.941456261322815 0 0 0
490 41 11 0.06 12.76186680865716 0.0353877744451232 8.201344210821986 0 0 0
389 33 1 0.22 15.621870403045795 17.832251136298595 8.529250496688022 0 0 0
391 33 11 0.06 16.506414111295804 17.629749217515933 9.132461204035081 0 0 0
392 33 11 0.06 15.39132839350746 18.89452099143222 8.607824080540174 0 0 0
259 22 11 0.06 0.13325706402338933 1.9050978275482582 10.294657544511917 0 0 0
53 5 1 0.22 4.330918801039046 0.8872419508076094 11.877680648048884 0 0 0
57 5 11 0.06 4.745788200348497 0.462605827223371 10.968866016846599 0 0 0
51 5 19 -0.35 3.405629336789665 1.898937568833697 11.549879025935041 0 0 0
55 5 11 0.06 5.177384825555549 1.2599549718723508 12.447265448663847 0 0 0
15 2 19 -0.35 11.300032392422745 1.140440275835038 12.384906791485543 0 0 0
17 2 1 0.22 10.896232666194436 1.2127608167040094 11.017450485550187 0 0 0
19 2 11 0.06 10.124915291477032 1.9356865458460304 10.778474131995557 0 0 0
20 2 11 0.06 11.73241412849009 1.4748094417100663 10.372772936266973 0 0 0
21 2 11 0.06 10.554316030484541 0.24553097031843676 10.657449690998273 0 0 0
522 44 1 0.22 14.370343899967022 2.5335339171901703 11.562245856505607 0 0 0
526 44 11 0.06 13.364783199400417 2.4865258725894837 11.971433081015284 0 0 0
527 44 11 0.06 14.312340211296961 2.1369510158757783 10.552672953138407 0 0 0
528 44 11 0.06 15.010875569302671 1.8361606381442013 12.10159529662701 0 0 0
257 22 1 0.22 0.18224737676545033 2.966015542231661 10.051137590463698 0 0 0
661 58 9 0.52 4.36416130405845 4.204754640660031 11.458157904399501 0 0 0
662 58 20 -0.5 3.210731492040948 4.484054800728263 11.145763843597729 0 0 0
664 58 19 -0.35 5.352039577473837 3.8909945056558306 10.496835690134224 0 0 0
670 58 11 0.06 6.241771118460244 2.7537124894474094 10.702181373844644 0 0 0
669 58 11 0.06 6.673211270816333 4.562463691444984 10.593688193986708 0 0 0
665 58 2 0.22 6.557303131639118 3.6683403459276454 11.213431155523955 0 0 0
221 19 1 0.22 10.15541154616642 4.9201474225805075 10.28496838611397 0 0 0
223 19 11 0.06 10.224481184367791 4.5211152487528 11.293623884082011 0 0 0
520 44 19 -0.35 14.782290504451934 3.889546864217261 11.608116173045705 0 0 0
517 44 9 0.52 16.134641451937114 4.054358951178988 11.986175760908665 0 0 0
518 44 20 -0.5 16.99807631815869 3.26654560624715 11.603730538641587 0 0 0
260 22 11 0.06 19.813953648942178 3.5273938873639246 10.90700719351929 -1 0 0
574 49 19 -0.35 0.6128109888913317 6.11296471028148 10.549412529066457 0 0 0
575 49 2 0.22 1.3613080640424808 7.245151356509436 10.95872802996276 0 0 0
579 49 11 0.06 1.6553165613699214 6.392506609178435 11.573599475635403 0 0 0
105 9 11 0.06 5.221177921610233 6.528130294665941 11.124467070103544 0 0 0
224 19 11 0.06 9.107216442459588 5.1696038421125055 10.123676785087985 0 0 0
279 24 19 -0.35 9.428704917222193 7.196200052974482 11.546882568617018 0 0 0
217 19 9 0.52 11.803494770051723 6.4957716468500655 11.069120083013512 0 0 0
218 19 20 -0.5 12.321265127276279 5.7367205908578365 11.8875494238645 0 0 0
219 19 19 -0.35 11.002563459986886 6.019867883618794 9.997911184527705 0 0 0
524 44 11 0.06 17.568179138092418 5.896811803983371 11.104258646594369 0 0 0
523 44 11 0.06 18.51481776425613 5.107644576518777 12.342411852951033 0 0 0
521 44 1 0.22 17.663909825195297 5.755009806087488 12.17613671657315 0 0 0
580 49 11 0.06 1.2839506282423563 8.066627923554202 11.677437253000237 0 0 0
97 9 9 0.52 4.997085295546618 9.532482136606088 10.093121137719372 0 0 0
99 9 19 -0.35 4.640436904173123 8.511083043696598 11.013366452279632 0 0 0
101 9 1 0.22 5.603940083945659 7.5220211323807264 11.34356118898993 0 0 0
104 9 11 0.06 5.745212434164284 7.533823210048961 12.414228600719454 0 0 0
103 9 11 0.06 6.59687824815713 7.599515152892143 10.904952830371945 0 0 0
277 24 9 0.52 9.616766201061349 8.413804411294446 10.835065952239455 0 0 0
278 24 20 -0.5 9.138287599628438 9.476613950986794 11.221849208470319 0 0 0
220 19 19 -0.35 12.31891916109598 7.800064666478376 10.917175329696235 0 0 0
222 19 1 0.22 12.2481064418762 8.541435404451008 12.11534175610578 0 0 0
226 19 11 0.06 12.277614100947883 9.612701982946895 11.917860740897437 0 0 0
444 37 11 0.06 14.713663694693636 9.560670306078338 11.359921263883756 0 0 0
438 37 1 0.22 14.65338078749394 9.795901403084923 10.300199592170515 0 0 0
434 37 20 -0.5 16.514866108311868 8.07660525282335 10.478803096514811 0 0 0
441 37 11 0.06 19.006927429198686 8.022916210741247 10.652643168479896 0 0 0
348 29 11 0.06 0.9121369796582515 11.425032243488683 12.052984432282788 0 0 0
100 9 19 -0.35 4.091019005625582 10.605515536092572 9.952579214466576 0 0 0
107 9 11 0.06 5.672857547984941 11.933146007942094 9.986686549466516 0 0 0
118 10 11 0.06 5.736120506482425 10.629972421330882 12.213885764980725 0 0 0
514 43 11 0.06 9.665335428139368 11.832146773585487 11.86870337319231 0 0 0
728 64 11 0.06 12.502367549107436 12.274152460059561 11.497686111525038 0 0 0
442 37 11 0.06 13.928870781580745 10.599724798445006 10.186141423255265 0 0 0
337 29 9 0.52 1.6692410020851238 13.698521237928544 11.118336856384218 0 0 0
338 29 20 -0.5 0.781112447779013 13.274530591566048 10.380534890968672 0 0 0
340 29 19 -0.35 1.7669655500611545 13.309912908184161 12.475586005431698 0 0 0
339 29 19 -0.35 2.6142897506422482 14.635800967964608 10.635217330465286 0 0 0
123 11 19 -0.35 4.294646266622996 12.975780947996489 11.933335340804257 0 0 0
129 11 11 0.06 4.933229167765228 14.930130126734134 12.152642706583224 0 0 0
128 11 11 0.06 6.134979627908122 13.849590211953167 11.521182636082651 0 0 0
125 11 1 0.22 5.313587388388612 13.915338596093584 12.23215063850414 0 0 0
724 64 19 -0.35 11.770547303275656 14.911198784187688 10.834813570643819 0 0 0
725 64 2 0.22 10.910183045459565 13.80174103898811 10.818234489841519 0 0 0
726 64 2 0.22 11.773452938840432 12.527544951032358 10.720064022306133 0 0 0
729 64 11 0.06 9.973142101366115 13.72412853259931 10.265901770272702 0 0 0
730 64 11 0.06 10.695900232871207 14.121899961939414 11.83579331726623 0 0 0
157 14 9 0.52 14.844001377799898 14.903353537579784 12.176073042442894 0 0 0
721 64 9 0.52 12.979287370173756 14.417585381623178 10.327787322605879 0 0 0
723 64 19 -0.35 13.049858527065822 13.003534010492636 10.307218976541877 0 0 0
159 14 19 -0.35 15.202369703960247 13.727764733222381 11.461921954753842 0 0 0
161 14 1 0.22 16.55054913526131 13.630963568625221 11.036598892793588 0 0 0
163 14 11 0.06 17.171615636077664 14.493563930633613 11.257649102338734 0 0 0
164 14 11 0.06 17.02586110702298 12.765317008480793 11.497871450999412 0 0 0
191 16 11 0.06 19.559132684449825 14.816055632531816 11.922294889883215 0 0 0
341 29 1 0.22 2.0282872953841564 15.758599586710313 9.990077469993121 0 0 0
344 29 11 0.06 2.2185188468774717 16.664509968108103 10.560944446751838 0 0 0
190 16 11 0.06 0.40885906199831407 16.30711663404963 12.244804317244517 1 0 0
451 38 11 0.06 4.7115106241997635 16.683306748443922 10.386505733001355 0 0 0
445 38 9 0.52 7.0922098168672045 17.42330015785256 10.57262546983757 0 0 0
446 38 20 -0.5 7.077350434353933 16.30741399035891 11.091397911253821 0 0 0
450 38 1 0.22 9.416134412099204 17.150835495610984 9.99413456702046 0 0 0
455 38 11 0.06 9.555273475076573 16.45896762132884 10.825809357605513 0 0 0
168 14 11 0.06 12.895434420079052 16.63502836763498 12.247866906835261 0 0 0
158 14 20 -0.5 15.27871792517369 16.007457153473066 11.848518097475996 0 0 0
192 16 11 0.06 18.681848477255016 16.343039786427244 11.99768975947531 0 0 0
186 16 1 0.22 19.49037376557783 15.766149971862731 12.444123986195713 0 0 0
313 27 9 0.52 0.9992071004327508 19.059316443143903 10.638922931385746 0 0 0
315 27 19 -0.35 1.5006555674428363 19.907329044048716 11.648786887299282 0 0 0
449 38 1 0.22 4.719605269027189 17.717894222109585 10.704450461913977 0 0 0
452 38 11 0.06 4.2646861853498255 17.751381319180652 11.693608351232516 0 0 0
447 38 19 -0.35 6.0017084877414755 18.316277925112317 10.722904727292324 0 0 0
448 38 19 -0.35 8.294545776807343 18.010753376296332 10.100789229341938 0 0 0
751 72 26 -0.39 9.552205793035492 18.549817136342774 12.19306455124038 0 0 0
249 21 11 0.06 13.380888209727111 0.02213662218112944 11.560932041422795 0 1 0
245 21 1 0.22 14.092026741967382 19.21051888259943 11.462029717698277 0 0 0
248 21 11 0.06 13.621856651769255 18.515420389963992 10.774696490150268 0 0 0
247 21 11 0.06 14.972591138748465 19.613160448031156 10.965330976568243 0 0 0
242 21 20 -0.5 16.5077700801778 18.142206774563288 12.270958088204836 0 0 0
314 27 20 -0.5 19.922606104349743 18.482230462958245 10.776204958090371 -1 0 0
49 5 9 0.52 2.8381281905604743 2.4582966683817835 12.714040554986763 0 0 0
50 5 20 -0.5 3.4049514837765416 2.3844175052720296 13.801808561821522 0 0 0
56 5 11 0.06 3.8583119157034607 0.09598358567142384 12.45800161792645 0 0 0
13 2 9 0.52 10.47683929665086 1.7863949849058187 13.357091169303848 0 0 0
16 2 19 -0.35 10.745297943645085 1.4703320584635982 14.716167550111 0 0 0
298 25 11 0.06 13.641448398538014 1.1755183740813584 14.078812266842636 0 0 0
294 25 1 0.22 14.52828172079126 1.4658080106981473 14.643484308918309 0 0 0
299 25 11 0.06 15.283929118410581 0.7279467121350844 14.392209380333146 0 0 0
52 5 19 -0.35 1.635588699544785 3.1789313472466625 12.582458053933467 0 0 0
54 5 1 0.22 1.6032336925508315 4.204775939357602 13.547615568614027 0 0 0
59 5 11 0.06 1.4774105462414724 3.7905075491427844 14.546892474816016 0 0 0
60 5 11 0.06 2.5132912689637847 4.800504253074154 13.52458341103691 0 0 0
58 5 11 0.06 0.7819849625011429 4.889104179540343 13.367563863647 0 0 0
663 58 19 -0.35 4.823436493015941 4.198753505898502 12.783711817532057 0 0 0
666 58 2 0.22 6.18679978258656 3.827357781012037 12.694145301067264 0 0 0
668 58 11 0.06 6.7186412291975 3.0564394062850497 13.245138222831766 0 0 0
667 58 11 0.06 6.534729568713385 4.78347540129627 13.085730864567514 0 0 0
14 2 20 -0.5 9.872873383814815 2.823785218790235 13.093778706277103 0 0 0
95 8 11 0.06 9.11321004226033 4.415170240596801 14.862651353530884 0 0 0
292 25 19 -0.35 15.073533020611952 2.751921485450368 14.426175807958321 0 0 0
291 25 19 -0.35 17.21839279027938 3.856141106405673 14.679960368934852 0 0 0
293 25 1 0.22 18.586530767367883 3.50747877899017 14.82830400105484 0 0 0
296 25 11 0.06 19.01223072761258 3.197488481185744 13.874697510899837 0 0 0
285 24 11 0.06 9.702737430002873 6.66579239415034 13.522137569387532 0 0 0
281 24 1 0.22 9.018454467139385 7.251582154894604 12.908432004113848 0 0 0
284 24 11 0.06 8.047817896510674 6.7722542328091855 13.014854540942778 0 0 0
362 31 20 -0.5 12.627938209516417 5.6571292774516815 14.42086895966202 0 0 0
519 44 19 -0.35 16.481411830312727 5.210465176031959 12.713467662848338 0 0 0
525 44 11 0.06 17.917453568048067 6.704063603778228 12.636134925455435 0 0 0
130 11 11 0.06 2.360840188360923 9.325764914927488 13.551081382198085 0 0 0
131 11 11 0.06 4.080135987349548 9.151862861304611 13.363410247641914 0 0 0
126 11 1 0.22 3.3013977948186333 9.874173512722374 13.592780038235656 0 0 0
692 61 20 -0.5 5.702934566818831 7.991228921598599 14.86753212653572 0 0 0
120 10 11 0.06 7.185248844347622 9.887872130306818 12.725127848199483 0 0 0
283 24 11 0.06 8.94164014972749 8.232497503048393 13.375208046084346 0 0 0
227 19 11 0.06 11.335647458009042 8.355238755619064 12.67035818029111 0 0 0
228 19 11 0.06 13.082444415483218 8.287545462357727 12.761530843758896 0 0 0
607 52 11 0.06 16.683431242657868 8.864641603552693 12.84360657395461 0 0 0
608 52 11 0.06 16.861680162146307 9.52039844408371 14.395648679198423 0 0 0
606 52 2 0.22 17.438651413214092 9.034966502240763 13.617746245256846 0 0 0
603 52 19 -0.35 17.85257950066582 8.345819723356772 14.783391996597873 0 0 0
605 52 2 0.22 18.605957037706577 9.96079734674695 13.197361839912288 0 0 0
604 52 19 -0.35 19.656185463211365 9.7287851488603 14.12371061567453 0 0 0
609 52 11 0.06 19.405597946951772 9.447166662715073 12.663607161927116 0 0 0
342 29 1 0.22 0.9316863542475702 12.217098959473022 12.802798850331385 0 0 0
346 29 11 0.06 1.2241618627103634 11.762263730010547 13.74613885582366 0 0 0
124 11 19 -0.35 3.2888766759808306 10.91253156244409 12.627632709305615 0 0 0
121 11 9 0.52 3.906081034696087 12.135020237968739 13.007094691584838 0 0 0
132 11 11 0.06 3.4325877685647153 10.194329689048045 14.62464775824073 0 0 0
112 10 19 -0.35 5.92250964959412 10.564406013191036 14.28712753486575 0 0 0
114 10 1 0.22 6.493363457376012 10.68262183040056 12.989647603546453 0 0 0
119 10 11 0.06 6.967949986698388 11.649846482971704 12.853505575782327 0 0 0
510 43 1 0.22 9.683089029491173 11.95007132482133 12.949155836571261 0 0 0
516 43 11 0.06 9.328832025881734 11.007145841337717 13.358063369417435 0 0 0
515 43 11 0.06 10.723786242570895 12.054367920656276 13.237613196923704 0 0 0
358 30 11 0.06 14.507447679698034 10.244544939549375 14.823203130558555 0 0 0
611 53 9 0.52 14.418430718452326 12.492971730323044 13.589301994501167 0 0 0
612 53 20 -0.5 14.635381025837784 11.649448879834662 12.727797347560212 0 0 0
610 52 11 0.06 18.275640695895646 10.749857584686017 12.516563357524698 0 0 0
122 11 20 -0.5 3.7424687678243904 12.62000451526528 14.126363254221063 0 0 0
127 11 11 0.06 5.748426964403096 13.801355937038563 13.218294920478128 0 0 0
505 43 9 0.52 8.255449063539784 13.04924757183687 14.543108424251727 0 0 0
507 43 19 -0.35 7.555596185626206 14.234794416403133 14.885877878837157 0 0 0
508 43 19 -0.35 8.945151897869676 13.108210067538002 13.303895558891252 0 0 0
160 14 19 -0.35 13.658255354585354 14.799419815216536 12.940824931418248 0 0 0
613 53 19 -0.35 13.150763745628701 12.675990750751351 14.157341142007114 0 0 0
619 53 11 0.06 15.34569511688795 14.493127767903648 14.759609981093238 0 0 0
614 53 19 -0.35 15.453193771185472 13.22092549190622 14.199890264939613 0 0 0
181 16 9 0.52 18.745032466837102 14.425203615659962 14.251101301977124 0 0 0
182 16 20 -0.5 17.882326906770693 13.870724206319435 13.572102003842437 0 0 0
347 29 11 0.06 19.923944578818663 12.572080474351578 12.956216469258429 -1 0 0
325 28 9 0.52 3.358327141695802 16.223786208307807 14.83160296867217 0 0 0
327 28 19 -0.35 3.834835465950618 17.45474770069808 14.343420903834609 0 0 0
326 28 20 -0.5 3.6844010235514526 15.164979695274509 14.302721777132984 0 0 0
329 28 1 0.22 5.242634088338654 17.513630116917064 14.433673409537773 0 0 0
332 28 11 0.06 5.700870479196208 16.99085519489845 13.593807760596851 0 0 0
754 72 26 -0.39 8.630984002460243 16.7808160834244 13.127416027790117 0 0 0
166 14 11 0.06 11.910558550600252 15.819222893701195 13.386646694834404 0 0 0
162 14 1 0.22 12.953081879108009 16.015614428401502 13.132969092658103 0 0 0
167 14 11 0.06 13.394378359360559 16.613914459905168 13.930445224085188 0 0 0
246 21 1 0.22 16.923747504371846 16.933883666745622 14.500460489195962 0 0 0
251 21 11 0.06 16.901478102813723 16.16246414383847 13.741671925985264 0 0 0
184 16 19 -0.35 19.342906038781184 15.639249881516406 13.841984016330363 0 0 0
252 21 11 0.06 17.813110382005796 17.54700135415601 14.35980941854478 0 0 0
321 27 11 0.06 1.6901342405376403 19.96477361309159 13.705040777659747 0 0 0
317 27 1 0.22 1.2320166305434077 19.36104625216924 12.921975678057743 0 0 0
319 27 11 0.06 0.16027063257823004 19.3227737065609 13.117988523741536 0 0 0
320 27 11 0.06 1.6303663318315968 18.350415342399952 13.006668433533635 0 0 0
756 72 26 -0.39 7.428479736341353 18.591252878709778 12.756328750482744 0 0 0
333 28 11 0.06 5.557639561420638 18.555036122488865 14.411588186185716 0 0 0
753 72 26 -0.39 8.887541316550994 19.79535691840233 13.852593946358317 0 0 0
750 72 27 1.34 8.760445026792592 18.289522113422265 13.501447479756383 0 0 0
752 72 26 -0.39 7.9683730036501315 18.03538563510145 14.821255469893492 0 0 0
755 72 26 -0.39 10.10200814672922 18.006859349440735 14.243092191612934 0 0 0
243 21 19 -0.35 14.281539377547732 18.652187334527294 12.752280407095999 0 0 0
244 21 19 -0.35 15.75906142712349 17.706360962105574 14.394645942359253 0 0 0
241 21 9 0.52 15.578636750685451 18.17642015298914 13.076915763596261 0 0 0
542 46 20 -0.5 6.3352907988518785 1.1807330287978604 15.291109426295582 0 0 0
543 46 19 -0.35 5.087417207615654 1.1622036635820394 17.22964472754495 0 0 0
541 46 9 0.52 6.257658415873012 1.4111273446814785 16.49584368325728 0 0 0
544 46 19 -0.35 7.373913037408897 1.7655637392989674 17.269467635586008 0 0 0
18 2 1 0.22 9.634886515611075 1.618467534813223 15.593986359127971 0 0 0
22 2 11 0.06 9.445063524519249 0.6827752216043332 16.12076629734168 0 0 0
24 2 11 0.06 8.710640366882274 1.939016942147869 15.11901036470524 0 0 0
23 2 11 0.06 9.821017883688478 2.3617160016743495 16.364477856264035 0 0 0
300 25 11 0.06 14.211237301862138 1.4012907943252182 15.676761963246348 0 0 0
290 25 20 -0.5 16.442674004358462 2.3619315175310804 16.244807308952744 0 0 0
92 8 11 0.06 3.443607563004343 2.7814616656403928 16.269383827011506 0 0 0
89 8 1 0.22 3.829017793887845 3.7587165448440185 16.559251006544624 0 0 0
91 8 11 0.06 3.5545231293739064 4.452590018461098 15.768781222509123 0 0 0
93 8 11 0.06 3.2837311096665345 4.061417588588379 17.45288026364388 0 0 0
85 8 9 0.52 6.0378516771987005 4.494225009742945 16.01119093200153 0 0 0
87 8 19 -0.35 5.219172671229335 3.6899109028300283 16.83762728300551 0 0 0
88 8 19 -0.35 7.235519199568324 3.9136573059101045 15.531360109015592 0 0 0
90 8 1 0.22 8.380436289697407 4.743592574897234 15.593549540498984 0 0 0
94 8 11 0.06 8.862042652022717 4.661191672335305 16.5654314934431 0 0 0
370 31 11 0.06 12.28222311182879 2.6276112292944753 16.685637664258678 0 0 0
364 31 19 -0.35 11.733158396617059 4.562416487401522 16.237388817795914 0 0 0
371 31 11 0.06 12.634615942194625 3.2394461382345665 15.054709359094801 0 0 0
366 31 1 0.22 12.618333390064727 3.4845526492624086 16.10963710395982 0 0 0
372 31 11 0.06 13.636147520641558 3.7131780894926467 16.436667840624136 0 0 0
289 25 9 0.52 16.299506635563024 2.883953313398253 15.138802285594819 0 0 0
297 25 11 0.06 19.13190664780641 4.3841793799483755 15.175024014140394 0 0 0
295 25 11 0.06 18.809311306035394 2.710694020039929 15.536043026824647 0 0 0
700 61 11 0.06 1.977899754288632 7.1377475013817655 15.406213926109098 0 0 0
694 61 19 -0.35 3.6748956280140703 6.929335265979119 15.161991129958214 0 0 0
699 61 11 0.06 2.332815794474029 6.312200879422046 16.907936981710545 0 0 0
695 61 2 0.22 2.722869570500258 7.0389654702455795 16.19545616539909 0 0 0
86 8 20 -0.5 5.739184192530954 5.6622448000521635 15.774676030872014 0 0 0
96 8 11 0.06 8.19659460032362 5.791463464934343 15.364043827257694 0 0 0
198 17 1 0.22 10.061281043508359 7.201278479542103 17.35997295570246 0 0 0
204 17 11 0.06 10.24226378052274 6.820513546830493 16.362954709104304 0 0 0
361 31 9 0.52 12.326869213451397 5.668942357336437 15.61280980372787 0 0 0
363 31 19 -0.35 12.73724555798382 6.703514462692109 16.45748202794619 0 0 0
677 59 11 0.06 15.967637129873154 6.880500514801541 15.520013319920295 0 0 0
678 59 11 0.06 15.269433984644794 5.2921895924346725 15.370028270976903 0 0 0
673 59 19 -0.35 17.382730721161604 6.075950203503925 15.816417556713219 0 0 0
675 59 2 0.22 15.687878980128056 5.867274987691285 17.459136218812624 0 0 0
676 59 2 0.22 15.990149351110578 5.87738629044104 15.944608292646661 0 0 0
671 59 9 0.52 17.890721284529068 5.952029152768404 17.121208221279318 0 0 0
672 59 20 -0.5 19.07954654731536 6.122822816127546 17.381491376729787 0 0 0
698 61 11 0.06 2.0581143940633186 8.797748928256592 17.272976101859786 0 0 0
691 61 9 0.52 4.631940835462078 7.912503527821002 15.462619865284417 0 0 0
696 61 2 0.22 2.989580793829751 8.381284465493591 16.89127418040246 0 0 0
693 61 19 -0.35 4.2853842844929515 8.786669434145963 16.505684003522386 0 0 0
113 10 1 0.22 6.933111672598517 9.267976103001052 17.48258092267514 0 0 0
117 10 11 0.06 6.693847938934009 8.267999915341056 17.141285256987942 0 0 0
110 10 20 -0.5 7.973166967247948 9.823202292252335 15.091660692329587 0 0 0
368 31 11 0.06 11.969743608184405 8.080776221407259 15.071997718023965 0 0 0
202 17 11 0.06 10.244154775523256 8.272781757630016 17.3186636972243 0 0 0
367 31 11 0.06 13.715084318464116 7.897087834230528 15.145882204934164 0 0 0
365 31 1 0.22 12.809372602208681 7.900722618856117 15.741553604849575 0 0 0
369 31 11 0.06 12.827528017770138 8.701086108952788 16.46722592657239 0 0 0
349 30 9 0.52 16.44565745524247 9.373585856683023 17.355660138903733 0 0 0
352 30 19 -0.35 15.402591109757465 9.240623946081623 16.403789177401606 0 0 0
601 52 9 0.52 19.15505227827381 8.796769390006038 15.056474302549145 0 0 0
602 52 20 -0.5 19.764486213481305 8.473717341348696 16.07383328272163 0 0 0
425 36 1 0.22 1.3137843768912276 11.513618943783754 16.644360053121947 0 0 0
428 36 11 0.06 1.0130261677988799 12.430912615027081 16.144016534626335 0 0 0
429 36 11 0.06 0.9185181134972531 10.690328697164189 16.05477336262968 0 0 0
423 36 19 -0.35 2.727264186634898 11.405957419689434 16.707884477679695 0 0 0
111 10 19 -0.35 6.35179706686563 10.266105475659888 16.66042087405242 0 0 0
109 10 9 0.52 6.822757670826902 10.190095739761155 15.324449078328412 0 0 0
465 39 11 0.06 9.992496195832455 10.701751455008559 16.783544627144586 0 0 0
506 43 20 -0.5 8.57764932219381 12.228997853833144 15.401070383171035 0 0 0
461 39 1 0.22 10.870055400968958 11.329704407866036 16.640088624356643 0 0 0
463 39 11 0.06 11.096971495436437 11.284673133378545 15.58288330189639 0 0 0
464 39 11 0.06 11.695053392459261 10.825149051304654 17.138245867934376 0 0 0
354 30 1 0.22 14.894769849994457 10.434069271159297 15.823710690494604 0 0 0
359 30 11 0.06 14.084097521146248 10.85515361510118 16.40186922921079 0 0 0
360 30 11 0.06 15.605049932172413 11.233653745630049 15.7083463708962 0 0 0
350 30 20 -0.5 17.269347299750475 10.284868763007733 17.307958880454574 0 0 0
187 16 11 0.06 18.534423790827145 12.012719016946223 15.109376302532787 0 0 0
188 16 11 0.06 18.60533422677693 12.420613466869275 16.827434603737597 0 0 0
335 28 11 0.06 1.3412300741580796 14.794175717220854 15.08389589038256 0 0 0
336 28 11 0.06 1.3352616198032612 14.809709824076242 16.83608498473286 0 0 0
749 71 26 -0.39 3.7528423726672493 14.372642864506217 17.297802437091015 0 0 0
509 43 1 0.22 6.654606049888925 14.185491849995593 15.979056589913895 0 0 0
513 43 11 0.06 5.6390458536883035 14.380150987144239 15.646805717585085 0 0 0
511 43 11 0.06 6.611031882618966 13.25515908533693 16.54250999395812 0 0 0
457 39 9 0.52 10.426171392025642 13.724357328060796 16.379282735869726 0 0 0
458 39 20 -0.5 10.588892493901593 13.691346045484643 15.160775918375288 0 0 0
459 39 19 -0.35 10.72163746234309 12.620327877511055 17.223538089782686 0 0 0
460 39 19 -0.35 10.097371745372513 14.939624833349239 17.029736758522198 0 0 0
617 53 11 0.06 12.913947336011873 14.589010566774522 15.314536067239674 0 0 0
615 53 2 0.22 14.889227893427229 13.73133490560704 15.391309225606967 0 0 0
616 53 2 0.22 13.371673780904324 13.623955484969555 15.177075031159967 0 0 0
618 53 11 0.06 12.888985606927823 12.993388393697966 15.912519841650358 0 0 0
189 16 11 0.06 17.309158277037206 13.048317905492155 15.8617910270592 0 0 0
620 53 11 0.06 15.094070598330775 14.063517349499225 16.41130620414829 0 0 0
183 16 19 -0.35 19.0318052373074 13.983672270237415 15.560298884003391 0 0 0
185 16 1 0.22 18.352365087006085 12.797540194830953 15.84381230141718 0 0 0
328 28 19 -0.35 2.5940065988484604 16.23195192539893 16.02059507058047 0 0 0
330 28 1 0.22 1.41358185027896 15.447381759790414 15.957908418017125 0 0 0
334 28 11 0.06 0.5395395576651881 16.096233805372407 15.986425731393613 0 0 0
331 28 11 0.06 5.640600205107442 17.082043474877405 15.355142496256184 0 0 0
512 43 11 0.06 6.9043593885875385 14.997352570609777 16.6602661862694 0 0 0
468 39 11 0.06 9.385640875510335 15.874589207678921 15.33018996474688 0 0 0
466 39 11 0.06 9.789672132308507 16.95465358056738 16.63060400822125 0 0 0
462 39 1 0.22 10.090078443490269 16.0349839679271 16.13681653698151 0 0 0
467 39 11 0.06 11.067991564955848 16.224806292119315 15.705222735561806 0 0 0
649 56 11 0.06 12.974393502597431 15.832153047383962 17.476466154827932 0 0 0
250 21 11 0.06 16.986359162798504 16.448075815052693 15.47445828811617 0 0 0
143 12 11 0.06 3.177943822711235 18.200612481004015 17.445529949768652 0 0 0
383 32 11 0.06 13.83444854142594 18.95258815874878 15.38208741252758 0 0 0
376 32 19 -0.35 14.94079302035921 19.50319862078291 17.122942698896217 0 0 0
378 32 1 0.22 13.995389921487334 18.704281560267233 16.425281676540415 0 0 0
382 32 11 0.06 13.000207038082799 18.81659263892375 16.85535073425792 0 0 0
384 32 11 0.06 14.305404922666424 17.664914161223262 16.429187477138523 0 0 0
373 32 9 0.52 16.283926735928222 19.120255330749266 16.878694106895047 0 0 0
374 32 20 -0.5 16.85323183440608 19.429610114739425 15.835687731773044 0 0 0
379 32 11 0.06 18.812487243939344 18.316981159245927 16.917004976528204 0 0 0
547 46 11 0.06 4.6888103539438575 1.8144253083439252 18.39871783178959 0 0 0
545 46 2 0.22 6.90221661277567 1.7505135875176663 18.60079018072117 0 0 0
546 46 2 0.22 5.497784798504901 1.1088081252608895 18.582118872289698 0 0 0
548 46 11 0.06 5.246483023829066 0.666168237643307 19.547499484281936 0 0 0
550 46 11 0.06 7.655358905091504 1.1193709581653648 19.076693498676665 0 0 0
705 62 2 0.22 11.924371352945522 0.6174437907322251 18.85107793440624 0 0 0
706 62 2 0.22 11.379617007300665 1.937229121447719 19.41850622417782 0 0 0
708 62 11 0.06 10.77916075396511 2.461987592194232 18.675697572781715 0 0 0
709 62 11 0.06 12.43454765037329 0.04054172785088489 19.622191841358724 0 0 0
710 62 11 0.06 11.108285009841774 19.99054009154233 18.492476447921877 0 -1 0
701 62 9 0.52 13.51755056071551 2.185609769044583 18.812658966917432 0 0 0
704 62 19 -0.35 13.288037674927423 0.8251145307591232 18.54918731982807 0 0 0
549 46 11 0.06 6.9054092088238965 2.700778531203656 19.132635122679975 0 0 0
703 62 19 -0.35 12.40019352267497 2.90286709220002 19.27269736152624 0 0 0
702 62 20 -0.5 14.637099723060576 2.686979759481069 18.744114050869452 0 0 0
680 59 11 0.06 15.41724595439418 4.877677304252912 17.827708858734727 0 0 0
199 17 11 0.06 6.617877103247496 5.084546747445676 18.368552289704 0 0 0
195 17 19 -0.35 7.085619789249149 6.852204049874592 19.39269986042781 0 0 0
197 17 1 0.22 6.376250656429009 5.6336330114688336 19.277419291431855 0 0 0
201 17 11 0.06 5.301232584922317 5.811125556922989 19.258172738967215 0 0 0
193 17 9 0.52 8.4315938475952 6.664755197668173 19.022806589593298 0 0 0
194 17 20 -0.5 9.1427392594339 5.937808861816615 19.713486063476687 0 0 0
196 17 19 -0.35 8.718219491448524 6.90116516414997 17.661118270771695 0 0 0
203 17 11 0.06 10.793612115187658 6.751208539134381 18.027418280065817 0 0 0
679 59 11 0.06 14.876446061958175 6.541082727666105 17.73945298871502 0 0 0
674 59 19 -0.35 16.92710709948496 5.750619237563969 18.1231387425663 0 0 0
697 61 11 0.06 3.6568189643684725 8.260550334774539 17.74473631250126 0 0 0
116 10 11 0.06 6.567603354435336 9.30070121877554 18.502717348407597 0 0 0
115 10 11 0.06 8.01216171531012 9.372119465262365 17.54739333904792 0 0 0
76 7 19 -0.35 9.573572697755447 9.654624701134393 19.477955162833773 0 0 0
78 7 1 0.22 10.712156856810378 9.019055233270914 0.011600759838430008 0 0 1
83 7 11 0.06 11.541116067742202 9.05457130088033 19.3064364729239 0 0 0
351 30 19 -0.35 16.705447905440778 8.240022588123924 18.153572090300816 0 0 0
355 30 11 0.06 17.120417301470116 9.442465598246553 19.782684865343775 0 0 0
353 30 1 0.22 17.518919248176978 8.577758735044146 19.253697016263214 0 0 0
356 30 11 0.06 17.568518388395336 7.745757907134874 19.955860790838152 0 0 0
357 30 11 0.06 18.535920332810917 8.811536766387484 18.93888496358027 0 0 0
427 36 11 0.06 0.7972189018532142 11.508904047252141 17.60275423120504 0 0 0
421 36 9 0.52 3.252509444084499 11.33114618308221 18.022274941595853 0 0 0
422 36 20 -0.5 2.7426134379114973 10.595266691746641 18.868545444952776 0 0 0
424 36 19 -0.35 4.39052814526271 12.135830078442675 18.29101399865685 0 0 0
432 36 11 0.06 5.039550098765728 10.773805284861362 19.818515627977764 0 0 0
426 36 1 0.22 5.225503322548221 11.745517022015395 19.371466124964225 0 0 0
430 36 11 0.06 6.249668151385204 11.725584738983535 19.01227931291437 0 0 0
73 7 9 0.52 9.824957729960065 11.026706561084794 19.256275976440552 0 0 0
75 7 19 -0.35 8.775034170820735 11.790396850036224 18.673309851463447 0 0 0
74 7 20 -0.5 10.95426810210295 11.48022843872706 19.433888396843635 0 0 0
308 26 11 0.06 13.669680029266889 12.001648217280142 19.70244021882758 0 0 0
307 26 11 0.06 14.913058148352835 11.251443669121882 18.72499993109571 0 0 0
305 26 1 0.22 14.46576588411063 12.208556517273376 18.99267035147372 0 0 0
302 26 20 -0.5 17.41179055870243 12.117683165745367 19.00096102777115 0 0 0
747 71 26 -0.39 3.4753761770395113 14.138615399464712 19.468186868580247 0 0 0
744 71 26 -0.39 5.500901398030949 14.412479502244373 18.643000827560257 0 0 0
81 7 11 0.06 7.99469723000977 13.213982580537419 19.99997247294986 0 0 0
77 7 1 0.22 8.6573098473255 13.12277684876523 19.14192066103791 0 0 0
80 7 11 0.06 8.250641043936206 13.756757910119081 18.360537330530565 0 0 0
79 7 11 0.06 9.598609917299385 13.575650535908853 19.410737856530368 0 0 0
648 56 11 0.06 11.79311705830703 14.764676773868583 19.401182160143833 0 0 0
309 26 11 0.06 13.970759598589462 12.647943554426014 18.136949994680652 0 0 0
647 56 11 0.06 13.426978404760169 14.620077602923645 19.6070130717994 0 0 0
303 26 19 -0.35 15.417611042051298 13.118018967056885 19.497717818158925 0 0 0
301 26 9 0.52 16.639717974986777 13.053252390102607 18.805842496693888 0 0 0
304 26 19 -0.35 17.04093569602546 14.193419675774516 18.06633027829775 0 0 0
306 26 1 0.22 18.164041557452528 14.873167140535584 18.609606773708766 0 0 0
311 26 11 0.06 18.631644489857457 14.39204757805733 19.46807072229155 0 0 0
312 26 11 0.06 18.939456727455358 14.979971418188262 17.85127451957974 0 0 0
745 71 26 -0.39 2.80310832730406 15.964308745203306 18.495635632493272 0 0 0
746 71 26 -0.39 4.829322206321963 16.265845909428098 17.643553514620805 0 0 0
743 71 27 1.34 4.155970470718098 15.19714751136223 18.559482205310207 0 0 0
748 71 26 -0.39 4.5617596969917455 16.02139931485815 19.81987410714101 0 0 0
139 12 11 0.06 8.045053142260047 17.091258981627035 0.1019119887308726 0 0 1
650 56 11 0.06 11.867478752908061 16.92294599294417 18.14849073759341 0 0 0
646 56 2 0.22 12.65884488506574 15.393064982600233 19.56981152376207 0 0 0
641 56 9 0.52 14.282291761997028 16.93008538305221 19.960039858635852 0 0 0
645 56 2 0.22 12.78624277872434 16.381280036903462 18.38902053753493 0 0 0
644 56 19 -0.35 13.63510043075484 17.422116561352187 18.825026478794104 0 0 0
310 26 11 0.06 17.882480249799787 15.877188878034334 18.926150659876853 0 0 0
142 12 11 0.06 3.321926873884421 19.725832214873222 18.259123109460987 0 0 0
138 12 1 0.22 3.7416852985345432 18.722386003504127 18.216858650734526 0 0 0
144 12 11 0.06 3.505911189389126 18.262756102934873 19.173338184356947 0 0 0
134 12 20 -0.5 5.852120275946532 18.288139448352034 0.020942139888354916 0 0 1
133 12 9 0.52 6.031520585654336 18.20343325026356 18.8065021750609 0 0 0
136 12 19 -0.35 5.118374073351915 18.74560786734304 17.86226979182797 0 0 0
135 12 19 -0.35 7.296638657936148 17.812474077510142 18.314939175065277 0 0 0
137 12 1 0.22 8.256116344282763 17.852098995557576 19.350908823073276 0 0 0
140 12 11 0.06 9.255271410554197 17.66459874635626 18.96478720587061 0 0 0
141 12 11 0.06 8.28593505564371 18.824785862645246 19.842094815879417 0 0 0
375 32 19 -0.35 17.023277070845012 18.560675862542592 17.940519890441237 0 0 0
377 32 1 0.22 18.394110669016115 18.856922534474645 17.767434268807108 0 0 0
380 32 11 0.06 18.55100123934564 19.923619002687737 17.602099810001064 0 0 0
381 32 11 0.06 18.96576668896708 18.572860931091032 18.650134296610094 0 0 0

Velocities

9 0 0 0
477 0 0 0
707 0 0 0
213 0 0 0
206 0 0 0
733 0 0 0
628 0 0 0
626 0 0 0
627 0 0 0
471 0 0 0
200 0 0 0
731 0 0 0
212 0 0 0
209 0 0 0
207 0 0 0
205 0 0 0
208 0 0 0
210 0 0 0
214 0 0 0
216 0 0 0
629 0 0 0
630 0 0 0
625 0 0 0
624 0 0 0
621 0 0 0
623 0 0 0
480 0 0 0
718 0 0 0
717 0 0 0
40 0 0 0
45 0 0 0
622 0 0 0
84 0 0 0
82 0 0 0
42 0 0 0
46 0 0 0
47 0 0 0
48 0 0 0
37 0 0 0
38 0 0 0
681 0 0 0
684 0 0 0
689 0 0 0
591 0 0 0
594 0 0 0
431 0 0 0
593 0 0 0
592 0 0 0
273 0 0 0
271 0 0 0
269 0 0 0
266 0 0 0
682 0 0 0
683 0 0 0
685 0 0 0
687 0 0 0
686 0 0 0
690 0 0 0
172 0 0 0
265 0 0 0
267 0 0 0
268 0 0 0
270 0 0 0
275 0 0 0
276 0 0 0
274 0 0 0
688 0 0 0
169 0 0 0
171 0 0 0
173 0 0 0
175 0 0 0
176 0 0 0
643 0 0 0
642 0 0 0
3 0 0 0
177 0 0 0
734 0 0 0
732 0 0 0
7 0 0 0
473 0 0 0
475 0 0 0
476 0 0 0
760 0 0 0
211 0 0 0
735 0 0 0
770 0 0 0
570 0 0 0
469 0 0 0
470 0 0 0
711 0 0 0
713 0 0 0
485 0 0 0
489 0 0 0
215 0 0 0
766 0 0 0
472 0 0 0
474 0 0 0
478 0 0 0
479 0 0 0
720 0 0 0
714 0 0 0
715 0 0 0
716 0 0 0
738 0 0 0
39 0 0 0
44 0 0 0
41 0 0 0
599 0 0 0
719 0 0 0
741 0 0 0
43 0 0 0
600 0 0 0
595 0 0 0
596 0 0 0
597 0 0 0
178 0 0 0
272 0 0 0
652 0 0 0
651 0 0 0
654 0 0 0
653 0 0 0
656 0 0 0
658 0 0 0
657 0 0 0
10 0 0 0
598 0 0 0
416 0 0 0
179 0 0 0
174 0 0 0
180 0 0 0
587 0 0 0
394 0 0 0
6 0 0 0
11 0 0 0
12 0 0 0
4 0 0 0
36 0 0 0
170 0 0 0
585 0 0 0
589 0 0 0
583 0 0 0
586 0 0 0
581 0 0 0
584 0 0 0
582 0 0 0
69 0 0 0
2 0 0 0
1 0 0 0
5 0 0 0
8 0 0 0
763 0 0 0
757 0 0 0
759 0 0 0
761 0 0 0
758 0 0 0
72 0 0 0
61 0 0 0
64 0 0 0
66 0 0 0
62 0 0 0
264 0 0 0
561 0 0 0
562 0 0 0
564 0 0 0
492 0 0 0
481 0 0 0
484 0 0 0
482 0 0 0
483 0 0 0
486 0 0 0
764 0 0 0
765 0 0 0
767 0 0 0
769 0 0 0
569 0 0 0
565 0 0 0
563 0 0 0
566 0 0 0
567 0 0 0
568 0 0 0
399 0 0 0
712 0 0 0
487 0 0 0
488 0 0 0
557 0 0 0
768 0 0 0
633 0 0 0
637 0 0 0
636 0 0 0
638 0 0 0
405 0 0 0
401 0 0 0
739 0 0 0
742 0 0 0
559 0 0 0
553 0 0 0
551 0 0 0
632 0 0 0
502 0 0 0
631 0 0 0
498 0 0 0
493 0 0 0
496 0 0 0
495 0 0 0
497 0 0 0
500 0 0 0
501 0 0 0
740 0 0 0
736 0 0 0
737 0 0 0
659 0 0 0
552 0 0 0
419 0 0 0
503 0 0 0
504 0 0 0
494 0 0 0
499 0 0 0
29 0 0 0
32 0 0 0
33 0 0 0
655 0 0 0
152 0 0 0
660 0 0 0
414 0 0 0
412 0 0 0
409 0 0 0
410 0 0 0
411 0 0 0
413 0 0 0
417 0 0 0
415 0 0 0
25 0 0 0
26 0 0 0
27 0 0 0
28 0 0 0
31 0 0 0
588 0 0 0
147 0 0 0
390 0 0 0
395 0 0 0
396 0 0 0
418 0 0 0
34 0 0 0
30 0 0 0
35 0 0 0
155 0 0 0
590 0 0 0
148 0 0 0
387 0 0 0
385 0 0 0
388 0 0 0
63 0 0 0
65 0 0 0
68 0 0 0
322 0 0 0
234 0 0 0
240 0 0 0
762 0 0 0
70 0 0 0
71 0 0 0
67 0 0 0
254 0 0 0
258 0 0 0
263 0 0 0
262 0 0 0
408 0 0 0
400 0 0 0
402 0 0 0
407 0 0 0
491 0 0 0
531 0 0 0
533 0 0 0
535 0 0 0
536 0 0 0
537 0 0 0
253 0 0 0
255 0 0 0
256 0 0 0
397 0 0 0
398 0 0 0
538 0 0 0
225 0 0 0
532 0 0 0
534 0 0 0
540 0 0 0
539 0 0 0
529 0 0 0
530 0 0 0
261 0 0 0
558 0 0 0
571 0 0 0
572 0 0 0
573 0 0 0
577 0 0 0
635 0 0 0
639 0 0 0
403 0 0 0
404 0 0 0
555 0 0 0
556 0 0 0
560 0 0 0
439 0 0 0
576 0 0 0
578 0 0 0
634 0 0 0
98 0 0 0
640 0 0 0
280 0 0 0
282 0 0 0
286 0 0 0
288 0 0 0
443 0 0 0
554 0 0 0
433 0 0 0
440 0 0 0
435 0 0 0
437 0 0 0
420 0 0 0
102 0 0 0
108 0 0 0
287 0 0 0
727 0 0 0
149 0 0 0
151 0 0 0
153 0 0 0
436 0 0 0
106 0 0 0
233 0 0 0
237 0 0 0
236 0 0 0
235 0 0 0
146 0 0 0
145 0 0 0
165 0 0 0
343 0 0 0
232 0 0 0
345 0 0 0
231 0 0 0
229 0 0 0
230 0 0 0
456 0 0 0
150 0 0 0
156 0 0 0
393 0 0 0
722 0 0 0
386 0 0 0
323 0 0 0
316 0 0 0
318 0 0 0
324 0 0 0
238 0 0 0
453 0 0 0
239 0 0 0
406 0 0 0
154 0 0 0
454 0 0 0
490 0 0 0
389 0 0 0
391 0 0 0
392 0 0 0
259 0 0 0
53 0 0 0
57 0 0 0
51 0 0 0
55 0 0 0
15 0 0 0
17 0 0 0
19 0 0 0
20 0 0 0
21 0 0 0
522 0 0 0
526 0 0 0
527 0 0 0
528 0 0 0
257 0 0 0
661 0 0 0
662 0 0 0
664 0 0 0
670 0 0 0
669 0 0 0
665 0 0 0
221 0 0 0
223 0 0 0
520 0 0 0
517 0 0 0
518 0 0 0
260 0 0 0
574 0 0 0
575 0 0 0
579 0 0 0
105 0 0 0
224 0 0 0
279 0 0 0
217 0 0 0
218 0 0 0
219 0 0 0
524 0 0 0
523 0 0 0
521 0 0 0
580 0 0 0
97 0 0 0
99 0 0 0
101 0 0 0
104 0 0 0
103 0 0 0
277 0 0 0
278 0 0 0
220 0 0 0
222 0 0 0
226 0 0 0
444 0 0 0
438 0 0 0
434 0 0 0
441 0 0 0
348 0 0 0
100 0 0 0
107 0 0 0
118 0 0 0
514 0 0 0
728 0 0 0
442 0 0 0
337 0 0 0
338 0 0 0
340 0 0 0
339 0 0 0
123 0 0 0
129 0 0 0
128 0 0 0
125 0 0 0
724 0 0 0
725 0 0 0
726 0 0 0
729 0 0 0
730 0 0 0
157 0 0 0
721 0 0 0
723 0 0 0
159 0 0 0
161 0 0 0
163 0 0 0
164 0 0 0
191 0 0 0
341 0 0 0
344 0 0 0
190 0 0 0
451 0 0 0
445 0 0 0
446 0 0 0
450 0 0 0
455 0 0 0
168 0 0 0
158 0 0 0
192 0 0 0
186 0 0 0
313 0 0 0
315 0 0 0
449 0 0 0
452 0 0 0
447 0 0 0
448 0 0 0
751 0 0 0
249 0 0 0
245 0 0 0
248 0 0 0
247 0 0 0
242 0 0 0
314 0 0 0
49 0 0 0
50 0 0 0
56 0 0 0
13 0 0 0
16 0 0 0
298 0 0 0
294 0 0 0
299 0 0 0
52 0 0 0
54 0 0 0
59 0 0 0
60 0 0 0
58 0 0 0
663 0 0 0
666 0 0 0
668 0 0 0
667 0 0 0
14 0 0 0
95 0 0 0
292 0 0 0
291 0 0 0
293 0 0 0
296 0 0 0
285 0 0 0
281 0 0 0
284 0 0 0
362 0 0 0
519 0 0 0
525 0 0 0
130 0 0 0
131 0 0 0
126 0 0 0
692 0 0 0
120 0 0 0
283 0 0 0
227 0 0 0
228 0 0 0
607 0 0 0
608 0 0 0
606 0 0 0
603 0 0 0
605 0 0 0
604 0 0 0
609 0 0 0
342 0 0 0
346 0 0 0
124 0 0 0
121 0 0 0
132 0 0 0
112 0 0 0
114 0 0 0
119 0 0 0
510 0 0 0
516 0 0 0
515 0 0 0
358 0 0 0
611 0 0 0
612 0 0 0
610 0 0 0
122 0 0 0
127 0 0 0
505 0 0 0
507 0 0 0
508 0 0 0
160 0 0 0
613 0 0 0
619 0 0 0
614 0 0 0
181 0 0 0
182 0 0 0
347 0 0 0
325 0 0 0
327 0 0 0
326 0 0 0
329 0 0 0
332 0 0 0
754 0 0 0
166 0 0 0
162 0 0 0
167 0 0 0
246 0 0 0
251 0 0 0
184 0 0 0
252 0 0 0
321 0 0 0
317 0 0 0
319 0 0 0
320 0 0 0
756 0 0 0
333 0 0 0
753 0 0 0
750 0 0 0
752 0 0 0
755 0 0 0
243 0 0 0
244 0 0 0
241 0 0 0
542 0 0 0
543 0 0 0
541 0 0 0
544 0 0 0
18 0 0 0
22 0 0 0
24 0 0 0
23 0 0 0
300 0 0 0
290 0 0 0
92 0 0 0
89 0 0 0
91 0 0 0
93 0 0 0
85 0 0 0
87 0 0 0
88 0 0 0
90 0 0 0
94 0 0 0
370 0 0 0
364 0 0 0
371 0 0 0
366 0 0 0
372 0 0 0
289 0 0 0
297 0 0 0
295 0 0 0
700 0 0 0
694 0 0 0
699 0 0 0
695 0 0 0
86 0 0 0
96 0 0 0
198 0 0 0
204 0 0 0
361 0 0 0
363 0 0 0
677 0 0 0
678 0 0 0
673 0 0 0
675 0 0 0
676 0 0 0
671 0 0 0
672 0 0 0
698 0 0 0
691 0 0 0
696 0 0 0
693 0 0 0
113 0 0 0
117 0 0 0
110 0 0 0
368 0 0 0
202 0 0 0
367 0 0 0
365 0 0 0
369 0 0 0
349 0 0 0
352 0 0 0
601 0 0 0
602 0 0 0
425 0 0 0
428 0 0 0
429 0 0 0
423 0 0 0
111 0 0 0
109 0 0 0
465 0 0 0
506 0 0 0
461 0 0 0
463 0 0 0
464 0 0 0
354 0 0 0
359 0 0 0
360 0 0 0
350 0 0 0
187 0 0 0
188 0 0 0
335 0 0 0
336 0 0 0
749 0 0 0
509 0 0 0
513 0 0 0
511 0 0 0
457 0 0 0
458 0 0 0
459 0 0 0
460 0 0 0
617 0 0 0
615 0 0 0
616 0 0 0
618 0 0 0
189 0 0 0
620 0 0 0
183 0 0 0
185 0 0 0
328 0 0 0
330 0 0 0
334 0 0 0
331 0 0 0
512 0 0 0
468 0 0 0
466 0 0 0
462 0 0 0
467 0 0 0
649 0 0 0
250 0 0 0
143 0 0 0
383 0 0 0
376 0 0 0
378 0 0 0
382 0 0 0
384 0 0 0
373 0 0 0
374 0 0 0
379 0 0 0
547 0 0 0
545 0 0 0
546 0 0 0
548 0 0 0
550 0 0 0
705 0 0 0
706 0 0 0
708 0 0 0
709 0 0 0
710 0 0 0
701 0 0 0
704 0 0 0
549 0 0 0
703 0 0 0
702 0 0 0
680 0 0 0
199 0 0 0
195 0 0 0
197 0 0 0
201 0 0 0
193 0 0 0
194 0 0 0
196 0 0 0
203 0 0 0
679 0 0 0
674 0 0 0
697 0 0 0
116 0 0 0
115 0 0 0
76 0 0 0
78 0 0 0
83 0 0 0
351 0 0 0
355 0 0 0
353 0 0 0
356 0 0 0
357 0 0 0
427 0 0 0
421 0 0 0
422 0 0 0
424 0 0 0
432 0 0 0
426 0 0 0
430 0 0 0
73 0 0 0
75 0 0 0
74 0 0 0
308 0 0 0
307 0 0 0
305 0 0 0
302 0 0 0
747 0 0 0
744 0 0 0
81 0 0 0
77 0 0 0
80 0 0 0
79 0 0 0
648 0 0 0
309 0 0 0
647 0 0 0
303 0 0 0
301 0 0 0
304 0 0 0
306 0 0 0
311 0 0 0
312 0 0 0
745 0 0 0
746 0 0 0
743 0 0 0
748 0 0 0
139 0 0 0
650 0 0 0
646 0 0 0
641 0 0 0
645 0 0 0
644 0 0 0
310 0 0 0
142 0 0 0
138 0 0 0
144 0 0 0
134 0 0 0
133 0 0 0
136 0 0 0
135 0 0 0
137 0 0 0
140 0 0 0
141 0 0 0
375 0 0 0
377 0 0 0
380 0 0 0
381 0 0 0

Bonds

1 4 626 627
2 4 626 628
3 7 471 473
4 4 209 211
5 4 209 212
6 4 209 213
7 7 207 209
8 8 205 206
9 7 205 207
10 7 205 208
11 7 208 210
12 4 210 214
13 4 210 215
14 4 210 216
15 1 625 626
16 4 625 629
17 4 625 630
18 7 624 625
19 8 621 622
20 7 621 623
21 7 621 624
22 7 623 626
23 7 40 42
24 4 42 46
25 4 42 47
26 4 42 48
27 8 37 38
28 7 37 39
29 7 37 40
30 8 681 682
31 7 681 683
32 7 681 684
33 7 684 685
34 8 591 592
35 7 591 593
36 7 591 594
37 7 594 595
38 7 593 596
39 4 269 271
40 4 269 272
41 4 269 273
42 7 683 686
43 1 685 686
44 4 685 689
45 4 685 690
46 4 686 687
47 4 686 688
48 7 172 174
49 8 265 266
50 7 265 267
51 7 265 268
52 7 267 269
53 7 268 270
54 4 270 274
55 4 270 275
56 4 270 276
57 8 169 170
58 7 169 171
59 7 169 172
60 7 171 173
61 4 173 175
62 4 173 176
63 4 173 177
64 7 643 646
65 7 3 5
66 4 473 475
67 4 473 476
68 4 473 477
69 8 469 470
70 7 469 471
71 7 469 472
72 8 711 712
73 7 711 713
74 7 711 714
75 7 713 716
76 4 485 487
77 4 485 488
78 4 485 489
79 7 472 474
80 4 474 478
81 4 474 479
82 4 474 480
83 7 714 715
84 1 715 716
85 4 715 719
86 4 715 720
87 4 716 717
88 4 716 718
89 7 39 41
90 4 41 43
91 4 41 44
92 4 41 45
93 1 595 596
94 4 595 599
95 4 595 600
96 4 596 597
97 4 596 598
98 8 651 652
99 7 651 653
100 7 651 654
101 7 654 655
102 7 653 656
103 4 656 657
104 4 656 658
105 4 174 178
106 4 174 179
107 4 174 180
108 4 6 10
109 4 6 11
110 4 6 12
111 7 4 6
112 1 585 586
113 4 585 589
114 4 585 590
115 7 583 586
116 4 586 587
117 4 586 588
118 8 581 582
119 7 581 583
120 7 581 584
121 7 584 585
122 8 1 2
123 7 1 3
124 7 1 4
125 4 5 7
126 4 5 8
127 4 5 9
128 15 757 758
129 15 757 759
130 15 757 760
131 15 757 761
132 15 757 762
133 15 757 763
134 8 61 62
135 7 61 63
136 7 61 64
137 7 64 66
138 4 66 70
139 4 66 71
140 4 66 72
141 8 561 562
142 7 561 563
143 7 561 564
144 7 564 565
145 8 481 482
146 7 481 483
147 7 481 484
148 7 484 486
149 7 483 485
150 4 486 490
151 4 486 491
152 4 486 492
153 15 764 765
154 15 764 766
155 15 764 767
156 15 764 768
157 15 764 769
158 15 764 770
159 1 565 566
160 4 565 569
161 4 565 570
162 7 563 566
163 4 566 567
164 4 566 568
165 7 399 401
166 7 633 636
167 4 636 637
168 4 636 638
169 4 401 403
170 4 401 404
171 4 401 405
172 7 553 556
173 8 551 552
174 7 551 553
175 7 551 554
176 8 631 632
177 7 631 633
178 7 631 634
179 4 498 502
180 4 498 503
181 4 498 504
182 8 493 494
183 7 493 495
184 7 493 496
185 7 496 498
186 7 495 497
187 4 497 499
188 4 497 500
189 4 497 501
190 15 736 737
191 15 736 738
192 15 736 739
193 15 736 740
194 15 736 741
195 15 736 742
196 4 29 31
197 4 29 32
198 4 29 33
199 1 655 656
200 4 655 659
201 4 655 660
202 4 414 418
203 4 414 419
204 4 414 420
205 7 412 414
206 8 409 410
207 7 409 411
208 7 409 412
209 7 411 413
210 4 413 415
211 4 413 416
212 4 413 417
213 8 25 26
214 7 25 27
215 7 25 28
216 7 27 29
217 7 28 30
218 7 147 149
219 4 390 394
220 4 390 395
221 4 390 396
222 4 30 34
223 4 30 35
224 4 30 36
225 7 148 150
226 7 387 389
227 8 385 386
228 7 385 387
229 7 385 388
230 7 388 390
231 7 63 65
232 4 65 67
233 4 65 68
234 4 65 69
235 4 234 238
236 4 234 239
237 4 234 240
238 4 258 262
239 4 258 263
240 4 258 264
241 7 400 402
242 4 402 406
243 4 402 407
244 4 402 408
245 7 531 533
246 4 533 535
247 4 533 536
248 4 533 537
249 8 253 254
250 7 253 255
251 7 253 256
252 7 255 257
253 7 256 258
254 8 397 398
255 7 397 399
256 7 397 400
257 7 532 534
258 4 534 538
259 4 534 539
260 4 534 540
261 8 529 530
262 7 529 531
263 7 529 532
264 8 571 572
265 7 571 573
266 7 571 574
267 7 573 576
268 1 635 636
269 4 635 639
270 4 635 640
271 1 555 556
272 4 555 559
273 4 555 560
274 4 556 557
275 4 556 558
276 4 576 577
277 4 576 578
278 7 634 635
279 7 280 282
280 4 282 286
281 4 282 287
282 4 282 288
283 7 554 555
284 8 433 434
285 7 433 435
286 7 433 436
287 7 435 437
288 4 437 439
289 4 437 440
290 4 437 441
291 4 102 106
292 4 102 107
293 4 102 108
294 4 149 151
295 4 149 152
296 4 149 153
297 7 436 438
298 4 233 235
299 4 233 236
300 4 233 237
301 8 145 146
302 7 145 147
303 7 145 148
304 7 232 234
305 7 231 233
306 8 229 230
307 7 229 231
308 7 229 232
309 4 150 154
310 4 150 155
311 4 150 156
312 7 316 318
313 4 318 322
314 4 318 323
315 4 318 324
316 4 389 391
317 4 389 392
318 4 389 393
319 4 53 55
320 4 53 56
321 4 53 57
322 7 51 53
323 7 15 17
324 4 17 19
325 4 17 20
326 4 17 21
327 4 522 526
328 4 522 527
329 4 522 528
330 4 257 259
331 4 257 260
332 4 257 261
333 8 661 662
334 7 661 663
335 7 661 664
336 7 664 665
337 1 665 666
338 4 665 669
339 4 665 670
340 4 221 223
341 4 221 224
342 4 221 225
343 7 520 522
344 8 517 518
345 7 517 519
346 7 517 520
347 7 574 575
348 1 575 576
349 4 575 579
350 4 575 580
351 7 279 281
352 8 217 218
353 7 217 219
354 7 217 220
355 7 219 221
356 4 521 523
357 4 521 524
358 4 521 525
359 8 97 98
360 7 97 99
361 7 97 100
362 7 99 101
363 4 101 103
364 4 101 104
365 4 101 105
366 8 277 278
367 7 277 279
368 7 277 280
369 7 220 222
370 4 222 226
371 4 222 227
372 4 222 228
373 4 438 442
374 4 438 443
375 4 438 444
376 7 100 102
377 8 337 338
378 7 337 339
379 7 337 340
380 7 340 342
381 7 339 341
382 7 123 125
383 4 125 127
384 4 125 128
385 4 125 129
386 7 724 725
387 1 725 726
388 4 725 729
389 4 725 730
390 4 726 727
391 4 726 728
392 8 157 158
393 7 157 159
394 7 157 160
395 8 721 722
396 7 721 723
397 7 721 724
398 7 723 726
399 7 159 161
400 4 161 163
401 4 161 164
402 4 161 165
403 4 341 343
404 4 341 344
405 4 341 345
406 8 445 446
407 7 445 447
408 7 445 448
409 4 450 454
410 4 450 455
411 4 450 456
412 4 186 190
413 4 186 191
414 4 186 192
415 8 313 314
416 7 313 315
417 7 313 316
418 7 315 317
419 4 449 451
420 4 449 452
421 4 449 453
422 7 447 449
423 7 448 450
424 4 245 247
425 4 245 248
426 4 245 249
427 8 49 50
428 7 49 51
429 7 49 52
430 8 13 14
431 7 13 15
432 7 13 16
433 7 16 18
434 4 294 298
435 4 294 299
436 4 294 300
437 7 52 54
438 4 54 58
439 4 54 59
440 4 54 60
441 7 663 666
442 4 666 667
443 4 666 668
444 7 292 294
445 7 291 293
446 4 293 295
447 4 293 296
448 4 293 297
449 4 281 283
450 4 281 284
451 4 281 285
452 7 519 521
453 4 126 130
454 4 126 131
455 4 126 132
456 4 606 607
457 4 606 608
458 7 603 606
459 1 605 606
460 4 605 609
461 4 605 610
462 7 604 605
463 4 342 346
464 4 342 347
465 4 342 348
466 7 124 126
467 8 121 122
468 7 121 123
469 7 121 124
470 7 112 114
471 4 114 118
472 4 114 119
473 4 114 120
474 4 510 514
475 4 510 515
476 4 510 516
477 8 611 612
478 7 611 613
479 7 611 614
480 8 505 506
481 7 505 507
482 7 505 508
483 7 507 509
484 7 508 510
485 7 160 162
486 7 613 616
487 7 614 615
488 8 181 182
489 7 181 183
490 7 181 184
491 8 325 326
492 7 325 327
493 7 325 328
494 7 327 329
495 4 329 331
496 4 329 332
497 4 329 333
498 4 162 166
499 4 162 167
500 4 162 168
501 4 246 250
502 4 246 251
503 4 246 252
504 7 184 186
505 4 317 319
506 4 317 320
507 4 317 321
508 15 750 751
509 15 750 752
510 15 750 753
511 15 750 754
512 15 750 755
513 15 750 756
514 7 243 245
515 7 244 246
516 8 241 242
517 7 241 243
518 7 241 244
519 7 543 546
520 8 541 542
521 7 541 543
522 7 541 544
523 7 544 545
524 4 18 22
525 4 18 23
526 4 18 24
527 4 89 91
528 4 89 92
529 4 89 93
530 8 85 86
531 7 85 87
532 7 85 88
533 7 87 89
534 7 88 90
535 4 90 94
536 4 90 95
537 4 90 96
538 7 364 366
539 4 366 370
540 4 366 371
541 4 366 372
542 8 289 290
543 7 289 291
544 7 289 292
545 7 694 695
546 1 695 696
547 4 695 699
548 4 695 700
549 4 198 202
550 4 198 203
551 4 198 204
552 8 361 362
553 7 361 363
554 7 361 364
555 7 363 365
556 7 673 676
557 1 675 676
558 4 675 679
559 4 675 680
560 4 676 677
561 4 676 678
562 8 671 672
563 7 671 673
564 7 671 674
565 8 691 692
566 7 691 693
567 7 691 694
568 4 696 697
569 4 696 698
570 7 693 696
571 4 113 115
572 4 113 116
573 4 113 117
574 4 365 367
575 4 365 368
576 4 365 369
577 8 349 350
578 7 349 351
579 7 349 352
580 7 352 354
581 8 601 602
582 7 601 603
583 7 601 604
584 4 425 427
585 4 425 428
586 4 425 429
587 7 423 425
588 7 111 113
589 8 109 110
590 7 109 111
591 7 109 112
592 4 461 463
593 4 461 464
594 4 461 465
595 4 354 358
596 4 354 359
597 4 354 360
598 4 509 511
599 4 509 512
600 4 509 513
601 8 457 458
602 7 457 459
603 7 457 460
604 7 459 461
605 7 460 462
606 1 615 616
607 4 615 619
608 4 615 620
609 4 616 617
610 4 616 618
611 7 183 185
612 4 185 187
613 4 185 188
614 4 185 189
615 7 328 330
616 4 330 334
617 4 330 335
618 4 330 336
619 4 462 466
620 4 462 467
621 4 462 468
622 7 376 378
623 4 378 382
624 4 378 383
625 4 378 384
626 8 373 374
627 7 373 375
628 7 373 376
629 1 545 546
630 4 545 549
631 4 545 550
632 4 546 547
633 4 546 548
634 1 705 706
635 4 705 709
636 4 705 710
637 4 706 707
638 4 706 708
639 8 701 702
640 7 701 703
641 7 701 704
642 7 704 705
643 7 703 706
644 7 195 197
645 4 197 199
646 4 197 200
647 4 197 201
648 8 193 194
649 7 193 195
650 7 193 196
651 7 196 198
652 7 674 675
653 7 76 78
654 4 78 82
655 4 78 83
656 4 78 84
657 7 351 353
658 4 353 355
659 4 353 356
660 4 353 357
661 8 421 422
662 7 421 423
663 7 421 424
664 7 424 426
665 4 426 430
666 4 426 431
667 4 426 432
668 8 73 74
669 7 73 75
670 7 73 76
671 7 75 77
672 4 305 307
673 4 305 308
674 4 305 309
675 4 77 79
676 4 77 80
677 4 77 81
678 7 303 305
679 8 301 302
680 7 301 303
681 7 301 304
682 7 304 306
683 4 306 310
684 4 306 311
685 4 306 312
686 15 743 744
687 15 743 745
688 15 743 746
689 15 743 747
690 15 743 748
691 15 743 749
692 4 646 647
693 4 646 648
694 8 641 642
695 7 641 643
696 7 641 644
697 1 645 646
698 4 645 649
699 4 645 650
700 7 644 645
701 4 138 142
702 4 138 143
703 4 138 144
704 8 133 134
705 7 133 135
706 7 133 136
707 7 136 138
708 7 135 137
709 4 137 139
710 4 137 140
711 4 137 141
712 7 375 377
713 4 377 379
714 4 377 380
715 4 377 381

Angles

1 13 623 626 625
2 4 625 626 627
3 4 625 626 628
4 6 627 626 628
5 9 469 471 473
6 4 207 209 211
7 4 207 209 212
8 4 207 209 213
9 7 211 209 212
10 7 211 209 213
11 7 212 209 213
12 9 205 207 209
13 11 206 205 207
14 11 206 205 208
15 12 207 205 208
16 9 205 208 210
17 4 208 210 214
18 4 208 210 215
19 4 208 210 216
20 7 214 210 215
21 7 214 210 216
22 7 215 210 216
23 13 624 625 626
24 4 626 625 629
25 4 626 625 630
26 6 629 625 630
27 9 621 624 625
28 11 622 621 623
29 11 622 621 624
30 12 623 621 624
31 9 621 623 626
32 9 37 40 42
33 4 40 42 46
34 4 40 42 47
35 4 40 42 48
36 7 46 42 47
37 7 46 42 48
38 7 47 42 48
39 11 38 37 39
40 11 38 37 40
41 12 39 37 40
42 11 682 681 683
43 11 682 681 684
44 12 683 681 684
45 9 681 684 685
46 11 592 591 593
47 11 592 591 594
48 12 593 591 594
49 9 591 594 595
50 9 591 593 596
51 4 267 269 271
52 4 267 269 272
53 4 267 269 273
54 7 271 269 272
55 7 271 269 273
56 7 272 269 273
57 9 681 683 686
58 13 684 685 686
59 4 686 685 689
60 4 686 685 690
61 6 689 685 690
62 13 683 686 685
63 4 685 686 687
64 4 685 686 688
65 6 687 686 688
66 9 169 172 174
67 11 266 265 267
68 11 266 265 268
69 12 267 265 268
70 9 265 267 269
71 9 265 268 270
72 4 268 270 274
73 4 268 270 275
74 4 268 270 276
75 7 274 270 275
76 7 274 270 276
77 7 275 270 276
78 11 170 169 171
79 11 170 169 172
80 12 171 169 172
81 9 169 171 173
82 4 171 173 175
83 4 171 173 176
84 4 171 173 177
85 7 175 173 176
86 7 175 173 177
87 7 176 173 177
88 9 641 643 646
89 9 1 3 5
90 4 471 473 475
91 4 471 473 476
92 4 471 473 477
93 7 475 473 476
94 7 475 473 477
95 7 476 473 477
96 11 470 469 471
97 11 470 469 472
98 12 471 469 472
99 11 712 711 713
100 11 712 711 714
101 12 713 711 714
102 9 711 713 716
103 4 483 485 487
104 4 483 485 488
105 4 483 485 489
106 7 487 485 488
107 7 487 485 489
108 7 488 485 489
109 9 469 472 474
110 4 472 474 478
111 4 472 474 479
112 4 472 474 480
113 7 478 474 479
114 7 478 474 480
115 7 479 474 480
116 9 711 714 715
117 13 714 715 716
118 4 716 715 719
119 4 716 715 720
120 6 719 715 720
121 13 713 716 715
122 4 715 716 717
123 4 715 716 718
124 6 717 716 718
125 9 37 39 41
126 4 39 41 43
127 4 39 41 44
128 4 39 41 45
129 7 43 41 44
130 7 43 41 45
131 7 44 41 45
132 13 594 595 596
133 4 596 595 599
134 4 596 595 600
135 6 599 595 600
136 13 593 596 595
137 4 595 596 597
138 4 595 596 598
139 6 597 596 598
140 11 652 651 653
141 11 652 651 654
142 12 653 651 654
143 9 651 654 655
144 9 651 653 656
145 13 653 656 655
146 4 655 656 657
147 4 655 656 658
148 6 657 656 658
149 4 172 174 178
150 4 172 174 179
151 4 172 174 180
152 7 178 174 179
153 7 178 174 180
154 7 179 174 180
155 4 4 6 10
156 4 4 6 11
157 4 4 6 12
158 7 10 6 11
159 7 10 6 12
160 7 11 6 12
161 9 1 4 6
162 13 584 585 586
163 4 586 585 589
164 4 586 585 590
165 6 589 585 590
166 9 581 583 586
167 13 583 586 585
168 4 585 586 587
169 4 585 586 588
170 6 587 586 588
171 11 582 581 583
172 11 582 581 584
173 12 583 581 584
174 9 581 584 585
175 11 2 1 3
176 11 2 1 4
177 12 3 1 4
178 4 3 5 7
179 4 3 5 8
180 4 3 5 9
181 7 7 5 8
182 7 7 5 9
183 7 8 5 9
184 18 758 757 759
185 18 760 757 761
186 18 762 757 763
187 17 758 757 760
188 17 758 757 761
189 17 758 757 762
190 17 758 757 763
191 17 759 757 760
192 17 759 757 761
193 17 759 757 762
194 17 759 757 763
195 17 760 757 762
196 17 760 757 763
197 17 761 757 762
198 17 761 757 763
199 11 62 61 63
200 11 62 61 64
201 12 63 61 64
202 9 61 64 66
203 4 64 66 70
204 4 64 66 71
205 4 64 66 72
206 7 70 66 71
207 7 70 66 72
208 7 71 66 72
209 11 562 561 563
210 11 562 561 564
211 12 563 561 564
212 9 561 564 565
213 11 482 481 483
214 11 482 481 484
215 12 483 481 484
216 9 481 484 486
217 9 481 483 485
218 4 484 486 490
219 4 484 486 491
220 4 484 486 492
221 7 490 486 491
222 7 490 486 492
223 7 491 486 492
224 18 765 764 766
225 18 767 764 768
226 18 769 764 770
227 17 765 764 767
228 17 765 764 768
229 17 765 764 769
230 17 765 764 770
231 17 766 764 767
232 17 766 764 768
233 17 766 764 769
234 17 766 764 770
235 17 767 764 769
236 17 767 764 770
237 17 768 764 769
238 17 768 764 770
239 13 564 565 566
240 4 566 565 569
241 4 566 565 570
242 6 569 565 570
243 9 561 563 566
244 13 563 566 565
245 4 565 566 567
246 4 565 566 568
247 6 567 566 568
248 9 397 399 401
249 9 631 633 636
250 13 633 636 635
251 4 635 636 637
252 4 635 636 638
253 6 637 636 638
254 4 399 401 403
255 4 399 401 404
256 4 399 401 405
257 7 403 401 404
258 7 403 401 405
259 7 404 401 405
260 9 551 553 556
261 11 552 551 553
262 11 552 551 554
263 12 553 551 554
264 11 632 631 633
265 11 632 631 634
266 12 633 631 634
267 4 496 498 502
268 4 496 498 503
269 4 496 498 504
270 7 502 498 503
271 7 502 498 504
272 7 503 498 504
273 11 494 493 495
274 11 494 493 496
275 12 495 493 496
276 9 493 496 498
277 9 493 495 497
278 4 495 497 499
279 4 495 497 500
280 4 495 497 501
281 7 499 497 500
282 7 499 497 501
283 7 500 497 501
284 18 737 736 738
285 18 739 736 740
286 18 741 736 742
287 17 737 736 739
288 17 737 736 740
289 17 737 736 741
290 17 737 736 742
291 17 738 736 739
292 17 738 736 740
293 17 738 736 741
294 17 738 736 742
295 17 739 736 741
296 17 739 736 742
297 17 740 736 741
298 17 740 736 742
299 4 27 29 31
300 4 27 29 32
301 4 27 29 33
302 7 31 29 32
303 7 31 29 33
304 7 32 29 33
305 13 654 655 656
306 4 656 655 659
307 4 656 655 660
308 6 659 655 660
309 4 412 414 418
310 4 412 414 419
311 4 412 414 420
312 7 418 414 419
313 7 418 414 420
314 7 419 414 420
315 9 409 412 414
316 11 410 409 411
317 11 410 409 412
318 12 411 409 412
319 9 409 411 413
320 4 411 413 415
321 4 411 413 416
322 4 411 413 417
323 7 415 413 416
324 7 415 413 417
325 7 416 413 417
326 11 26 25 27
327 11 26 25 28
328 12 27 25 28
329 9 25 27 29
330 9 25 28 30
331 9 145 147 149
332 4 388 390 394
333 4 388 390 395
334 4 388 390 396
335 7 394 390 395
336 7 394 390 396
337 7 395 390 396
338 4 28 30 34
339 4 28 30 35
340 4 28 30 36
341 7 34 30 35
342 7 34 30 36
343 7 35 30 36
344 9 145 148 150
345 9 385 387 389
346 11 386 385 387
347 11 386 385 388
348 12 387 385 388
349 9 385 388 390
350 9 61 63 65
351 4 63 65 67
352 4 63 65 68
353 4 63 65 69
354 7 67 65 68
355 7 67 65 69
356 7 68 65 69
357 4 232 234 238
358 4 232 234 239
359 4 232 234 240
360 7 238 234 239
361 7 238 234 240
362 7 239 234 240
363 4 256 258 262
364 4 256 258 263
365 4 256 258 264
366 7 262 258 263
367 7 262 258 264
368 7 263 258 264
369 9 397 400 402
370 4 400 402 406
371 4 400 402 407
372 4 400 402 408
373 7 406 402 407
374 7 406 402 408
375 7 407 402 408
376 9 529 531 533
377 4 531 533 535
378 4 531 533 536
379 4 531 533 537
380 7 535 533 536
381 7 535 533 537
382 7 536 533 537
383 11 254 253 255
384 11 254 253 256
385 12 255 253 256
386 9 253 255 257
387 9 253 256 258
388 11 398 397 399
389 11 398 397 400
390 12 399 397 400
391 9 529 532 534
392 4 532 534 538
393 4 532 534 539
394 4 532 534 540
395 7 538 534 539
396 7 538 534 540
397 7 539 534 540
398 11 530 529 531
399 11 530 529 532
400 12 531 529 532
401 11 572 571 573
402 11 572 571 574
403 12 573 571 574
404 9 571 573 576
405 13 634 635 636
406 4 636 635 639
407 4 636 635 640
408 6 639 635 640
409 13 554 555 556
410 4 556 555 559
411 4 556 555 560
412 6 559 555 560
413 13 553 556 555
414 4 555 556 557
415 4 555 556 558
416 6 557 556 558
417 13 573 576 575
418 4 575 576 577
419 4 575 576 578
420 6 577 576 578
421 9 631 634 635
422 9 277 280 282
423 4 280 282 286
424 4 280 282 287
425 4 280 282 288
426 7 286 282 287
427 7 286 282 288
428 7 287 282 288
429 9 551 554 555
430 11 434 433 435
431 11 434 433 436
432 12 435 433 436
433 9 433 435 437
434 4 435 437 439
435 4 435 437 440
436 4 435 437 441
437 7 439 437 440
438 7 439 437 441
439 7 440 437 441
440 4 100 102 106
441 4 100 102 107
442 4 100 102 108
443 7 106 102 107
444 7 106 102 108
445 7 107 102 108
446 4 147 149 151
447 4 147 149 152
448 4 147 149 153
449 7 151 149 152
450 7 151 149 153
451 7 152 149 153
452 9 433 436 438
453 4 231 233 235
454 4 231 233 236
455 4 231 233 237
456 7 235 233 236
457 7 235 233 237
458 7 236 233 237
459 11 146 145 147
460 11 146 145 148
461 12 147 145 148
462 9 229 232 234
463 9 229 231 233
464 11 230 229 231
465 11 230 229 232
466 12 231 229 232
467 4 148 150 154
468 4 148 150 155
469 4 148 150 156
470 7 154 150 155
471 7 154 150 156
472 7 155 150 156
473 9 313 316 318
474 4 316 318 322
475 4 316 318 323
476 4 316 318 324
477 7 322 318 323
478 7 322 318 324
479 7 323 318 324
480 4 387 389 391
481 4 387 389 392
482 4 387 389 393
483 7 391 389 392
484 7 391 389 393
485 7 392 389 393
486 4 51 53 55
487 4 51 53 56
488 4 51 53 57
489 7 55 53 56
490 7 55 53 57
491 7 56 53 57
492 9 49 51 53
493 9 13 15 17
494 4 15 17 19
495 4 15 17 20
496 4 15 17 21
497 7 19 17 20
498 7 19 17 21
499 7 20 17 21
500 4 520 522 526
501 4 520 522 527
502 4 520 522 528
503 7 526 522 527
504 7 526 522 528
505 7 527 522 528
506 4 255 257 259
507 4 255 257 260
508 4 255 257 261
509 7 259 257 260
510 7 259 257 261
511 7 260 257 261
512 11 662 661 663
513 11 662 661 664
514 12 663 661 664
515 9 661 664 665
516 13 664 665 666
517 4 666 665 669
518 4 666 665 670
519 6 669 665 670
520 4 219 221 223
521 4 219 221 224
522 4 219 221 225
523 7 223 221 224
524 7 223 221 225
525 7 224 221 225
526 9 517 520 522
527 11 518 517 519
528 11 518 517 520
529 12 519 517 520
530 9 571 574 575
531 13 574 575 576
532 4 576 575 579
533 4 576 575 580
534 6 579 575 580
535 9 277 279 281
536 11 218 217 219
537 11 218 217 220
538 12 219 217 220
539 9 217 219 221
540 4 519 521 523
541 4 519 521 524
542 4 519 521 525
543 7 523 521 524
544 7 523 521 525
545 7 524 521 525
546 11 98 97 99
547 11 98 97 100
548 12 99 97 100
549 9 97 99 101
550 4 99 101 103
551 4 99 101 104
552 4 99 101 105
553 7 103 101 104
554 7 103 101 105
555 7 104 101 105
556 11 278 277 279
557 11 278 277 280
558 12 279 277 280
559 9 217 220 222
560 4 220 222 226
561 4 220 222 227
562 4 220 222 228
563 7 226 222 227
564 7 226 222 228
565 7 227 222 228
566 4 436 438 442
567 4 436 438 443
568 4 436 438 444
569 7 442 438 443
570 7 442 438 444
571 7 443 438 444
572 9 97 100 102
573 11 338 337 339
574 11 338 337 340
575 12 339 337 340
576 9 337 340 342
577 9 337 339 341
578 9 121 123 125
579 4 123 125 127
580 4 123 125 128
581 4 123 125 129
582 7 127 125 128
583 7 127 125 129
584 7 128 125 129
585 9 721 724 725
586 13 724 725 726
587 4 726 725 729
588 4 726 725 730
589 6 729 725 730
590 13 723 726 725
591 4 725 726 727
592 4 725 726 728
593 6 727 726 728
594 11 158 157 159
595 11 158 157 160
596 12 159 157 160
597 11 722 721 723
598 11 722 721 724
599 12 723 721 724
600 9 721 723 726
601 9 157 159 161
602 4 159 161 163
603 4 159 161 164
604 4 159 161 165
605 7 163 161 164
606 7 163 161 165
607 7 164 161 165
608 4 339 341 343
609 4 339 341 344
610 4 339 341 345
611 7 343 341 344
612 7 343 341 345
613 7 344 341 345
614 11 446 445 447
615 11 446 445 448
616 12 447 445 448
617 4 448 450 454
618 4 448 450 455
619 4 448 450 456
620 7 454 450 455
621 7 454 450 456
622 7 455 450 456
623 4 184 186 190
624 4 184 186 191
625 4 184 186 192
626 7 190 186 191
627 7 190 186 192
628 7 191 186 192
629 11 314 313 315
630 11 314 313 316
631 12 315 313 316
632 9 313 315 317
633 4 447 449 451
634 4 447 449 452
635 4 447 449 453
636 7 451 449 452
637 7 451 449 453
638 7 452 449 453
639 9 445 447 449
640 9 445 448 450
641 4 243 245 247
642 4 243 245 248
643 4 243 245 249
644 7 247 245 248
645 7 247 245 249
646 7 248 245 249
647 11 50 49 51
648 11 50 49 52
649 12 51 49 52
650 11 14 13 15
651 11 14 13 16
652 12 15 13 16
653 9 13 16 18
654 4 292 294 298
655 4 292 294 299
656 4 292 294 300
657 7 298 294 299
658 7 298 294 300
659 7 299 294 300
660 9 49 52 54
661 4 52 54 58
662 4 52 54 59
663 4 52 54 60
664 7 58 54 59
665 7 58 54 60
666 7 59 54 60
667 9 661 663 666
668 13 663 666 665
669 4 665 666 667
670 4 665 666 668
671 6 667 666 668
672 9 289 292 294
673 9 289 291 293
674 4 291 293 295
675 4 291 293 296
676 4 291 293 297
677 7 295 293 296
678 7 295 293 297
679 7 296 293 297
680 4 279 281 283
681 4 279 281 284
682 4 279 281 285
683 7 283 281 284
684 7 283 281 285
685 7 284 281 285
686 9 517 519 521
687 4 124 126 130
688 4 124 126 131
689 4 124 126 132
690 7 130 126 131
691 7 130 126 132
692 7 131 126 132
693 13 603 606 605
694 4 605 606 607
695 4 605 606 608
696 6 607 606 608
697 9 601 603 606
698 13 604 605 606
699 4 606 605 609
700 4 606 605 610
701 6 609 605 610
702 9 601 604 605
703 4 340 342 346
704 4 340 342 347
705 4 340 342 348
706 7 346 342 347
707 7 346 342 348
708 7 347 342 348
709 9 121 124 126
710 11 122 121 123
711 11 122 121 124
712 12 123 121 124
713 9 109 112 114
714 4 112 114 118
715 4 112 114 119
716 4 112 114 120
717 7 118 114 119
718 7 118 114 120
719 7 119 114 120
720 4 508 510 514
721 4 508 510 515
722 4 508 510 516
723 7 514 510 515
724 7 514 510 516
725 7 515 510 516
726 11 612 611 613
727 11 612 611 614
728 12 613 611 614
729 11 506 505 507
730 11 506 505 508
731 12 507 505 508
732 9 505 507 509
733 9 505 508 510
734 9 157 160 162
735 9 611 613 616
736 9 611 614 615
737 11 182 181 183
738 11 182 181 184
739 12 183 181 184
740 11 326 325 327
741 11 326 325 328
742 12 327 325 328
743 9 325 327 329
744 4 327 329 331
745 4 327 329 332
746 4 327 329 333
747 7 331 329 332
748 7 331 329 333
749 7 332 329 333
750 4 160 162 166
751 4 160 162 167
752 4 160 162 168
753 7 166 162 167
754 7 166 162 168
755 7 167 162 168
756 4 244 246 250
757 4 244 246 251
758 4 244 246 252
759 7 250 246 251
760 7 250 246 252
761 7 251 246 252
762 9 181 184 186
763 4 315 317 319
764 4 315 317 320
765 4 315 317 321
766 7 319 317 320
767 7 319 317 321
768 7 320 317 321
769 18 751 750 752
770 18 753 750 754
771 18 755 750 756
772 17 751 750 753
773 17 751 750 754
774 17 751 750 755
775 17 751 750 756
776 17 752 750 753
777 17 752 750 754
778 17 752 750 755
779 17 752 750 756
780 17 753 750 755
781 17 753 750 756
782 17 754 750 755
783 17 754 750 756
784 9 241 243 245
785 9 241 244 246
786 11 242 241 243
787 11 242 241 244
788 12 243 241 244
789 9 541 543 546
790 11 542 541 543
791 11 542 541 544
792 12 543 541 544
793 9 541 544 545
794 4 16 18 22
795 4 16 18 23
796 4 16 18 24
797 7 22 18 23
798 7 22 18 24
799 7 23 18 24
800 4 87 89 91
801 4 87 89 92
802 4 87 89 93
803 7 91 89 92
804 7 91 89 93
805 7 92 89 93
806 11 86 85 87
807 11 86 85 88
808 12 87 85 88
809 9 85 87 89
810 9 85 88 90
811 4 88 90 94
812 4 88 90 95
813 4 88 90 96
814 7 94 90 95
815 7 94 90 96
816 7 95 90 96
817 9 361 364 366
818 4 364 366 370
819 4 364 366 371
820 4 364 366 372
821 7 370 366 371
822 7 370 366 372
823 7 371 366 372
824 11 290 289 291
825 11 290 289 292
826 12 291 289 292
827 9 691 694 695
828 13 694 695 696
829 4 696 695 699
830 4 696 695 700
831 6 699 695 700
832 4 196 198 202
833 4 196 198 203
834 4 196 198 204
835 7 202 198 203
836 7 202 198 204
837 7 203 198 204
838 11 362 361 363
839 11 362 361 364
840 12 363 361 364
841 9 361 363 365
842 9 671 673 676
843 13 674 675 676
844 4 676 675 679
845 4 676 675 680
846 6 679 675 680
847 13 673 676 675
848 4 675 676 677
849 4 675 676 678
850 6 677 676 678
851 11 672 671 673
852 11 672 671 674
853 12 673 671 674
854 11 692 691 693
855 11 692 691 694
856 12 693 691 694
857 13 693 696 695
858 4 695 696 697
859 4 695 696 698
860 6 697 696 698
861 9 691 693 696
862 4 111 113 115
863 4 111 113 116
864 4 111 113 117
865 7 115 113 116
866 7 115 113 117
867 7 116 113 117
868 4 363 365 367
869 4 363 365 368
870 4 363 365 369
871 7 367 365 368
872 7 367 365 369
873 7 368 365 369
874 11 350 349 351
875 11 350 349 352
876 12 351 349 352
877 9 349 352 354
878 11 602 601 603
879 11 602 601 604
880 12 603 601 604
881 4 423 425 427
882 4 423 425 428
883 4 423 425 429
884 7 427 425 428
885 7 427 425 429
886 7 428 425 429
887 9 421 423 425
888 9 109 111 113
889 11 110 109 111
890 11 110 109 112
891 12 111 109 112
892 4 459 461 463
893 4 459 461 464
894 4 459 461 465
895 7 463 461 464
896 7 463 461 465
897 7 464 461 465
898 4 352 354 358
899 4 352 354 359
900 4 352 354 360
901 7 358 354 359
902 7 358 354 360
903 7 359 354 360
904 4 507 509 511
905 4 507 509 512
906 4 507 509 513
907 7 511 509 512
908 7 511 509 513
909 7 512 509 513
910 11 458 457 459
911 11 458 457 460
912 12 459 457 460
913 9 457 459 461
914 9 457 460 462
915 13 614 615 616
916 4 616 615 619
917 4 616 615 620
918 6 619 615 620
919 13 613 616 615
920 4 615 616 617
921 4 615 616 618
922 6 617 616 618
923 9 181 183 185
924 4 183 185 187
925 4 183 185 188
926 4 183 185 189
927 7 187 185 188
928 7 187 185 189
929 7 188 185 189
930 9 325 328 330
931 4 328 330 334
932 4 328 330 335
933 4 328 330 336
934 7 334 330 335
935 7 334 330 336
936 7 335 330 336
937 4 460 462 466
938 4 460 462 467
939 4 460 462 468
940 7 466 462 467
941 7 466 462 468
942 7 467 462 468
943 9 373 376 378
944 4 376 378 382
945 4 376 378 383
946 4 376 378 384
947 7 382 378 383
948 7 382 378 384
949 7 383 378 384
950 11 374 373 375
951 11 374 373 376
952 12 375 373 376
953 13 544 545 546
954 4 546 545 549
955 4 546 545 550
956 6 549 545 550
957 13 543 546 545
958 4 545 546 547
959 4 545 546 548
960 6 547 546 548
961 13 704 705 706
962 4 706 705 709
963 4 706 705 710
964 6 709 705 710
965 13 703 706 705
966 4 705 706 707
967 4 705 706 708
968 6 707 706 708
969 11 702 701 703
970 11 702 701 704
971 12 703 701 704
972 9 701 704 705
973 9 701 703 706
974 9 193 195 197
975 4 195 197 199
976 4 195 197 200
977 4 195 197 201
978 7 199 197 200
979 7 199 197 201
980 7 200 197 201
981 11 194 193 195
982 11 194 193 196
983 12 195 193 196
984 9 193 196 198
985 9 671 674 675
986 9 73 76 78
987 4 76 78 82
988 4 76 78 83
989 4 76 78 84
990 7 82 78 83
991 7 82 78 84
992 7 83 78 84
993 9 349 351 353
994 4 351 353 355
995 4 351 353 356
996 4 351 353 357
997 7 355 353 356
998 7 355 353 357
999 7 356 353 357
1000 11 422 421 423
1001 11 422 421 424
1002 12 423 421 424
1003 9 421 424 426
1004 4 424 426 430
1005 4 424 426 431
1006 4 424 426 432
1007 7 430 426 431
1008 7 430 426 432
1009 7 431 426 432
1010 11 74 73 75
1011 11 74 73 76
1012 12 75 73 76
1013 9 73 75 77
1014 4 303 305 307
1015 4 303 305 308
1016 4 303 305 309
1017 7 307 305 308
1018 7 307 305 309
1019 7 308 305 309
1020 4 75 77 79
1021 4 75 77 80
1022 4 75 77 81
1023 7 79 77 80
1024 7 79 77 81
1025 7 80 77 81
1026 9 301 303 305
1027 11 302 301 303
1028 11 302 301 304
1029 12 303 301 304
1030 9 301 304 306
1031 4 304 306 310
1032 4 304 306 311
1033 4 304 306 312
1034 7 310 306 311
1035 7 310 306 312
1036 7 311 306 312
1037 18 744 743 745
1038 18 746 743 747
1039 18 748 743 749
1040 17 744 743 746
1041 17 744 743 747
1042 17 744 743 748
1043 17 744 743 749
1044 17 745 743 746
1045 17 745 743 747
1046 17 745 743 748
1047 17 745 743 749
1048 17 746 743 748
1049 17 746 743 749
1050 17 747 743 748
1051 17 747 743 749
1052 13 643 646 645
1053 4 645 646 647
1054 4 645 646 648
1055 6 647 646 648
1056 11 642 641 643
1057 11 642 641 644
1058 12 643 641 644
1059 13 644 645 646
1060 4 646 645 649
1061 4 646 645 650
1062 6 649 645 650
1063 9 641 644 645
1064 4 136 138 142
1065 4 136 138 143
1066 4 136 138 144
1067 7 142 138 143
1068 7 142 138 144
1069 7 143 138 144
1070 11 134 133 135
1071 11 134 133 136
1072 12 135 133 136
1073 9 133 136 138
1074 9 133 135 137
1075 4 135 137 139
1076 4 135 137 140
1077 4 135 137 141
1078 7 139 137 140
1079 7 139 137 141
1080 7 140 137 141
1081 9 373 375 377
1082 4 375 377 379
1083 4 375 377 380
1084 4 375 377 381
1085 7 379 377 380
1086 7 379 377 381
1087 7 380 377 381

Dihedrals

1 7 623 626 625 624
2 6 469 471 473 475
3 6 469 471 473 476
4 6 469 471 473 477
5 6 205 207 209 211
6 6 205 207 209 212
7 6 205 207 209 213
8 8 206 205 207 209
9 8 206 205 208 210
10 6 205 208 210 214
11 6 205 208 210 215
12 6 205 208 210 216
13 7 621 624 625 626
14 8 622 621 623 626
15 8 622 621 624 625
16 5 621 623 626 625
17 6 37 40 42 46
18 6 37 40 42 47
19 6 37 40 42 48
20 8 38 37 39 41
21 8 38 37 40 42
22 8 682 681 683 686
23 8 682 681 684 685
24 7 681 684 685 686
25 8 592 591 593 596
26 8 592 591 594 595
27 7 591 594 595 596
28 5 591 593 596 595
29 5 681 683 686 685
30 7 683 686 685 684
31 6 169 172 174 178
32 6 169 172 174 179
33 6 169 172 174 180
34 8 266 265 267 269
35 8 266 265 268 270
36 6 265 267 269 271
37 6 265 267 269 272
38 6 265 267 269 273
39 6 265 268 270 274
40 6 265 268 270 275
41 6 265 268 270 276
42 8 170 169 171 173
43 8 170 169 172 174
44 6 169 171 173 175
45 6 169 171 173 176
46 6 169 171 173 177
47 5 641 643 646 645
48 6 1 3 5 7
49 6 1 3 5 8
50 6 1 3 5 9
51 8 470 469 471 473
52 8 470 469 472 474
53 8 712 711 713 716
54 8 712 711 714 715
55 5 711 713 716 715
56 6 469 472 474 478
57 6 469 472 474 479
58 6 469 472 474 480
59 7 711 714 715 716
60 7 713 716 715 714
61 6 37 39 41 43
62 6 37 39 41 44
63 6 37 39 41 45
64 7 593 596 595 594
65 8 652 651 653 656
66 8 652 651 654 655
67 7 651 654 655 656
68 5 651 653 656 655
69 7 653 656 655 654
70 6 1 4 6 10
71 6 1 4 6 11
72 6 1 4 6 12
73 5 581 583 586 585
74 7 583 586 585 584
75 8 582 581 583 586
76 8 582 581 584 585
77 7 581 584 585 586
78 8 2 1 3 5
79 8 2 1 4 6
80 8 62 61 63 65
81 8 62 61 64 66
82 6 61 64 66 70
83 6 61 64 66 71
84 6 61 64 66 72
85 8 562 561 563 566
86 8 562 561 564 565
87 7 561 564 565 566
88 8 482 481 483 485
89 8 482 481 484 486
90 6 481 484 486 490
91 6 481 484 486 491
92 6 481 484 486 492
93 6 481 483 485 487
94 6 481 483 485 488
95 6 481 483 485 489
96 5 561 563 566 565
97 7 563 566 565 564
98 6 397 399 401 403
99 6 397 399 401 404
100 6 397 399 401 405
101 5 631 633 636 635
102 7 633 636 635 634
103 5 551 553 556 555
104 8 552 551 553 556
105 8 552 551 554 555
106 8 632 631 633 636
107 8 632 631 634 635
108 8 494 493 495 497
109 8 494 493 496 498
110 6 493 496 498 502
111 6 493 496 498 503
112 6 493 496 498 504
113 6 493 495 497 499
114 6 493 495 497 500
115 6 493 495 497 501
116 6 409 412 414 418
117 6 409 412 414 419
118 6 409 412 414 420
119 8 410 409 411 413
120 8 410 409 412 414
121 6 409 411 413 415
122 6 409 411 413 416
123 6 409 411 413 417
124 8 26 25 27 29
125 8 26 25 28 30
126 6 25 27 29 31
127 6 25 27 29 32
128 6 25 27 29 33
129 6 25 28 30 34
130 6 25 28 30 35
131 6 25 28 30 36
132 6 145 147 149 151
133 6 145 147 149 152
134 6 145 147 149 153
135 6 145 148 150 154
136 6 145 148 150 155
137 6 145 148 150 156
138 6 385 387 389 391
139 6 385 387 389 392
140 6 385 387 389 393
141 8 386 385 387 389
142 8 386 385 388 390
143 6 385 388 390 394
144 6 385 388 390 395
145 6 385 388 390 396
146 6 61 63 65 67
147 6 61 63 65 68
148 6 61 63 65 69
149 6 397 400 402 406
150 6 397 400 402 407
151 6 397 400 402 408
152 6 529 531 533 535
153 6 529 531 533 536
154 6 529 531 533 537
155 8 254 253 255 257
156 8 254 253 256 258
157 6 253 255 257 259
158 6 253 255 257 260
159 6 253 255 257 261
160 6 253 256 258 262
161 6 253 256 258 263
162 6 253 256 258 264
163 8 398 397 399 401
164 8 398 397 400 402
165 6 529 532 534 538
166 6 529 532 534 539
167 6 529 532 534 540
168 8 530 529 531 533
169 8 530 529 532 534
170 8 572 571 573 576
171 8 572 571 574 575
172 5 571 573 576 575
173 7 553 556 555 554
174 7 573 576 575 574
175 7 631 634 635 636
176 6 277 280 282 286
177 6 277 280 282 287
178 6 277 280 282 288
179 7 551 554 555 556
180 8 434 433 435 437
181 8 434 433 436 438
182 6 433 435 437 439
183 6 433 435 437 440
184 6 433 435 437 441
185 6 433 436 438 442
186 6 433 436 438 443
187 6 433 436 438 444
188 8 146 145 147 149
189 8 146 145 148 150
190 6 229 232 234 238
191 6 229 232 234 239
192 6 229 232 234 240
193 6 229 231 233 235
194 6 229 231 233 236
195 6 229 231 233 237
196 8 230 229 231 233
197 8 230 229 232 234
198 6 313 316 318 322
199 6 313 316 318 323
200 6 313 316 318 324
201 6 49 51 53 55
202 6 49 51 53 56
203 6 49 51 53 57
204 6 13 15 17 19
205 6 13 15 17 20
206 6 13 15 17 21
207 8 662 661 663 666
208 8 662 661 664 665
209 7 661 664 665 666
210 6 517 520 522 526
211 6 517 520 522 527
212 6 517 520 522 528
213 8 518 517 519 521
214 8 518 517 520 522
215 7 571 574 575 576
216 6 277 279 281 283
217 6 277 279 281 284
218 6 277 279 281 285
219 8 218 217 219 221
220 8 218 217 220 222
221 6 217 219 221 223
222 6 217 219 221 224
223 6 217 219 221 225
224 8 98 97 99 101
225 8 98 97 100 102
226 6 97 99 101 103
227 6 97 99 101 104
228 6 97 99 101 105
229 8 278 277 279 281
230 8 278 277 280 282
231 6 217 220 222 226
232 6 217 220 222 227
233 6 217 220 222 228
234 6 97 100 102 106
235 6 97 100 102 107
236 6 97 100 102 108
237 8 338 337 339 341
238 8 338 337 340 342
239 6 337 340 342 346
240 6 337 340 342 347
241 6 337 340 342 348
242 6 337 339 341 343
243 6 337 339 341 344
244 6 337 339 341 345
245 6 121 123 125 127
246 6 121 123 125 128
247 6 121 123 125 129
248 7 721 724 725 726
249 7 723 726 725 724
250 8 158 157 159 161
251 8 158 157 160 162
252 8 722 721 723 726
253 8 722 721 724 725
254 5 721 723 726 725
255 6 157 159 161 163
256 6 157 159 161 164
257 6 157 159 161 165
258 8 446 445 447 449
259 8 446 445 448 450
260 8 314 313 315 317
261 8 314 313 316 318
262 6 313 315 317 319
263 6 313 315 317 320
264 6 313 315 317 321
265 6 445 447 449 451
266 6 445 447 449 452
267 6 445 447 449 453
268 6 445 448 450 454
269 6 445 448 450 455
270 6 445 448 450 456
271 8 50 49 51 53
272 8 50 49 52 54
273 8 14 13 15 17
274 8 14 13 16 18
275 6 13 16 18 22
276 6 13 16 18 23
277 6 13 16 18 24
278 6 49 52 54 58
279 6 49 52 54 59
280 6 49 52 54 60
281 5 661 663 666 665
282 7 663 666 665 664
283 6 289 292 294 298
284 6 289 292 294 299
285 6 289 292 294 300
286 6 289 291 293 295
287 6 289 291 293 296
288 6 289 291 293 297
289 6 517 519 521 523
290 6 517 519 521 524
291 6 517 519 521 525
292 7 603 606 605 604
293 5 601 603 606 605
294 7 601 604 605 606
295 6 121 124 126 130
296 6 121 124 126 131
297 6 121 124 126 132
298 8 122 121 123 125
299 8 122 121 124 126
300 6 109 112 114 118
301 6 109 112 114 119
302 6 109 112 114 120
303 8 612 611 613 616
304 8 612 611 614 615
305 8 506 505 507 509
306 8 506 505 508 510
307 6 505 507 509 511
308 6 505 507 509 512
309 6 505 507 509 513
310 6 505 508 510 514
311 6 505 508 510 515
312 6 505 508 510 516
313 6 157 160 162 166
314 6 157 160 162 167
315 6 157 160 162 168
316 5 611 613 616 615
317 7 611 614 615 616
318 8 182 181 183 185
319 8 182 181 184 186
320 8 326 325 327 329
321 8 326 325 328 330
322 6 325 327 329 331
323 6 325 327 329 332
324 6 325 327 329 333
325 6 181 184 186 190
326 6 181 184 186 191
327 6 181 184 186 192
328 6 241 243 245 247
329 6 241 243 245 248
330 6 241 243 245 249
331 6 241 244 246 250
332 6 241 244 246 251
333 6 241 244 246 252
334 8 242 241 243 245
335 8 242 241 244 246
336 5 541 543 546 545
337 8 542 541 543 546
338 8 542 541 544 545
339 7 541 544 545 546
340 8 86 85 87 89
341 8 86 85 88 90
342 6 85 87 89 91
343 6 85 87 89 92
344 6 85 87 89 93
345 6 85 88 90 94
346 6 85 88 90 95
347 6 85 88 90 96
348 6 361 364 366 370
349 6 361 364 366 371
350 6 361 364 366 372
351 8 290 289 291 293
352 8 290 289 292 294
353 7 691 694 695 696
354 8 362 361 363 365
355 8 362 361 364 366
356 6 361 363 365 367
357 6 361 363 365 368
358 6 361 363 365 369
359 5 671 673 676 675
360 7 673 676 675 674
361 8 672 671 673 676
362 8 672 671 674 675
363 8 692 691 693 696
364 8 692 691 694 695
365 7 693 696 695 694
366 5 691 693 696 695
367 8 350 349 351 353
368 8 350 349 352 354
369 6 349 352 354 358
370 6 349 352 354 359
371 6 349 352 354 360
372 8 602 601 603 606
373 8 602 601 604 605
374 6 421 423 425 427
375 6 421 423 425 428
376 6 421 423 425 429
377 6 109 111 113 115
378 6 109 111 113 116
379 6 109 111 113 117
380 8 110 109 111 113
381 8 110 109 112 114
382 8 458 457 459 461
383 8 458 457 460 462
384 6 457 459 461 463
385 6 457 459 461 464
386 6 457 459 461 465
387 6 457 460 462 466
388 6 457 460 462 467
389 6 457 460 462 468
390 7 613 616 615 614
391 6 181 183 185 187
392 6 181 183 185 188
393 6 181 183 185 189
394 6 325 328 330 334
395 6 325 328 330 335
396 6 325 328 330 336
397 6 373 376 378 382
398 6 373 376 378 383
399 6 373 376 378 384
400 8 374 373 375 377
401 8 374 373 376 378
402 7 543 546 545 544
403 7 703 706 705 704
404 8 702 701 703 706
405 8 702 701 704 705
406 7 701 704 705 706
407 5 701 703 706 705
408 6 193 195 197 199
409 6 193 195 197 200
410 6 193 195 197 201
411 8 194 193 195 197
412 8 194 193 196 198
413 6 193 196 198 202
414 6 193 196 198 203
415 6 193 196 198 204
416 7 671 674 675 676
417 6 73 76 78 82
418 6 73 76 78 83
419 6 73 76 78 84
420 6 349 351 353 355
421 6 349 351 353 356
422 6 349 351 353 357
423 8 422 421 423 425
424 8 422 421 424 426
425 6 421 424 426 430
426 6 421 424 426 431
427 6 421 424 426 432
428 8 74 73 75 77
429 8 74 73 76 78
430 6 73 75 77 79
431 6 73 75 77 80
432 6 73 75 77 81
433 6 301 303 305 307
434 6 301 303 305 308
435 6 301 303 305 309
436 8 302 301 303 305
437 8 302 301 304 306
438 6 301 304 306 310
439 6 301 304 306 311
440 6 301 304 306 312
441 7 643 646 645 644
442 8 642 641 643 646
443 8 642 641 644 645
444 7 641 644 645 646
445 8 134 133 135 137
446 8 134 133 136 138
447 6 133 136 138 142
448 6 133 136 138 143
449 6 133 136 138 144
450 6 133 135 137 139
451 6 133 135 137 140
452 6 133 135 137 141
453 6 373 375 377 379
454 6 373 375 377 380
455 6 373 375 377 381
