LAMMPS Description

770  atoms
715  bonds
1087  angles
455  dihedrals
0  impropers

31  atom types
17  bond types
18  angle types
9  dihedral types
2  improper types

0.0 20.000000 xlo xhi
0.0 20.000000 ylo yhi
0.0 20.000000 zlo zhi

Masses

1 12.011  # opls_135
2 12.011  # opls_136
3 12.011  # opls_137
4 12.011  # opls_138
5 12.011  # opls_141
6 12.011  # opls_142
7 12.011  # opls_145
8 12.011  # opls_146
9 12.011  # opls_209
10 12.011  # opls_212
11 1.008  # opls_140
12 1.008  # opls_139
13 1.008  # opls_143
14 1.008  # opls_148
15 1.008  # opls_154
16 1.008  # opls_160
17 1.008  # opls_210
18 15.999  # opls_154O
19 15.999  # opls_156
20 15.999  # opls_211
21 15.999  # opls_213
22 14.007  # opls_157
23 14.007  # opls_158
24 14.007  # opls_159
25 14.007  # opls_236
26 18.998  # opls_303
27 30.974  # opls_901
28 6.941  # opls_402
29 32.065  # opls_180
30 32.065  # opls_903
31 6.941  # Li

Atoms

1 1 9 +0.52 13.454 17.414 17.923
2 1 20 -0.50 13.601 16.638 17.019
3 1 19 -0.35 13.740 17.035 19.197
4 1 19 -0.35 13.001 18.672 17.673
5 1 1 +0.22 14.210 15.694 19.361
6 1 1 +0.22 12.728 18.979 16.303
7 1 11 +0.06 14.253 15.202 18.390
8 1 11 +0.06 15.205 15.710 19.806
9 1 11 +0.06 13.529 15.148 20.015
10 1 11 +0.06 12.373 20.007 16.225
11 1 11 +0.06 13.638 18.863 15.715
12 1 11 +0.06 11.962 18.302 15.924
13 2 9 +0.52 12.714 2.589 13.518
14 2 20 -0.50 13.000 3.754 13.476
15 2 19 -0.35 13.696 1.650 13.586
16 2 19 -0.35 11.409 2.208 13.498
17 2 1 +0.22 15.037 2.146 13.602
18 2 1 +0.22 10.449 3.265 13.426
19 2 11 +0.06 15.023 3.234 13.555
20 2 11 +0.06 15.531 1.828 14.521
21 2 11 +0.06 15.580 1.751 12.743
22 2 11 +0.06 9.443 2.843 13.416
23 2 11 +0.06 10.559 3.918 14.292
24 2 11 +0.06 10.609 3.841 12.514
25 3 9 +0.52 6.233 3.011 12.867
26 3 20 -0.50 7.294 2.460 12.966
27 3 19 -0.35 5.086 2.280 12.848
28 3 19 -0.35 6.177 4.367 12.773
29 3 1 +0.22 5.245 0.863 12.953
30 3 1 +0.22 7.433 5.049 12.801
31 3 11 +0.06 6.304 0.620 13.031
32 3 11 +0.06 4.723 0.503 13.839
33 3 11 +0.06 4.827 0.384 12.067
34 3 11 +0.06 7.265 6.124 12.719
35 3 11 +0.06 7.944 4.833 13.739
36 3 11 +0.06 8.049 4.714 11.966
37 4 9 +0.52 13.172 6.912 6.389
38 4 20 -0.50 13.086 7.361 5.280
39 4 19 -0.35 12.841 7.680 7.462
40 4 19 -0.35 13.599 5.634 6.574
41 4 1 +0.22 12.403 9.009 7.169
42 4 1 +0.22 13.923 4.904 5.388
43 4 11 +0.06 12.416 9.168 6.091
44 4 11 +0.06 11.389 9.149 7.545
45 4 11 +0.06 13.070 9.726 7.650
46 4 11 +0.06 14.251 3.899 5.657
47 4 11 +0.06 13.042 4.838 4.748
48 4 11 +0.06 14.723 5.415 4.853
49 5 9 +0.52 12.546 16.143 13.238
50 5 20 -0.50 13.702 16.326 13.505
51 5 19 -0.35 11.870 17.049 12.483
52 5 19 -0.35 11.912 15.028 13.692
53 5 1 +0.22 12.619 18.189 12.053
54 5 1 +0.22 12.704 14.133 14.477
55 5 11 +0.06 13.640 18.116 12.427
56 5 11 +0.06 12.633 18.224 10.963
57 5 11 +0.06 12.154 19.096 12.439
58 5 11 +0.06 12.095 13.281 14.783
59 5 11 +0.06 13.550 13.780 13.887
60 5 11 +0.06 13.071 14.653 15.363
61 6 9 +0.52 7.283 14.809 16.502
62 6 20 -0.50 8.481 14.848 16.455
63 6 19 -0.35 6.544 15.436 15.548
64 6 19 -0.35 6.663 14.137 17.509
65 6 1 +0.22 7.283 16.116 14.530
66 6 1 +0.22 7.522 13.509 18.465
67 6 11 +0.06 8.351 16.000 14.716
68 6 11 +0.06 7.036 15.692 13.557
69 6 11 +0.06 7.025 17.176 14.540
70 6 11 +0.06 6.918 13.004 19.220
71 6 11 +0.06 8.156 12.780 17.961
72 6 11 +0.06 8.146 14.263 18.945
73 7 9 +0.52 4.871 2.615 10.646
74 7 20 -0.50 5.061 3.758 10.957
75 7 19 -0.35 3.661 2.039 10.877
76 7 19 -0.35 5.867 1.895 10.063
77 7 1 +0.22 2.677 2.874 11.494
78 7 1 +0.22 7.103 2.585 9.861
79 7 11 +0.06 3.100 3.863 11.673
80 7 11 +0.06 1.812 2.962 10.837
81 7 11 +0.06 2.370 2.433 12.443
82 7 11 +0.06 7.822 1.912 9.389
83 7 11 +0.06 6.937 3.447 9.215
84 7 11 +0.06 7.495 2.919 10.821
85 8 9 +0.52 12.106 7.005 14.032
86 8 20 -0.50 12.414 5.870 13.796
87 8 19 -0.35 12.906 7.779 14.814
88 8 19 -0.35 10.956 7.519 13.518
89 8 1 +0.22 14.092 7.152 15.309
90 8 1 +0.22 10.181 6.631 12.708
91 8 11 +0.06 14.137 6.124 14.951
92 8 11 +0.06 14.967 7.699 14.954
93 8 11 +0.06 14.079 7.158 16.399
94 8 11 +0.06 9.288 7.149 12.354
95 8 11 +0.06 10.774 6.305 11.854
96 8 11 +0.06 9.886 5.764 13.299
97 9 9 +0.52 1.005 15.676 3.485
98 9 20 -0.50 2.163 15.941 3.657
99 9 19 -0.35 0.530 15.493 2.224
100 9 19 -0.35 0.169 15.557 4.552
101 9 1 +0.22 1.483 15.639 1.168
102 9 1 +0.22 0.760 15.766 5.837
103 9 11 +0.06 2.459 15.879 1.589
104 9 11 +0.06 1.549 14.706 0.608
105 9 11 +0.06 1.166 16.441 0.501
106 9 11 +0.06 -0.000 15.645 6.610
107 9 11 +0.06 1.555 15.038 5.995
108 9 11 +0.06 1.173 16.773 5.889
109 10 9 +0.52 17.305 6.902 18.319
110 10 20 -0.50 16.473 6.045 18.205
111 10 19 -0.35 16.928 8.198 18.489
112 10 19 -0.35 18.625 6.578 18.280
113 10 1 +0.22 15.519 8.442 18.519
114 10 1 +0.22 18.924 5.191 18.097
115 10 11 +0.06 14.984 7.500 18.393
116 10 11 +0.06 15.247 8.890 19.475
117 10 11 +0.06 15.251 9.122 17.710
118 10 11 +0.06 20.006 5.052 18.081
119 10 11 +0.06 18.497 4.616 18.918
120 10 11 +0.06 18.500 4.848 17.154
121 11 9 +0.52 15.324 9.286 6.523
122 11 20 -0.50 14.919 8.225 6.135
123 11 19 -0.35 15.721 9.431 7.816
124 11 19 -0.35 15.388 10.343 5.669
125 11 1 +0.22 15.618 8.265 8.637
126 11 1 +0.22 14.950 10.094 4.331
127 11 11 +0.06 15.223 7.438 8.048
128 11 11 +0.06 16.605 8.001 9.019
129 11 11 +0.06 14.948 8.468 9.474
130 11 11 +0.06 15.045 11.007 3.741
131 11 11 +0.06 15.564 9.310 3.887
132 11 11 +0.06 13.907 9.777 4.342
133 12 9 +0.52 18.483 6.646 4.609
134 12 20 -0.50 19.664 6.848 4.670
135 12 19 -0.35 18.018 5.383 4.412
136 12 19 -0.35 17.608 7.680 4.737
137 12 1 +0.22 19.011 4.362 4.290
138 12 1 +0.22 18.190 8.970 4.941
139 12 11 +0.06 20.002 4.806 4.381
140 12 11 +0.06 18.871 3.621 5.078
141 12 11 +0.06 18.918 3.878 3.317
142 12 11 +0.06 17.399 9.716 5.028
143 12 11 +0.06 18.783 8.962 5.855
144 12 11 +0.06 18.830 9.219 4.094
145 13 9 +0.52 15.196 1.766 9.565
146 13 20 -0.50 15.007 2.287 10.629
147 13 19 -0.35 14.370 2.038 8.519
148 13 19 -0.35 16.236 0.903 9.404
149 13 1 +0.22 13.306 2.956 8.783
150 13 1 +0.22 17.048 0.680 10.559
151 13 11 +0.06 13.357 3.282 9.822
152 13 11 +0.06 13.400 3.820 8.126
153 13 11 +0.06 12.349 2.465 8.603
154 13 11 +0.06 17.845 -0.024 10.313
155 13 11 +0.06 17.487 1.624 10.884
156 13 11 +0.06 16.436 0.268 11.362
157 14 9 +0.52 7.629 3.655 19.304
158 14 20 -0.50 7.601 4.819 19.011
159 14 19 -0.35 6.470 2.952 19.412
160 14 19 -0.35 8.821 3.039 19.527
161 14 1 +0.22 5.268 3.684 19.159
162 14 1 +0.22 9.985 3.859 19.390
163 14 11 +0.06 5.515 4.717 18.915
164 14 11 +0.06 4.736 3.231 18.322
165 14 11 +0.06 4.635 3.662 20.047
166 14 11 +0.06 10.876 3.262 19.591
167 14 11 +0.06 10.035 4.254 18.375
168 14 11 +0.06 9.935 4.685 20.100
169 15 9 +0.52 10.646 14.421 18.459
170 15 20 -0.50 11.451 14.662 17.601
171 15 19 -0.35 10.168 15.425 19.243
172 15 19 -0.35 10.214 13.146 18.648
173 15 1 +0.22 10.681 16.731 18.970
174 15 1 +0.22 10.773 12.160 17.776
175 15 11 +0.06 11.393 16.678 18.147
176 15 11 +0.06 9.860 17.395 18.698
177 15 11 +0.06 11.180 17.118 19.859
178 15 11 +0.06 10.355 11.181 18.019
179 15 11 +0.06 10.534 12.409 16.743
180 15 11 +0.06 11.855 12.133 17.903
181 16 9 +0.52 9.265 14.327 5.570
182 16 20 -0.50 8.453 13.923 4.783
183 16 19 -0.35 10.548 13.880 5.513
184 16 19 -0.35 8.901 15.232 6.518
185 16 1 +0.22 10.835 12.930 4.484
186 16 1 +0.22 7.532 15.643 6.499
187 16 11 +0.06 9.931 12.731 3.909
188 16 11 +0.06 11.605 13.331 3.824
189 16 11 +0.06 11.191 12.003 4.934
190 16 11 +0.06 7.357 16.365 7.298
191 16 11 +0.06 7.303 16.104 5.538
192 16 11 +0.06 6.889 14.775 6.648
193 17 9 +0.52 16.577 10.067 13.275
194 17 20 -0.50 15.656 9.822 14.004
195 17 19 -0.35 17.278 11.222 13.430
196 17 19 -0.35 16.920 9.190 12.294
197 17 1 +0.22 16.844 12.081 14.487
198 17 1 +0.22 16.126 8.004 12.208
199 17 11 +0.06 15.992 11.630 14.996
200 17 11 +0.06 17.659 12.223 15.198
201 17 11 +0.06 16.550 13.047 14.074
202 17 11 +0.06 16.491 7.380 11.391
203 17 11 +0.06 16.195 7.451 13.145
204 17 11 +0.06 15.087 8.274 12.021
205 18 9 +0.52 10.441 10.439 12.314
206 18 20 -0.50 10.189 9.533 13.059
207 18 19 -0.35 10.101 11.712 12.652
208 18 19 -0.35 11.068 10.194 11.132
209 18 1 +0.22 9.447 11.872 13.913
210 18 1 +0.22 11.385 8.826 10.864
211 18 11 +0.06 9.337 10.899 14.392
212 18 11 +0.06 10.042 12.526 14.551
213 18 11 +0.06 8.463 12.314 13.758
214 18 11 +0.06 11.881 8.750 9.895
215 18 11 +0.06 12.049 8.447 11.641
216 18 11 +0.06 10.469 8.235 10.848
217 19 9 +0.52 3.681 10.119 12.565
218 19 20 -0.50 2.556 9.836 12.874
219 19 19 -0.35 4.019 11.418 12.347
220 19 19 -0.35 4.617 9.141 12.434
221 19 1 +0.22 2.969 12.374 12.508
222 19 1 +0.22 4.168 7.806 12.684
223 19 11 +0.06 2.050 11.862 12.789
224 19 11 +0.06 3.242 13.085 13.288
225 19 11 +0.06 2.816 12.907 11.569
226 19 11 +0.06 4.998 7.112 12.550
227 19 11 +0.06 3.795 7.733 13.706
228 19 11 +0.06 3.369 7.554 11.987
229 20 9 +0.52 8.019 8.857 6.795
230 20 20 -0.50 8.731 7.891 6.770
231 20 19 -0.35 6.965 8.903 7.653
232 20 19 -0.35 8.268 9.906 5.965
233 20 1 +0.22 6.784 7.755 8.486
234 20 1 +0.22 9.397 9.766 5.099
235 20 11 +0.06 7.561 7.022 8.268
236 20 11 +0.06 6.848 8.052 9.533
237 20 11 +0.06 5.805 7.316 8.292
238 20 11 +0.06 9.497 10.661 4.484
239 20 11 +0.06 10.299 9.634 5.696
240 20 11 +0.06 9.257 8.898 4.455
241 21 9 +0.52 19.354 4.458 12.174
242 21 20 -0.50 18.842 3.376 12.256
243 21 19 -0.35 19.563 5.021 10.954
244 21 19 -0.35 19.726 5.121 13.302
245 21 1 +0.22 19.140 4.248 9.827
246 21 1 +0.22 19.466 4.451 14.537
247 21 11 +0.06 18.708 3.309 10.171
248 21 11 +0.06 18.392 4.807 9.264
249 21 11 +0.06 19.997 4.042 9.186
250 21 11 +0.06 19.804 5.073 15.367
251 21 11 +0.06 18.396 4.267 14.635
252 21 11 +0.06 20.002 3.501 14.556
253 22 9 +0.52 3.329 5.866 7.943
254 22 20 -0.50 3.330 5.719 9.134
255 22 19 -0.35 4.364 5.391 7.199
256 22 19 -0.35 2.294 6.507 7.338
257 22 1 +0.22 5.406 4.731 7.923
258 22 1 +0.22 1.253 6.970 8.201
259 22 11 +0.06 5.167 4.732 8.986
260 22 11 +0.06 5.499 3.704 7.572
261 22 11 +0.06 6.348 5.256 7.763
262 22 11 +0.06 0.482 7.465 7.609
263 22 11 +0.06 0.815 6.124 8.731
264 22 11 +0.06 1.665 7.677 8.922
265 23 9 +0.52 13.176 2.982 1.511
266 23 20 -0.50 12.710 3.179 2.599
267 23 19 -0.35 14.467 3.324 1.252
268 23 19 -0.35 12.414 2.415 0.538
269 23 1 +0.22 15.188 3.913 2.337
270 23 1 +0.22 11.070 2.090 0.904
271 23 11 +0.06 14.541 3.982 3.210
272 23 11 +0.06 16.055 3.296 2.574
273 23 11 +0.06 15.521 4.911 2.052
274 23 11 +0.06 10.558 1.645 0.050
275 23 11 +0.06 11.080 1.380 1.731
276 23 11 +0.06 10.546 2.996 1.209
277 24 9 +0.52 9.607 9.077 16.033
278 24 20 -0.50 9.873 7.922 16.217
279 24 19 -0.35 10.574 10.026 16.157
280 24 19 -0.35 8.339 9.439 15.701
281 24 1 +0.22 11.876 9.550 16.510
282 24 1 +0.22 7.391 8.374 15.594
283 24 11 +0.06 11.850 8.466 16.618
284 24 11 +0.06 12.586 9.820 15.727
285 24 11 +0.06 12.186 10.003 17.452
286 24 11 +0.06 6.415 8.781 15.325
287 24 11 +0.06 7.716 7.673 14.825
288 24 11 +0.06 7.316 7.855 16.550
289 25 9 +0.52 18.346 10.282 10.688
290 25 20 -0.50 19.487 10.553 10.945
291 25 19 -0.35 18.003 9.000 10.390
292 25 19 -0.35 17.398 11.257 10.694
293 25 1 +0.22 19.067 8.045 10.409
294 25 1 +0.22 17.854 12.572 11.018
295 25 11 +0.06 19.999 8.545 10.670
296 25 11 +0.06 18.849 7.273 11.147
297 25 11 +0.06 19.163 7.589 9.424
298 25 11 +0.06 17.012 13.266 10.992
299 25 11 +0.06 18.291 12.571 12.016
300 25 11 +0.06 18.604 12.887 10.293
301 26 9 +0.52 5.559 9.792 3.595
302 26 20 -0.50 6.743 9.626 3.693
303 26 19 -0.35 4.832 9.022 2.740
304 26 19 -0.35 4.943 10.749 4.339
305 26 1 +0.22 5.566 8.043 2.001
306 26 1 +0.22 5.788 11.507 5.208
307 26 11 +0.06 6.620 8.097 2.273
308 26 11 +0.06 5.182 7.049 2.233
309 26 11 +0.06 5.455 8.235 0.934
310 26 11 +0.06 5.189 12.240 5.751
311 26 11 +0.06 6.273 10.839 5.919
312 26 11 +0.06 6.546 12.024 4.620
313 27 9 +0.52 14.733 0.530 3.386
314 27 20 -0.50 15.599 1.353 3.501
315 27 19 -0.35 14.338 0.127 2.149
316 27 19 -0.35 14.148 -0.000 4.494
317 27 1 +0.22 15.010 0.740 1.046
318 27 1 +0.22 14.629 0.484 5.750
319 27 11 +0.06 15.749 1.448 1.419
320 27 11 +0.06 15.509 -0.027 0.453
321 27 11 +0.06 14.285 1.264 0.424
322 27 11 +0.06 14.090 -0.008 6.560
323 27 11 +0.06 15.694 0.269 5.839
324 27 11 +0.06 14.470 1.561 5.810
325 28 9 +0.52 12.640 15.065 5.790
326 28 20 -0.50 12.476 16.193 5.416
327 28 19 -0.35 12.191 14.683 7.016
328 28 19 -0.35 13.274 14.168 4.988
329 28 1 +0.22 11.536 15.694 7.786
330 28 1 +0.22 13.710 14.661 3.719
331 28 11 +0.06 11.518 16.626 7.222
332 28 11 +0.06 10.515 15.381 8.004
333 28 11 +0.06 12.077 15.845 8.721
334 28 11 +0.06 14.202 13.859 3.166
335 28 11 +0.06 12.850 15.017 3.151
336 28 11 +0.06 14.412 15.481 3.868
337 29 9 +0.52 11.357 2.981 16.116
338 29 20 -0.50 10.192 2.700 16.180
339 29 19 -0.35 11.744 4.285 16.122
340 29 19 -0.35 12.291 1.995 16.039
341 29 1 +0.22 10.692 5.250 16.206
342 29 1 +0.22 11.789 0.656 16.039
343 29 11 +0.06 9.731 4.738 16.252
344 29 11 +0.06 10.825 5.854 17.104
345 29 11 +0.06 10.719 5.894 15.327
346 29 11 +0.06 12.623 -0.045 15.973
347 29 11 +0.06 11.235 0.474 16.960
348 29 11 +0.06 11.129 0.514 15.183
349 30 9 +0.52 1.492 3.323 4.269
350 30 20 -0.50 0.316 3.362 4.503
351 30 19 -0.35 2.388 3.277 5.291
352 30 19 -0.35 1.930 3.324 2.981
353 30 1 +0.22 1.834 3.280 6.609
354 30 1 +0.22 0.915 3.373 1.975
355 30 11 +0.06 0.747 3.320 6.548
356 30 11 +0.06 2.136 2.372 7.132
357 30 11 +0.06 2.200 4.151 7.155
358 30 11 +0.06 1.380 3.369 0.988
359 30 11 +0.06 0.263 2.505 2.071
360 30 11 +0.06 0.327 4.283 2.094
361 31 9 +0.52 1.354 7.332 2.610
362 31 20 -0.50 2.218 8.133 2.383
363 31 19 -0.35 0.585 7.459 3.724
364 31 19 -0.35 1.144 6.297 1.753
365 31 1 +0.22 0.879 8.578 4.564
366 31 1 +0.22 2.002 6.246 0.609
367 31 11 +0.06 1.704 9.147 4.136
368 31 11 +0.06 -0.002 9.215 4.642
369 31 11 +0.06 1.159 8.223 5.557
370 31 11 +0.06 1.743 5.381 -0.002
371 31 11 +0.06 1.878 7.155 0.021
372 31 11 +0.06 3.038 6.163 0.935
373 32 9 +0.52 18.334 17.032 3.652
374 32 20 -0.50 17.220 17.296 4.012
375 32 19 -0.35 18.641 15.767 3.260
376 32 19 -0.35 19.290 18.000 3.637
377 32 1 +0.22 17.571 14.819 3.309
378 32 1 +0.22 18.874 19.298 4.067
379 32 11 +0.06 16.667 15.309 3.669
380 32 11 +0.06 17.394 14.418 2.311
381 32 11 +0.06 17.837 14.006 3.985
382 32 11 +0.06 19.719 19.987 4.013
383 32 11 +0.06 18.073 19.657 3.420
384 32 11 +0.06 18.516 19.245 5.095
385 33 9 +0.52 6.172 2.631 2.471
386 33 20 -0.50 6.463 3.264 3.448
387 33 19 -0.35 5.272 3.128 1.581
388 33 19 -0.35 6.744 1.416 2.253
389 33 1 +0.22 4.725 4.412 1.894
390 33 1 +0.22 7.678 0.976 3.242
391 33 11 +0.06 5.151 4.770 2.831
392 33 11 +0.06 4.964 5.113 1.095
393 33 11 +0.06 3.643 4.331 1.995
394 33 11 +0.06 8.068 -0.004 2.964
395 33 11 +0.06 8.500 1.689 3.309
396 33 11 +0.06 7.179 0.906 4.209
397 34 9 +0.52 7.076 10.510 12.855
398 34 20 -0.50 6.109 10.750 12.187
399 34 19 -0.35 8.252 10.181 12.255
400 34 19 -0.35 6.996 10.565 14.212
401 34 1 +0.22 8.238 10.148 10.826
402 34 1 +0.22 5.720 10.919 14.750
403 34 11 +0.06 7.242 10.405 10.465
404 34 11 +0.06 8.961 10.867 10.439
405 34 11 +0.06 8.503 9.148 10.483
406 34 11 +0.06 5.776 10.932 15.840
407 34 11 +0.06 5.434 11.908 14.391
408 34 11 +0.06 4.976 10.188 14.434
409 35 9 +0.52 16.765 1.020 18.855
410 35 20 -0.50 16.532 2.101 19.321
411 35 19 -0.35 15.745 0.167 18.572
412 35 19 -0.35 18.051 0.649 18.610
413 35 1 +0.22 14.429 0.645 18.863
414 35 1 +0.22 19.055 1.612 18.940
415 35 11 +0.06 14.491 1.651 19.277
416 35 11 +0.06 13.839 0.664 17.947
417 35 11 +0.06 13.954 -0.018 19.587
418 35 11 +0.06 20.039 1.207 18.702
419 35 11 +0.06 18.889 2.523 18.364
420 35 11 +0.06 19.005 1.841 20.004
421 36 9 +0.52 6.597 15.169 11.465
422 36 20 -0.50 6.975 16.284 11.231
423 36 19 -0.35 5.271 14.874 11.408
424 36 19 -0.35 7.496 14.201 11.788
425 36 1 +0.22 4.403 15.956 11.060
426 36 1 +0.22 8.867 14.605 11.824
427 36 11 +0.06 4.993 16.858 10.898
428 36 11 +0.06 3.861 15.707 10.147
429 36 11 +0.06 3.692 16.126 11.869
430 36 11 +0.06 9.491 13.752 12.092
431 36 11 +0.06 9.163 14.976 10.843
432 36 11 +0.06 8.995 15.394 12.565
433 37 9 +0.52 16.087 17.015 5.900
434 37 20 -0.50 16.612 18.002 6.337
435 37 19 -0.35 16.751 15.828 5.916
436 37 19 -0.35 14.828 17.083 5.390
437 37 1 +0.22 18.068 15.854 6.472
438 37 1 +0.22 14.211 18.373 5.416
439 37 11 +0.06 18.306 16.867 6.795
440 37 11 +0.06 18.115 15.180 7.327
441 37 11 +0.06 18.787 15.534 5.718
442 37 11 +0.06 13.211 18.306 4.984
443 37 11 +0.06 14.138 18.721 6.446
444 37 11 +0.06 14.810 19.075 4.836
445 38 9 +0.52 17.286 14.904 17.023
446 38 20 -0.50 16.522 15.561 17.675
447 38 19 -0.35 16.855 14.282 15.893
448 38 19 -0.35 18.583 14.782 17.414
449 38 1 +0.22 15.476 14.468 15.563
450 38 1 +0.22 18.943 15.472 18.614
451 38 11 +0.06 15.005 15.104 16.312
452 38 11 +0.06 15.398 14.941 14.584
453 38 11 +0.06 14.974 13.501 15.539
454 38 11 +0.06 20.000 15.302 18.828
455 38 11 +0.06 18.766 16.539 18.488
456 38 11 +0.06 18.342 15.099 19.443
457 39 9 +0.52 3.401 12.823 3.395
458 39 20 -0.50 2.793 13.856 3.337
459 39 19 -0.35 4.734 12.833 3.664
460 39 19 -0.35 2.757 11.643 3.192
461 39 1 +0.22 5.324 14.121 3.863
462 39 1 +0.22 1.357 11.732 2.916
463 39 11 +0.06 4.560 14.891 3.757
464 39 11 +0.06 5.756 14.173 4.863
465 39 11 +0.06 6.106 14.281 3.121
466 39 11 +0.06 0.950 10.731 2.772
467 39 11 +0.06 0.850 12.212 3.753
468 39 11 +0.06 1.201 12.320 2.012
469 40 9 +0.52 15.178 16.981 11.256
470 40 20 -0.50 14.304 16.906 10.438
471 40 19 -0.35 15.778 18.177 11.502
472 40 19 -0.35 15.570 15.871 11.937
473 40 1 +0.22 15.300 19.287 10.738
474 40 1 +0.22 14.882 14.661 11.611
475 40 11 +0.06 14.507 18.953 10.069
476 40 11 +0.06 14.910 20.051 11.411
477 40 11 +0.06 16.119 19.704 10.151
478 40 11 +0.06 15.278 13.843 12.215
479 40 11 +0.06 13.818 14.780 11.815
480 40 11 +0.06 15.027 14.433 10.555
481 41 9 +0.52 7.456 2.959 16.875
482 41 20 -0.50 6.421 2.515 16.461
483 41 19 -0.35 7.668 4.302 16.877
484 41 19 -0.35 8.418 2.118 17.343
485 41 1 +0.22 6.601 5.105 16.367
486 41 1 +0.22 8.104 0.723 17.301
487 41 11 +0.06 5.778 4.462 16.057
488 41 11 +0.06 6.256 5.788 17.144
489 41 11 +0.06 6.956 5.680 15.511
490 41 11 +0.06 8.943 0.150 17.698
491 41 11 +0.06 7.217 0.531 17.903
492 41 11 +0.06 7.916 0.423 16.270
493 42 9 +0.52 11.283 6.205 2.745
494 42 20 -0.50 11.485 5.119 3.215
495 42 19 -0.35 10.539 7.114 3.429
496 42 19 -0.35 11.799 6.525 1.527
497 42 1 +0.22 10.040 6.687 4.699
498 42 1 +0.22 12.567 5.505 0.884
499 42 11 +0.06 10.364 5.665 4.892
500 42 11 +0.06 10.425 7.344 5.480
501 42 11 +0.06 8.951 6.729 4.694
502 42 11 +0.06 12.927 5.872 -0.078
503 42 11 +0.06 13.418 5.240 1.512
504 42 11 +0.06 11.944 4.625 0.726
505 43 9 +0.52 9.771 2.458 6.157
506 43 20 -0.50 9.978 2.267 4.990
507 43 19 -0.35 8.749 3.269 6.542
508 43 19 -0.35 10.558 1.865 7.094
509 43 1 +0.22 7.977 3.847 5.486
510 43 1 +0.22 11.606 1.031 6.594
511 43 11 +0.06 8.368 3.516 4.525
512 43 11 +0.06 6.937 3.534 5.583
513 43 11 +0.06 8.035 4.934 5.547
514 43 11 +0.06 12.168 0.612 7.430
515 43 11 +0.06 11.178 0.221 6.004
516 43 11 +0.06 12.275 1.622 5.968
517 44 9 +0.52 2.434 11.018 8.951
518 44 20 -0.50 1.748 10.034 8.973
519 44 19 -0.35 3.780 10.912 9.118
520 44 19 -0.35 1.866 12.239 8.760
521 44 1 +0.22 4.285 9.589 9.312
522 44 1 +0.22 0.446 12.250 8.594
523 44 11 +0.06 3.460 8.877 9.290
524 44 11 +0.06 4.993 9.350 8.518
525 44 11 +0.06 4.789 9.531 10.277
526 44 11 +0.06 0.104 13.276 8.449
527 44 11 +0.06 0.176 11.652 7.724
528 44 11 +0.06 -0.028 11.833 9.483
529 45 9 +0.52 4.606 8.248 5.715
530 45 20 -0.50 3.589 7.841 5.226
531 45 19 -0.35 5.744 7.508 5.631
532 45 19 -0.35 4.620 9.449 6.354
533 45 1 +0.22 5.631 6.261 4.942
534 45 1 +0.22 3.377 10.154 6.391
535 45 11 +0.06 4.607 6.128 4.595
536 45 11 +0.06 6.308 6.256 4.087
537 45 11 +0.06 5.894 5.447 5.617
538 45 11 +0.06 3.509 11.096 6.924
539 45 11 +0.06 3.043 10.357 5.373
540 45 11 +0.06 2.630 9.548 6.904
541 46 9 +0.52 15.198 14.343 7.384
542 46 20 -0.50 15.151 15.448 7.849
543 46 19 -0.35 14.086 13.570 6.946
544 46 19 -0.35 16.378 13.573 7.176
545 46 2 +0.22 14.577 12.323 6.466
546 46 2 +0.22 15.994 12.325 6.608
547 46 11 +0.06 14.190 11.550 7.129
548 46 11 +0.06 14.363 12.284 5.398
549 46 11 +0.06 16.244 11.552 7.335
550 46 11 +0.06 16.417 12.286 5.604
551 47 9 +0.52 6.785 0.296 7.729
552 47 20 -0.50 7.767 -0.021 8.342
553 47 19 -0.35 5.481 0.475 8.273
554 47 19 -0.35 6.719 0.558 6.331
555 47 2 +0.22 4.609 0.848 7.211
556 47 2 +0.22 5.375 0.899 6.011
557 47 11 +0.06 3.884 0.042 7.093
558 47 11 +0.06 4.269 1.862 7.417
559 47 11 +0.06 4.993 0.117 5.354
560 47 11 +0.06 5.378 1.937 5.678
561 48 9 +0.52 18.647 3.419 7.258
562 48 20 -0.50 19.776 3.040 7.108
563 48 19 -0.35 18.155 4.721 6.956
564 48 19 -0.35 17.566 2.647 7.769
565 48 2 +0.22 16.769 4.753 7.281
566 48 2 +0.22 16.405 3.471 7.783
567 48 11 +0.06 16.647 5.463 8.098
568 48 11 +0.06 16.224 4.897 6.347
569 48 11 +0.06 16.120 3.605 8.826
570 48 11 +0.06 15.697 3.039 7.076
571 49 9 +0.52 16.557 12.447 18.315
572 49 20 -0.50 17.725 12.710 18.393
573 49 19 -0.35 16.003 11.150 18.124
574 49 19 -0.35 15.482 13.377 18.396
575 49 2 +0.22 14.585 11.278 18.088
576 49 2 +0.22 14.264 12.655 18.256
577 49 11 +0.06 14.263 10.994 17.086
578 49 11 +0.06 14.193 10.749 18.956
579 49 11 +0.06 13.797 12.990 17.329
580 49 11 +0.06 13.727 12.745 19.200
581 50 9 +0.52 10.089 0.302 9.082
582 50 20 -0.50 9.931 -0.062 7.949
583 50 19 -0.35 9.107 0.281 10.112
584 50 19 -0.35 11.292 0.832 9.631
585 50 2 +0.22 9.702 0.797 11.298
586 50 2 +0.22 11.053 1.137 11.000
587 50 11 +0.06 9.184 1.725 11.539
588 50 11 +0.06 9.730 -0.016 12.023
589 50 11 +0.06 11.142 2.218 11.108
590 50 11 +0.06 11.687 0.477 11.592
591 51 9 +0.52 13.611 11.341 13.183
592 51 20 -0.50 13.267 11.479 14.324
593 51 19 -0.35 13.650 12.362 12.191
594 51 19 -0.35 14.051 10.128 12.582
595 51 2 +0.22 14.114 11.780 10.978
596 51 2 +0.22 14.362 10.399 11.219
597 51 11 +0.06 13.295 11.837 10.261
598 51 11 +0.06 15.074 12.242 10.747
599 51 11 +0.06 13.655 9.835 10.611
600 51 11 +0.06 15.434 10.240 11.097
601 52 9 +0.52 16.925 6.240 0.668
602 52 20 -0.50 17.370 5.141 0.484
603 52 19 -0.35 15.549 6.603 0.624
604 52 19 -0.35 17.679 7.410 0.968
605 52 2 +0.22 15.453 7.997 0.897
606 52 2 +0.22 16.770 8.496 1.109
607 52 11 +0.06 15.072 8.475 -0.005
608 52 11 +0.06 14.915 8.104 1.839
609 52 11 +0.06 16.980 9.197 0.302
610 52 11 +0.06 16.824 8.826 2.147
611 53 9 +0.52 6.535 7.821 19.562
612 53 20 -0.50 7.662 7.696 19.956
613 53 19 -0.35 6.066 8.831 18.674
614 53 19 -0.35 5.433 6.986 19.899
615 53 2 +0.22 4.674 8.620 18.463
616 53 2 +0.22 4.283 7.479 19.221
617 53 11 +0.06 4.152 9.478 18.885
618 53 11 +0.06 4.544 8.365 17.411
619 53 11 +0.06 3.585 7.825 19.983
620 53 11 +0.06 3.977 6.712 18.509
621 54 9 +0.52 8.364 3.277 1.135
622 54 20 -0.50 8.535 2.090 1.146
623 54 19 -0.35 8.137 4.100 2.274
624 54 19 -0.35 8.353 4.111 -0.019
625 54 2 +0.22 7.985 5.443 1.824
626 54 2 +0.22 8.119 5.449 0.406
627 54 11 +0.06 6.962 5.743 2.050
628 54 11 +0.06 8.822 6.012 2.227
629 54 11 +0.06 7.156 5.752 -0.005
630 54 11 +0.06 9.017 6.022 0.173
631 55 9 +0.52 2.229 15.745 8.095
632 55 20 -0.50 1.246 16.415 8.252
633 55 19 -0.35 3.517 16.223 7.722
634 55 19 -0.35 2.311 14.331 8.248
635 55 2 +0.22 4.396 15.105 7.645
636 55 2 +0.22 3.650 13.936 7.970
637 55 11 +0.06 4.703 15.010 6.604
638 55 11 +0.06 5.146 15.233 8.425
639 55 11 +0.06 3.622 13.315 7.075
640 55 11 +0.06 4.066 13.539 8.896
641 56 9 +0.52 5.638 12.825 0.924
642 56 20 -0.50 4.482 12.503 0.924
643 56 19 -0.35 6.754 11.939 0.924
644 56 19 -0.35 6.136 14.159 0.924
645 56 2 +0.22 7.940 12.726 0.924
646 56 2 +0.22 7.558 14.098 0.924
647 56 11 +0.06 8.451 12.536 1.868
648 56 11 +0.06 8.451 12.536 -0.020
649 56 11 +0.06 7.897 14.525 1.868
650 56 11 +0.06 7.897 14.524 -0.020
651 57 9 +0.52 0.639 9.059 19.671
652 57 20 -0.50 0.118 8.030 20.000
653 57 19 -0.35 -0.010 10.317 19.525
654 57 19 -0.35 2.017 9.236 19.357
655 57 2 +0.22 0.966 11.272 19.121
656 57 2 +0.22 2.219 10.603 19.017
657 57 11 +0.06 0.695 11.602 18.118
658 57 11 +0.06 1.056 11.999 19.928
659 57 11 +0.06 2.511 10.633 17.968
660 57 11 +0.06 2.873 11.030 19.778
661 58 9 +0.52 12.206 19.441 9.090
662 58 20 -0.50 13.178 19.999 8.660
663 58 19 -0.35 11.833 18.092 8.831
664 58 19 -0.35 11.225 20.012 9.950
665 58 2 +0.22 10.621 17.828 9.531
666 58 2 +0.22 10.246 19.015 10.223
667 58 11 +0.06 9.853 17.638 8.782
668 58 11 +0.06 10.844 17.075 10.286
669 58 11 +0.06 9.309 19.358 9.784
670 58 11 +0.06 10.300 18.795 11.289
671 59 9 +0.52 13.774 11.876 0.711
672 59 20 -0.50 14.949 12.094 0.598
673 59 19 -0.35 13.168 10.591 0.816
674 59 19 -0.35 12.742 12.855 0.764
675 59 2 +0.22 11.761 10.778 0.933
676 59 2 +0.22 11.498 12.177 0.901
677 59 11 +0.06 11.305 10.346 0.043
678 59 11 +0.06 11.472 10.420 1.922
679 59 11 +0.06 10.924 12.374 -0.004
680 59 11 +0.06 11.091 12.448 1.875
681 60 9 +0.52 2.855 18.708 14.043
682 60 20 -0.50 1.738 19.118 13.886
683 60 19 -0.35 4.031 19.504 14.145
684 60 19 -0.35 3.237 17.342 14.160
685 60 2 +0.22 5.140 18.629 14.325
686 60 2 +0.22 4.649 17.293 14.335
687 60 11 +0.06 5.775 18.731 13.445
688 60 11 +0.06 5.547 18.828 15.317
689 60 11 +0.06 5.063 16.793 13.459
690 60 11 +0.06 4.835 16.890 15.331
691 61 9 +0.52 12.990 2.790 18.140
692 61 20 -0.50 12.115 1.983 18.299
693 61 19 -0.35 13.168 3.989 18.887
694 61 19 -0.35 14.031 2.715 17.172
695 61 2 +0.22 14.320 4.655 18.381
696 61 2 +0.22 14.853 3.868 17.321
697 61 11 +0.06 13.980 5.594 17.943
698 61 11 +0.06 15.062 4.663 19.179
699 61 11 +0.06 14.754 4.453 16.406
700 61 11 +0.06 15.836 3.522 17.643
701 62 9 +0.52 10.267 3.772 9.041
702 62 20 -0.50 9.896 2.673 9.352
703 62 19 -0.35 9.699 4.590 8.023
704 62 19 -0.35 11.351 4.486 9.626
705 62 2 +0.22 10.433 5.809 7.979
706 62 2 +0.22 11.453 5.745 8.970
707 62 11 +0.06 10.929 5.850 7.010
708 62 11 +0.06 9.749 6.605 8.275
709 62 11 +0.06 12.409 5.756 8.446
710 62 11 +0.06 11.229 6.512 9.711
711 63 9 +0.52 3.836 17.296 5.124
712 63 20 -0.50 3.291 16.305 5.524
713 63 19 -0.35 3.533 17.989 3.918
714 63 19 -0.35 4.899 17.987 5.773
715 63 2 +0.22 4.409 19.107 3.821
716 63 2 +0.22 5.253 19.106 4.968
717 63 11 +0.06 5.047 18.940 2.953
718 63 11 +0.06 3.792 20.004 3.879
719 63 11 +0.06 6.271 18.938 4.616
720 63 11 +0.06 5.015 20.002 5.541
721 64 9 +0.52 8.515 12.722 8.186
722 64 20 -0.50 7.389 13.025 7.903
723 64 19 -0.35 9.365 13.416 9.094
724 64 19 -0.35 9.236 11.607 7.673
725 64 2 +0.22 10.611 12.729 9.142
726 64 2 +0.22 10.531 11.611 8.264
727 64 11 +0.06 11.365 13.402 8.734
728 64 11 +0.06 10.721 12.335 10.152
729 64 11 +0.06 11.249 11.782 7.461
730 64 11 +0.06 10.605 10.714 8.879
731 65 31 1.0 6.504 11.011 8.103
732 66 31 1.0 4.046 17.240 17.358
733 67 31 1.0 12.757 8.642 1.769
734 68 31 1.0 15.405 4.873 10.809
735 69 31 1.0 17.496 18.557 17.481
736 70 27 +1.34 18.801 1.154 1.512
737 70 26 -0.39 18.857 1.643 3.024
738 70 26 -0.39 18.744 0.665 -0.000
739 70 26 -0.39 17.601 0.175 1.874
740 70 26 -0.39 20.000 2.133 1.150
741 70 26 -0.39 19.843 0.001 1.846
742 70 26 -0.39 17.758 2.307 1.178
743 71 27 +1.34 19.069 11.442 7.726
744 71 26 -0.39 18.124 12.651 8.144
745 71 26 -0.39 20.014 10.234 7.307
746 71 26 -0.39 20.017 12.453 6.946
747 71 26 -0.39 18.121 10.431 8.505
748 71 26 -0.39 18.211 11.228 6.404
749 71 26 -0.39 19.927 11.656 9.047
750 72 27 +1.34 18.876 16.442 13.434
751 72 26 -0.39 20.000 15.337 13.643
752 72 26 -0.39 17.752 17.547 13.226
753 72 26 -0.39 20.000 17.538 13.180
754 72 26 -0.39 17.752 15.347 13.689
755 72 26 -0.39 18.909 16.770 14.990
756 72 26 -0.39 18.843 16.115 11.879
757 73 27 +1.34 18.241 1.069 15.185
758 73 26 -0.39 17.076 0.266 14.460
759 73 26 -0.39 19.406 1.872 15.909
760 73 26 -0.39 18.273 -0.021 16.342
761 73 26 -0.39 18.210 2.159 14.028
762 73 26 -0.39 17.160 1.903 15.999
763 73 26 -0.39 19.323 0.235 14.370
764 74 27 +1.34 18.724 7.936 14.683
765 74 26 -0.39 17.851 6.650 14.349
766 74 26 -0.39 19.598 9.222 15.016
767 74 26 -0.39 17.396 8.791 14.866
768 74 26 -0.39 20.052 7.081 14.499
769 74 26 -0.39 18.755 8.315 13.139
770 74 26 -0.39 18.693 7.557 16.227

Bonds

1 8 1 2
2 7 1 3
3 7 1 4
4 7 3 5
5 7 4 6
6 4 5 7
7 4 5 8
8 4 5 9
9 4 6 10
10 4 6 11
11 4 6 12
12 8 13 14
13 7 13 15
14 7 13 16
15 7 15 17
16 7 16 18
17 4 17 19
18 4 17 20
19 4 17 21
20 4 18 22
21 4 18 23
22 4 18 24
23 8 25 26
24 7 25 27
25 7 25 28
26 7 27 29
27 7 28 30
28 4 29 31
29 4 29 32
30 4 29 33
31 4 30 34
32 4 30 35
33 4 30 36
34 8 37 38
35 7 37 39
36 7 37 40
37 7 39 41
38 7 40 42
39 4 41 43
40 4 41 44
41 4 41 45
42 4 42 46
43 4 42 47
44 4 42 48
45 8 49 50
46 7 49 51
47 7 49 52
48 7 51 53
49 7 52 54
50 4 53 55
51 4 53 56
52 4 53 57
53 4 54 58
54 4 54 59
55 4 54 60
56 8 61 62
57 7 61 63
58 7 61 64
59 7 63 65
60 7 64 66
61 4 65 67
62 4 65 68
63 4 65 69
64 4 66 70
65 4 66 71
66 4 66 72
67 8 73 74
68 7 73 75
69 7 73 76
70 7 75 77
71 7 76 78
72 4 77 79
73 4 77 80
74 4 77 81
75 4 78 82
76 4 78 83
77 4 78 84
78 8 85 86
79 7 85 87
80 7 85 88
81 7 87 89
82 7 88 90
83 4 89 91
84 4 89 92
85 4 89 93
86 4 90 94
87 4 90 95
88 4 90 96
89 8 97 98
90 7 97 99
91 7 97 100
92 7 99 101
93 7 100 102
94 4 101 103
95 4 101 104
96 4 101 105
97 4 102 106
98 4 102 107
99 4 102 108
100 8 109 110
101 7 109 111
102 7 109 112
103 7 111 113
104 7 112 114
105 4 113 115
106 4 113 116
107 4 113 117
108 4 114 118
109 4 114 119
110 4 114 120
111 8 121 122
112 7 121 123
113 7 121 124
114 7 123 125
115 7 124 126
116 4 125 127
117 4 125 128
118 4 125 129
119 4 126 130
120 4 126 131
121 4 126 132
122 8 133 134
123 7 133 135
124 7 133 136
125 7 135 137
126 7 136 138
127 4 137 139
128 4 137 140
129 4 137 141
130 4 138 142
131 4 138 143
132 4 138 144
133 8 145 146
134 7 145 147
135 7 145 148
136 7 147 149
137 7 148 150
138 4 149 151
139 4 149 152
140 4 149 153
141 4 150 154
142 4 150 155
143 4 150 156
144 8 157 158
145 7 157 159
146 7 157 160
147 7 159 161
148 7 160 162
149 4 161 163
150 4 161 164
151 4 161 165
152 4 162 166
153 4 162 167
154 4 162 168
155 8 169 170
156 7 169 171
157 7 169 172
158 7 171 173
159 7 172 174
160 4 173 175
161 4 173 176
162 4 173 177
163 4 174 178
164 4 174 179
165 4 174 180
166 8 181 182
167 7 181 183
168 7 181 184
169 7 183 185
170 7 184 186
171 4 185 187
172 4 185 188
173 4 185 189
174 4 186 190
175 4 186 191
176 4 186 192
177 8 193 194
178 7 193 195
179 7 193 196
180 7 195 197
181 7 196 198
182 4 197 199
183 4 197 200
184 4 197 201
185 4 198 202
186 4 198 203
187 4 198 204
188 8 205 206
189 7 205 207
190 7 205 208
191 7 207 209
192 7 208 210
193 4 209 211
194 4 209 212
195 4 209 213
196 4 210 214
197 4 210 215
198 4 210 216
199 8 217 218
200 7 217 219
201 7 217 220
202 7 219 221
203 7 220 222
204 4 221 223
205 4 221 224
206 4 221 225
207 4 222 226
208 4 222 227
209 4 222 228
210 8 229 230
211 7 229 231
212 7 229 232
213 7 231 233
214 7 232 234
215 4 233 235
216 4 233 236
217 4 233 237
218 4 234 238
219 4 234 239
220 4 234 240
221 8 241 242
222 7 241 243
223 7 241 244
224 7 243 245
225 7 244 246
226 4 245 247
227 4 245 248
228 4 245 249
229 4 246 250
230 4 246 251
231 4 246 252
232 8 253 254
233 7 253 255
234 7 253 256
235 7 255 257
236 7 256 258
237 4 257 259
238 4 257 260
239 4 257 261
240 4 258 262
241 4 258 263
242 4 258 264
243 8 265 266
244 7 265 267
245 7 265 268
246 7 267 269
247 7 268 270
248 4 269 271
249 4 269 272
250 4 269 273
251 4 270 274
252 4 270 275
253 4 270 276
254 8 277 278
255 7 277 279
256 7 277 280
257 7 279 281
258 7 280 282
259 4 281 283
260 4 281 284
261 4 281 285
262 4 282 286
263 4 282 287
264 4 282 288
265 8 289 290
266 7 289 291
267 7 289 292
268 7 291 293
269 7 292 294
270 4 293 295
271 4 293 296
272 4 293 297
273 4 294 298
274 4 294 299
275 4 294 300
276 8 301 302
277 7 301 303
278 7 301 304
279 7 303 305
280 7 304 306
281 4 305 307
282 4 305 308
283 4 305 309
284 4 306 310
285 4 306 311
286 4 306 312
287 8 313 314
288 7 313 315
289 7 313 316
290 7 315 317
291 7 316 318
292 4 317 319
293 4 317 320
294 4 317 321
295 4 318 322
296 4 318 323
297 4 318 324
298 8 325 326
299 7 325 327
300 7 325 328
301 7 327 329
302 7 328 330
303 4 329 331
304 4 329 332
305 4 329 333
306 4 330 334
307 4 330 335
308 4 330 336
309 8 337 338
310 7 337 339
311 7 337 340
312 7 339 341
313 7 340 342
314 4 341 343
315 4 341 344
316 4 341 345
317 4 342 346
318 4 342 347
319 4 342 348
320 8 349 350
321 7 349 351
322 7 349 352
323 7 351 353
324 7 352 354
325 4 353 355
326 4 353 356
327 4 353 357
328 4 354 358
329 4 354 359
330 4 354 360
331 8 361 362
332 7 361 363
333 7 361 364
334 7 363 365
335 7 364 366
336 4 365 367
337 4 365 368
338 4 365 369
339 4 366 370
340 4 366 371
341 4 366 372
342 8 373 374
343 7 373 375
344 7 373 376
345 7 375 377
346 7 376 378
347 4 377 379
348 4 377 380
349 4 377 381
350 4 378 382
351 4 378 383
352 4 378 384
353 8 385 386
354 7 385 387
355 7 385 388
356 7 387 389
357 7 388 390
358 4 389 391
359 4 389 392
360 4 389 393
361 4 390 394
362 4 390 395
363 4 390 396
364 8 397 398
365 7 397 399
366 7 397 400
367 7 399 401
368 7 400 402
369 4 401 403
370 4 401 404
371 4 401 405
372 4 402 406
373 4 402 407
374 4 402 408
375 8 409 410
376 7 409 411
377 7 409 412
378 7 411 413
379 7 412 414
380 4 413 415
381 4 413 416
382 4 413 417
383 4 414 418
384 4 414 419
385 4 414 420
386 8 421 422
387 7 421 423
388 7 421 424
389 7 423 425
390 7 424 426
391 4 425 427
392 4 425 428
393 4 425 429
394 4 426 430
395 4 426 431
396 4 426 432
397 8 433 434
398 7 433 435
399 7 433 436
400 7 435 437
401 7 436 438
402 4 437 439
403 4 437 440
404 4 437 441
405 4 438 442
406 4 438 443
407 4 438 444
408 8 445 446
409 7 445 447
410 7 445 448
411 7 447 449
412 7 448 450
413 4 449 451
414 4 449 452
415 4 449 453
416 4 450 454
417 4 450 455
418 4 450 456
419 8 457 458
420 7 457 459
421 7 457 460
422 7 459 461
423 7 460 462
424 4 461 463
425 4 461 464
426 4 461 465
427 4 462 466
428 4 462 467
429 4 462 468
430 8 469 470
431 7 469 471
432 7 469 472
433 7 471 473
434 7 472 474
435 4 473 475
436 4 473 476
437 4 473 477
438 4 474 478
439 4 474 479
440 4 474 480
441 8 481 482
442 7 481 483
443 7 481 484
444 7 483 485
445 7 484 486
446 4 485 487
447 4 485 488
448 4 485 489
449 4 486 490
450 4 486 491
451 4 486 492
452 8 493 494
453 7 493 495
454 7 493 496
455 7 495 497
456 7 496 498
457 4 497 499
458 4 497 500
459 4 497 501
460 4 498 502
461 4 498 503
462 4 498 504
463 8 505 506
464 7 505 507
465 7 505 508
466 7 507 509
467 7 508 510
468 4 509 511
469 4 509 512
470 4 509 513
471 4 510 514
472 4 510 515
473 4 510 516
474 8 517 518
475 7 517 519
476 7 517 520
477 7 519 521
478 7 520 522
479 4 521 523
480 4 521 524
481 4 521 525
482 4 522 526
483 4 522 527
484 4 522 528
485 8 529 530
486 7 529 531
487 7 529 532
488 7 531 533
489 7 532 534
490 4 533 535
491 4 533 536
492 4 533 537
493 4 534 538
494 4 534 539
495 4 534 540
496 8 541 542
497 7 541 543
498 7 541 544
499 7 543 546
500 7 544 545
501 1 545 546
502 4 546 547
503 4 546 548
504 4 545 549
505 4 545 550
506 8 551 552
507 7 551 553
508 7 551 554
509 7 553 556
510 7 554 555
511 1 555 556
512 4 556 557
513 4 556 558
514 4 555 559
515 4 555 560
516 8 561 562
517 7 561 563
518 7 561 564
519 7 563 566
520 7 564 565
521 1 565 566
522 4 566 567
523 4 566 568
524 4 565 569
525 4 565 570
526 8 571 572
527 7 571 573
528 7 571 574
529 7 573 576
530 7 574 575
531 1 575 576
532 4 576 577
533 4 576 578
534 4 575 579
535 4 575 580
536 8 581 582
537 7 581 583
538 7 581 584
539 7 583 586
540 7 584 585
541 1 585 586
542 4 586 587
543 4 586 588
544 4 585 589
545 4 585 590
546 8 591 592
547 7 591 593
548 7 591 594
549 7 593 596
550 7 594 595
551 1 595 596
552 4 596 597
553 4 596 598
554 4 595 599
555 4 595 600
556 8 601 602
557 7 601 603
558 7 601 604
559 7 603 606
560 7 604 605
561 1 605 606
562 4 606 607
563 4 606 608
564 4 605 609
565 4 605 610
566 8 611 612
567 7 611 613
568 7 611 614
569 7 613 616
570 7 614 615
571 1 615 616
572 4 616 617
573 4 616 618
574 4 615 619
575 4 615 620
576 8 621 622
577 7 621 623
578 7 621 624
579 7 623 626
580 7 624 625
581 1 625 626
582 4 626 627
583 4 626 628
584 4 625 629
585 4 625 630
586 8 631 632
587 7 631 633
588 7 631 634
589 7 633 636
590 7 634 635
591 1 635 636
592 4 636 637
593 4 636 638
594 4 635 639
595 4 635 640
596 8 641 642
597 7 641 643
598 7 641 644
599 7 643 646
600 7 644 645
601 1 645 646
602 4 646 647
603 4 646 648
604 4 645 649
605 4 645 650
606 8 651 652
607 7 651 653
608 7 651 654
609 7 653 656
610 7 654 655
611 1 655 656
612 4 656 657
613 4 656 658
614 4 655 659
615 4 655 660
616 8 661 662
617 7 661 663
618 7 661 664
619 7 663 666
620 7 664 665
621 1 665 666
622 4 666 667
623 4 666 668
624 4 665 669
625 4 665 670
626 8 671 672
627 7 671 673
628 7 671 674
629 7 673 676
630 7 674 675
631 1 675 676
632 4 676 677
633 4 676 678
634 4 675 679
635 4 675 680
636 8 681 682
637 7 681 683
638 7 681 684
639 7 683 686
640 7 684 685
641 1 685 686
642 4 686 687
643 4 686 688
644 4 685 689
645 4 685 690
646 8 691 692
647 7 691 693
648 7 691 694
649 7 693 696
650 7 694 695
651 1 695 696
652 4 696 697
653 4 696 698
654 4 695 699
655 4 695 700
656 8 701 702
657 7 701 703
658 7 701 704
659 7 703 706
660 7 704 705
661 1 705 706
662 4 706 707
663 4 706 708
664 4 705 709
665 4 705 710
666 8 711 712
667 7 711 713
668 7 711 714
669 7 713 716
670 7 714 715
671 1 715 716
672 4 716 717
673 4 716 718
674 4 715 719
675 4 715 720
676 8 721 722
677 7 721 723
678 7 721 724
679 7 723 726
680 7 724 725
681 1 725 726
682 4 726 727
683 4 726 728
684 4 725 729
685 4 725 730
686 15 736 737
687 15 736 738
688 15 736 739
689 15 736 740
690 15 736 741
691 15 736 742
692 15 743 744
693 15 743 745
694 15 743 746
695 15 743 747
696 15 743 748
697 15 743 749
698 15 750 751
699 15 750 752
700 15 750 753
701 15 750 754
702 15 750 755
703 15 750 756
704 15 757 758
705 15 757 759
706 15 757 760
707 15 757 761
708 15 757 762
709 15 757 763
710 15 764 765
711 15 764 766
712 15 764 767
713 15 764 768
714 15 764 769
715 15 764 770

Angles

1 11 2 1 3
2 11 2 1 4
3 12 3 1 4
4 9 1 3 5
5 9 1 4 6
6 4 3 5 7
7 4 3 5 8
8 4 3 5 9
9 4 4 6 10
10 4 4 6 11
11 4 4 6 12
12 7 7 5 8
13 7 7 5 9
14 7 8 5 9
15 7 10 6 11
16 7 10 6 12
17 7 11 6 12
18 11 14 13 15
19 11 14 13 16
20 12 15 13 16
21 9 13 15 17
22 9 13 16 18
23 4 15 17 19
24 4 15 17 20
25 4 15 17 21
26 4 16 18 22
27 4 16 18 23
28 4 16 18 24
29 7 19 17 20
30 7 19 17 21
31 7 20 17 21
32 7 22 18 23
33 7 22 18 24
34 7 23 18 24
35 11 26 25 27
36 11 26 25 28
37 12 27 25 28
38 9 25 27 29
39 9 25 28 30
40 4 27 29 31
41 4 27 29 32
42 4 27 29 33
43 4 28 30 34
44 4 28 30 35
45 4 28 30 36
46 7 31 29 32
47 7 31 29 33
48 7 32 29 33
49 7 34 30 35
50 7 34 30 36
51 7 35 30 36
52 11 38 37 39
53 11 38 37 40
54 12 39 37 40
55 9 37 39 41
56 9 37 40 42
57 4 39 41 43
58 4 39 41 44
59 4 39 41 45
60 4 40 42 46
61 4 40 42 47
62 4 40 42 48
63 7 43 41 44
64 7 43 41 45
65 7 44 41 45
66 7 46 42 47
67 7 46 42 48
68 7 47 42 48
69 11 50 49 51
70 11 50 49 52
71 12 51 49 52
72 9 49 51 53
73 9 49 52 54
74 4 51 53 55
75 4 51 53 56
76 4 51 53 57
77 4 52 54 58
78 4 52 54 59
79 4 52 54 60
80 7 55 53 56
81 7 55 53 57
82 7 56 53 57
83 7 58 54 59
84 7 58 54 60
85 7 59 54 60
86 11 62 61 63
87 11 62 61 64
88 12 63 61 64
89 9 61 63 65
90 9 61 64 66
91 4 63 65 67
92 4 63 65 68
93 4 63 65 69
94 4 64 66 70
95 4 64 66 71
96 4 64 66 72
97 7 67 65 68
98 7 67 65 69
99 7 68 65 69
100 7 70 66 71
101 7 70 66 72
102 7 71 66 72
103 11 74 73 75
104 11 74 73 76
105 12 75 73 76
106 9 73 75 77
107 9 73 76 78
108 4 75 77 79
109 4 75 77 80
110 4 75 77 81
111 4 76 78 82
112 4 76 78 83
113 4 76 78 84
114 7 79 77 80
115 7 79 77 81
116 7 80 77 81
117 7 82 78 83
118 7 82 78 84
119 7 83 78 84
120 11 86 85 87
121 11 86 85 88
122 12 87 85 88
123 9 85 87 89
124 9 85 88 90
125 4 87 89 91
126 4 87 89 92
127 4 87 89 93
128 4 88 90 94
129 4 88 90 95
130 4 88 90 96
131 7 91 89 92
132 7 91 89 93
133 7 92 89 93
134 7 94 90 95
135 7 94 90 96
136 7 95 90 96
137 11 98 97 99
138 11 98 97 100
139 12 99 97 100
140 9 97 99 101
141 9 97 100 102
142 4 99 101 103
143 4 99 101 104
144 4 99 101 105
145 4 100 102 106
146 4 100 102 107
147 4 100 102 108
148 7 103 101 104
149 7 103 101 105
150 7 104 101 105
151 7 106 102 107
152 7 106 102 108
153 7 107 102 108
154 11 110 109 111
155 11 110 109 112
156 12 111 109 112
157 9 109 111 113
158 9 109 112 114
159 4 111 113 115
160 4 111 113 116
161 4 111 113 117
162 4 112 114 118
163 4 112 114 119
164 4 112 114 120
165 7 115 113 116
166 7 115 113 117
167 7 116 113 117
168 7 118 114 119
169 7 118 114 120
170 7 119 114 120
171 11 122 121 123
172 11 122 121 124
173 12 123 121 124
174 9 121 123 125
175 9 121 124 126
176 4 123 125 127
177 4 123 125 128
178 4 123 125 129
179 4 124 126 130
180 4 124 126 131
181 4 124 126 132
182 7 127 125 128
183 7 127 125 129
184 7 128 125 129
185 7 130 126 131
186 7 130 126 132
187 7 131 126 132
188 11 134 133 135
189 11 134 133 136
190 12 135 133 136
191 9 133 135 137
192 9 133 136 138
193 4 135 137 139
194 4 135 137 140
195 4 135 137 141
196 4 136 138 142
197 4 136 138 143
198 4 136 138 144
199 7 139 137 140
200 7 139 137 141
201 7 140 137 141
202 7 142 138 143
203 7 142 138 144
204 7 143 138 144
205 11 146 145 147
206 11 146 145 148
207 12 147 145 148
208 9 145 147 149
209 9 145 148 150
210 4 147 149 151
211 4 147 149 152
212 4 147 149 153
213 4 148 150 154
214 4 148 150 155
215 4 148 150 156
216 7 151 149 152
217 7 151 149 153
218 7 152 149 153
219 7 154 150 155
220 7 154 150 156
221 7 155 150 156
222 11 158 157 159
223 11 158 157 160
224 12 159 157 160
225 9 157 159 161
226 9 157 160 162
227 4 159 161 163
228 4 159 161 164
229 4 159 161 165
230 4 160 162 166
231 4 160 162 167
232 4 160 162 168
233 7 163 161 164
234 7 163 161 165
235 7 164 161 165
236 7 166 162 167
237 7 166 162 168
238 7 167 162 168
239 11 170 169 171
240 11 170 169 172
241 12 171 169 172
242 9 169 171 173
243 9 169 172 174
244 4 171 173 175
245 4 171 173 176
246 4 171 173 177
247 4 172 174 178
248 4 172 174 179
249 4 172 174 180
250 7 175 173 176
251 7 175 173 177
252 7 176 173 177
253 7 178 174 179
254 7 178 174 180
255 7 179 174 180
256 11 182 181 183
257 11 182 181 184
258 12 183 181 184
259 9 181 183 185
260 9 181 184 186
261 4 183 185 187
262 4 183 185 188
263 4 183 185 189
264 4 184 186 190
265 4 184 186 191
266 4 184 186 192
267 7 187 185 188
268 7 187 185 189
269 7 188 185 189
270 7 190 186 191
271 7 190 186 192
272 7 191 186 192
273 11 194 193 195
274 11 194 193 196
275 12 195 193 196
276 9 193 195 197
277 9 193 196 198
278 4 195 197 199
279 4 195 197 200
280 4 195 197 201
281 4 196 198 202
282 4 196 198 203
283 4 196 198 204
284 7 199 197 200
285 7 199 197 201
286 7 200 197 201
287 7 202 198 203
288 7 202 198 204
289 7 203 198 204
290 11 206 205 207
291 11 206 205 208
292 12 207 205 208
293 9 205 207 209
294 9 205 208 210
295 4 207 209 211
296 4 207 209 212
297 4 207 209 213
298 4 208 210 214
299 4 208 210 215
300 4 208 210 216
301 7 211 209 212
302 7 211 209 213
303 7 212 209 213
304 7 214 210 215
305 7 214 210 216
306 7 215 210 216
307 11 218 217 219
308 11 218 217 220
309 12 219 217 220
310 9 217 219 221
311 9 217 220 222
312 4 219 221 223
313 4 219 221 224
314 4 219 221 225
315 4 220 222 226
316 4 220 222 227
317 4 220 222 228
318 7 223 221 224
319 7 223 221 225
320 7 224 221 225
321 7 226 222 227
322 7 226 222 228
323 7 227 222 228
324 11 230 229 231
325 11 230 229 232
326 12 231 229 232
327 9 229 231 233
328 9 229 232 234
329 4 231 233 235
330 4 231 233 236
331 4 231 233 237
332 4 232 234 238
333 4 232 234 239
334 4 232 234 240
335 7 235 233 236
336 7 235 233 237
337 7 236 233 237
338 7 238 234 239
339 7 238 234 240
340 7 239 234 240
341 11 242 241 243
342 11 242 241 244
343 12 243 241 244
344 9 241 243 245
345 9 241 244 246
346 4 243 245 247
347 4 243 245 248
348 4 243 245 249
349 4 244 246 250
350 4 244 246 251
351 4 244 246 252
352 7 247 245 248
353 7 247 245 249
354 7 248 245 249
355 7 250 246 251
356 7 250 246 252
357 7 251 246 252
358 11 254 253 255
359 11 254 253 256
360 12 255 253 256
361 9 253 255 257
362 9 253 256 258
363 4 255 257 259
364 4 255 257 260
365 4 255 257 261
366 4 256 258 262
367 4 256 258 263
368 4 256 258 264
369 7 259 257 260
370 7 259 257 261
371 7 260 257 261
372 7 262 258 263
373 7 262 258 264
374 7 263 258 264
375 11 266 265 267
376 11 266 265 268
377 12 267 265 268
378 9 265 267 269
379 9 265 268 270
380 4 267 269 271
381 4 267 269 272
382 4 267 269 273
383 4 268 270 274
384 4 268 270 275
385 4 268 270 276
386 7 271 269 272
387 7 271 269 273
388 7 272 269 273
389 7 274 270 275
390 7 274 270 276
391 7 275 270 276
392 11 278 277 279
393 11 278 277 280
394 12 279 277 280
395 9 277 279 281
396 9 277 280 282
397 4 279 281 283
398 4 279 281 284
399 4 279 281 285
400 4 280 282 286
401 4 280 282 287
402 4 280 282 288
403 7 283 281 284
404 7 283 281 285
405 7 284 281 285
406 7 286 282 287
407 7 286 282 288
408 7 287 282 288
409 11 290 289 291
410 11 290 289 292
411 12 291 289 292
412 9 289 291 293
413 9 289 292 294
414 4 291 293 295
415 4 291 293 296
416 4 291 293 297
417 4 292 294 298
418 4 292 294 299
419 4 292 294 300
420 7 295 293 296
421 7 295 293 297
422 7 296 293 297
423 7 298 294 299
424 7 298 294 300
425 7 299 294 300
426 11 302 301 303
427 11 302 301 304
428 12 303 301 304
429 9 301 303 305
430 9 301 304 306
431 4 303 305 307
432 4 303 305 308
433 4 303 305 309
434 4 304 306 310
435 4 304 306 311
436 4 304 306 312
437 7 307 305 308
438 7 307 305 309
439 7 308 305 309
440 7 310 306 311
441 7 310 306 312
442 7 311 306 312
443 11 314 313 315
444 11 314 313 316
445 12 315 313 316
446 9 313 315 317
447 9 313 316 318
448 4 315 317 319
449 4 315 317 320
450 4 315 317 321
451 4 316 318 322
452 4 316 318 323
453 4 316 318 324
454 7 319 317 320
455 7 319 317 321
456 7 320 317 321
457 7 322 318 323
458 7 322 318 324
459 7 323 318 324
460 11 326 325 327
461 11 326 325 328
462 12 327 325 328
463 9 325 327 329
464 9 325 328 330
465 4 327 329 331
466 4 327 329 332
467 4 327 329 333
468 4 328 330 334
469 4 328 330 335
470 4 328 330 336
471 7 331 329 332
472 7 331 329 333
473 7 332 329 333
474 7 334 330 335
475 7 334 330 336
476 7 335 330 336
477 11 338 337 339
478 11 338 337 340
479 12 339 337 340
480 9 337 339 341
481 9 337 340 342
482 4 339 341 343
483 4 339 341 344
484 4 339 341 345
485 4 340 342 346
486 4 340 342 347
487 4 340 342 348
488 7 343 341 344
489 7 343 341 345
490 7 344 341 345
491 7 346 342 347
492 7 346 342 348
493 7 347 342 348
494 11 350 349 351
495 11 350 349 352
496 12 351 349 352
497 9 349 351 353
498 9 349 352 354
499 4 351 353 355
500 4 351 353 356
501 4 351 353 357
502 4 352 354 358
503 4 352 354 359
504 4 352 354 360
505 7 355 353 356
506 7 355 353 357
507 7 356 353 357
508 7 358 354 359
509 7 358 354 360
510 7 359 354 360
511 11 362 361 363
512 11 362 361 364
513 12 363 361 364
514 9 361 363 365
515 9 361 364 366
516 4 363 365 367
517 4 363 365 368
518 4 363 365 369
519 4 364 366 370
520 4 364 366 371
521 4 364 366 372
522 7 367 365 368
523 7 367 365 369
524 7 368 365 369
525 7 370 366 371
526 7 370 366 372
527 7 371 366 372
528 11 374 373 375
529 11 374 373 376
530 12 375 373 376
531 9 373 375 377
532 9 373 376 378
533 4 375 377 379
534 4 375 377 380
535 4 375 377 381
536 4 376 378 382
537 4 376 378 383
538 4 376 378 384
539 7 379 377 380
540 7 379 377 381
541 7 380 377 381
542 7 382 378 383
543 7 382 378 384
544 7 383 378 384
545 11 386 385 387
546 11 386 385 388
547 12 387 385 388
548 9 385 387 389
549 9 385 388 390
550 4 387 389 391
551 4 387 389 392
552 4 387 389 393
553 4 388 390 394
554 4 388 390 395
555 4 388 390 396
556 7 391 389 392
557 7 391 389 393
558 7 392 389 393
559 7 394 390 395
560 7 394 390 396
561 7 395 390 396
562 11 398 397 399
563 11 398 397 400
564 12 399 397 400
565 9 397 399 401
566 9 397 400 402
567 4 399 401 403
568 4 399 401 404
569 4 399 401 405
570 4 400 402 406
571 4 400 402 407
572 4 400 402 408
573 7 403 401 404
574 7 403 401 405
575 7 404 401 405
576 7 406 402 407
577 7 406 402 408
578 7 407 402 408
579 11 410 409 411
580 11 410 409 412
581 12 411 409 412
582 9 409 411 413
583 9 409 412 414
584 4 411 413 415
585 4 411 413 416
586 4 411 413 417
587 4 412 414 418
588 4 412 414 419
589 4 412 414 420
590 7 415 413 416
591 7 415 413 417
592 7 416 413 417
593 7 418 414 419
594 7 418 414 420
595 7 419 414 420
596 11 422 421 423
597 11 422 421 424
598 12 423 421 424
599 9 421 423 425
600 9 421 424 426
601 4 423 425 427
602 4 423 425 428
603 4 423 425 429
604 4 424 426 430
605 4 424 426 431
606 4 424 426 432
607 7 427 425 428
608 7 427 425 429
609 7 428 425 429
610 7 430 426 431
611 7 430 426 432
612 7 431 426 432
613 11 434 433 435
614 11 434 433 436
615 12 435 433 436
616 9 433 435 437
617 9 433 436 438
618 4 435 437 439
619 4 435 437 440
620 4 435 437 441
621 4 436 438 442
622 4 436 438 443
623 4 436 438 444
624 7 439 437 440
625 7 439 437 441
626 7 440 437 441
627 7 442 438 443
628 7 442 438 444
629 7 443 438 444
630 11 446 445 447
631 11 446 445 448
632 12 447 445 448
633 9 445 447 449
634 9 445 448 450
635 4 447 449 451
636 4 447 449 452
637 4 447 449 453
638 4 448 450 454
639 4 448 450 455
640 4 448 450 456
641 7 451 449 452
642 7 451 449 453
643 7 452 449 453
644 7 454 450 455
645 7 454 450 456
646 7 455 450 456
647 11 458 457 459
648 11 458 457 460
649 12 459 457 460
650 9 457 459 461
651 9 457 460 462
652 4 459 461 463
653 4 459 461 464
654 4 459 461 465
655 4 460 462 466
656 4 460 462 467
657 4 460 462 468
658 7 463 461 464
659 7 463 461 465
660 7 464 461 465
661 7 466 462 467
662 7 466 462 468
663 7 467 462 468
664 11 470 469 471
665 11 470 469 472
666 12 471 469 472
667 9 469 471 473
668 9 469 472 474
669 4 471 473 475
670 4 471 473 476
671 4 471 473 477
672 4 472 474 478
673 4 472 474 479
674 4 472 474 480
675 7 475 473 476
676 7 475 473 477
677 7 476 473 477
678 7 478 474 479
679 7 478 474 480
680 7 479 474 480
681 11 482 481 483
682 11 482 481 484
683 12 483 481 484
684 9 481 483 485
685 9 481 484 486
686 4 483 485 487
687 4 483 485 488
688 4 483 485 489
689 4 484 486 490
690 4 484 486 491
691 4 484 486 492
692 7 487 485 488
693 7 487 485 489
694 7 488 485 489
695 7 490 486 491
696 7 490 486 492
697 7 491 486 492
698 11 494 493 495
699 11 494 493 496
700 12 495 493 496
701 9 493 495 497
702 9 493 496 498
703 4 495 497 499
704 4 495 497 500
705 4 495 497 501
706 4 496 498 502
707 4 496 498 503
708 4 496 498 504
709 7 499 497 500
710 7 499 497 501
711 7 500 497 501
712 7 502 498 503
713 7 502 498 504
714 7 503 498 504
715 11 506 505 507
716 11 506 505 508
717 12 507 505 508
718 9 505 507 509
719 9 505 508 510
720 4 507 509 511
721 4 507 509 512
722 4 507 509 513
723 4 508 510 514
724 4 508 510 515
725 4 508 510 516
726 7 511 509 512
727 7 511 509 513
728 7 512 509 513
729 7 514 510 515
730 7 514 510 516
731 7 515 510 516
732 11 518 517 519
733 11 518 517 520
734 12 519 517 520
735 9 517 519 521
736 9 517 520 522
737 4 519 521 523
738 4 519 521 524
739 4 519 521 525
740 4 520 522 526
741 4 520 522 527
742 4 520 522 528
743 7 523 521 524
744 7 523 521 525
745 7 524 521 525
746 7 526 522 527
747 7 526 522 528
748 7 527 522 528
749 11 530 529 531
750 11 530 529 532
751 12 531 529 532
752 9 529 531 533
753 9 529 532 534
754 4 531 533 535
755 4 531 533 536
756 4 531 533 537
757 4 532 534 538
758 4 532 534 539
759 4 532 534 540
760 7 535 533 536
761 7 535 533 537
762 7 536 533 537
763 7 538 534 539
764 7 538 534 540
765 7 539 534 540
766 11 542 541 543
767 11 542 541 544
768 12 543 541 544
769 9 541 543 546
770 9 541 544 545
771 13 543 546 545
772 13 544 545 546
773 4 545 546 547
774 4 545 546 548
775 4 546 545 549
776 4 546 545 550
777 6 547 546 548
778 6 549 545 550
779 11 552 551 553
780 11 552 551 554
781 12 553 551 554
782 9 551 553 556
783 9 551 554 555
784 13 553 556 555
785 13 554 555 556
786 4 555 556 557
787 4 555 556 558
788 4 556 555 559
789 4 556 555 560
790 6 557 556 558
791 6 559 555 560
792 11 562 561 563
793 11 562 561 564
794 12 563 561 564
795 9 561 563 566
796 9 561 564 565
797 13 563 566 565
798 13 564 565 566
799 4 565 566 567
800 4 565 566 568
801 4 566 565 569
802 4 566 565 570
803 6 567 566 568
804 6 569 565 570
805 11 572 571 573
806 11 572 571 574
807 12 573 571 574
808 9 571 573 576
809 9 571 574 575
810 13 573 576 575
811 13 574 575 576
812 4 575 576 577
813 4 575 576 578
814 4 576 575 579
815 4 576 575 580
816 6 577 576 578
817 6 579 575 580
818 11 582 581 583
819 11 582 581 584
820 12 583 581 584
821 9 581 583 586
822 9 581 584 585
823 13 583 586 585
824 13 584 585 586
825 4 585 586 587
826 4 585 586 588
827 4 586 585 589
828 4 586 585 590
829 6 587 586 588
830 6 589 585 590
831 11 592 591 593
832 11 592 591 594
833 12 593 591 594
834 9 591 593 596
835 9 591 594 595
836 13 593 596 595
837 13 594 595 596
838 4 595 596 597
839 4 595 596 598
840 4 596 595 599
841 4 596 595 600
842 6 597 596 598
843 6 599 595 600
844 11 602 601 603
845 11 602 601 604
846 12 603 601 604
847 9 601 603 606
848 9 601 604 605
849 13 603 606 605
850 13 604 605 606
851 4 605 606 607
852 4 605 606 608
853 4 606 605 609
854 4 606 605 610
855 6 607 606 608
856 6 609 605 610
857 11 612 611 613
858 11 612 611 614
859 12 613 611 614
860 9 611 613 616
861 9 611 614 615
862 13 613 616 615
863 13 614 615 616
864 4 615 616 617
865 4 615 616 618
866 4 616 615 619
867 4 616 615 620
868 6 617 616 618
869 6 619 615 620
870 11 622 621 623
871 11 622 621 624
872 12 623 621 624
873 9 621 623 626
874 9 621 624 625
875 13 623 626 625
876 13 624 625 626
877 4 625 626 627
878 4 625 626 628
879 4 626 625 629
880 4 626 625 630
881 6 627 626 628
882 6 629 625 630
883 11 632 631 633
884 11 632 631 634
885 12 633 631 634
886 9 631 633 636
887 9 631 634 635
888 13 633 636 635
889 13 634 635 636
890 4 635 636 637
891 4 635 636 638
892 4 636 635 639
893 4 636 635 640
894 6 637 636 638
895 6 639 635 640
896 11 642 641 643
897 11 642 641 644
898 12 643 641 644
899 9 641 643 646
900 9 641 644 645
901 13 643 646 645
902 13 644 645 646
903 4 645 646 647
904 4 645 646 648
905 4 646 645 649
906 4 646 645 650
907 6 647 646 648
908 6 649 645 650
909 11 652 651 653
910 11 652 651 654
911 12 653 651 654
912 9 651 653 656
913 9 651 654 655
914 13 653 656 655
915 13 654 655 656
916 4 655 656 657
917 4 655 656 658
918 4 656 655 659
919 4 656 655 660
920 6 657 656 658
921 6 659 655 660
922 11 662 661 663
923 11 662 661 664
924 12 663 661 664
925 9 661 663 666
926 9 661 664 665
927 13 663 666 665
928 13 664 665 666
929 4 665 666 667
930 4 665 666 668
931 4 666 665 669
932 4 666 665 670
933 6 667 666 668
934 6 669 665 670
935 11 672 671 673
936 11 672 671 674
937 12 673 671 674
938 9 671 673 676
939 9 671 674 675
940 13 673 676 675
941 13 674 675 676
942 4 675 676 677
943 4 675 676 678
944 4 676 675 679
945 4 676 675 680
946 6 677 676 678
947 6 679 675 680
948 11 682 681 683
949 11 682 681 684
950 12 683 681 684
951 9 681 683 686
952 9 681 684 685
953 13 683 686 685
954 13 684 685 686
955 4 685 686 687
956 4 685 686 688
957 4 686 685 689
958 4 686 685 690
959 6 687 686 688
960 6 689 685 690
961 11 692 691 693
962 11 692 691 694
963 12 693 691 694
964 9 691 693 696
965 9 691 694 695
966 13 693 696 695
967 13 694 695 696
968 4 695 696 697
969 4 695 696 698
970 4 696 695 699
971 4 696 695 700
972 6 697 696 698
973 6 699 695 700
974 11 702 701 703
975 11 702 701 704
976 12 703 701 704
977 9 701 703 706
978 9 701 704 705
979 13 703 706 705
980 13 704 705 706
981 4 705 706 707
982 4 705 706 708
983 4 706 705 709
984 4 706 705 710
985 6 707 706 708
986 6 709 705 710
987 11 712 711 713
988 11 712 711 714
989 12 713 711 714
990 9 711 713 716
991 9 711 714 715
992 13 713 716 715
993 13 714 715 716
994 4 715 716 717
995 4 715 716 718
996 4 716 715 719
997 4 716 715 720
998 6 717 716 718
999 6 719 715 720
1000 11 722 721 723
1001 11 722 721 724
1002 12 723 721 724
1003 9 721 723 726
1004 9 721 724 725
1005 13 723 726 725
1006 13 724 725 726
1007 4 725 726 727
1008 4 725 726 728
1009 4 726 725 729
1010 4 726 725 730
1011 6 727 726 728
1012 6 729 725 730
1013 18 737 736 738
1014 18 739 736 740
1015 18 741 736 742
1016 17 737 736 739
1017 17 737 736 740
1018 17 737 736 741
1019 17 737 736 742
1020 17 738 736 739
1021 17 738 736 740
1022 17 738 736 741
1023 17 738 736 742
1024 17 739 736 741
1025 17 739 736 742
1026 17 740 736 741
1027 17 740 736 742
1028 18 744 743 745
1029 18 746 743 747
1030 18 748 743 749
1031 17 744 743 746
1032 17 744 743 747
1033 17 744 743 748
1034 17 744 743 749
1035 17 745 743 746
1036 17 745 743 747
1037 17 745 743 748
1038 17 745 743 749
1039 17 746 743 748
1040 17 746 743 749
1041 17 747 743 748
1042 17 747 743 749
1043 18 751 750 752
1044 18 753 750 754
1045 18 755 750 756
1046 17 751 750 753
1047 17 751 750 754
1048 17 751 750 755
1049 17 751 750 756
1050 17 752 750 753
1051 17 752 750 754
1052 17 752 750 755
1053 17 752 750 756
1054 17 753 750 755
1055 17 753 750 756
1056 17 754 750 755
1057 17 754 750 756
1058 18 758 757 759
1059 18 760 757 761
1060 18 762 757 763
1061 17 758 757 760
1062 17 758 757 761
1063 17 758 757 762
1064 17 758 757 763
1065 17 759 757 760
1066 17 759 757 761
1067 17 759 757 762
1068 17 759 757 763
1069 17 760 757 762
1070 17 760 757 763
1071 17 761 757 762
1072 17 761 757 763
1073 18 765 764 766
1074 18 767 764 768
1075 18 769 764 770
1076 17 765 764 767
1077 17 765 764 768
1078 17 765 764 769
1079 17 765 764 770
1080 17 766 764 767
1081 17 766 764 768
1082 17 766 764 769
1083 17 766 764 770
1084 17 767 764 769
1085 17 767 764 770
1086 17 768 764 769
1087 17 768 764 770

Dihedrals

1 8 2 1 3 5
2 8 2 1 4 6
3 6 1 3 5 7
4 6 1 3 5 8
5 6 1 3 5 9
6 6 1 4 6 10
7 6 1 4 6 11
8 6 1 4 6 12
9 8 14 13 15 17
10 8 14 13 16 18
11 6 13 15 17 19
12 6 13 15 17 20
13 6 13 15 17 21
14 6 13 16 18 22
15 6 13 16 18 23
16 6 13 16 18 24
17 8 26 25 27 29
18 8 26 25 28 30
19 6 25 27 29 31
20 6 25 27 29 32
21 6 25 27 29 33
22 6 25 28 30 34
23 6 25 28 30 35
24 6 25 28 30 36
25 8 38 37 39 41
26 8 38 37 40 42
27 6 37 39 41 43
28 6 37 39 41 44
29 6 37 39 41 45
30 6 37 40 42 46
31 6 37 40 42 47
32 6 37 40 42 48
33 8 50 49 51 53
34 8 50 49 52 54
35 6 49 51 53 55
36 6 49 51 53 56
37 6 49 51 53 57
38 6 49 52 54 58
39 6 49 52 54 59
40 6 49 52 54 60
41 8 62 61 63 65
42 8 62 61 64 66
43 6 61 63 65 67
44 6 61 63 65 68
45 6 61 63 65 69
46 6 61 64 66 70
47 6 61 64 66 71
48 6 61 64 66 72
49 8 74 73 75 77
50 8 74 73 76 78
51 6 73 75 77 79
52 6 73 75 77 80
53 6 73 75 77 81
54 6 73 76 78 82
55 6 73 76 78 83
56 6 73 76 78 84
57 8 86 85 87 89
58 8 86 85 88 90
59 6 85 87 89 91
60 6 85 87 89 92
61 6 85 87 89 93
62 6 85 88 90 94
63 6 85 88 90 95
64 6 85 88 90 96
65 8 98 97 99 101
66 8 98 97 100 102
67 6 97 99 101 103
68 6 97 99 101 104
69 6 97 99 101 105
70 6 97 100 102 106
71 6 97 100 102 107
72 6 97 100 102 108
73 8 110 109 111 113
74 8 110 109 112 114
75 6 109 111 113 115
76 6 109 111 113 116
77 6 109 111 113 117
78 6 109 112 114 118
79 6 109 112 114 119
80 6 109 112 114 120
81 8 122 121 123 125
82 8 122 121 124 126
83 6 121 123 125 127
84 6 121 123 125 128
85 6 121 123 125 129
86 6 121 124 126 130
87 6 121 124 126 131
88 6 121 124 126 132
89 8 134 133 135 137
90 8 134 133 136 138
91 6 133 135 137 139
92 6 133 135 137 140
93 6 133 135 137 141
94 6 133 136 138 142
95 6 133 136 138 143
96 6 133 136 138 144
97 8 146 145 147 149
98 8 146 145 148 150
99 6 145 147 149 151
100 6 145 147 149 152
101 6 145 147 149 153
102 6 145 148 150 154
103 6 145 148 150 155
104 6 145 148 150 156
105 8 158 157 159 161
106 8 158 157 160 162
107 6 157 159 161 163
108 6 157 159 161 164
109 6 157 159 161 165
110 6 157 160 162 166
111 6 157 160 162 167
112 6 157 160 162 168
113 8 170 169 171 173
114 8 170 169 172 174
115 6 169 171 173 175
116 6 169 171 173 176
117 6 169 171 173 177
118 6 169 172 174 178
119 6 169 172 174 179
120 6 169 172 174 180
121 8 182 181 183 185
122 8 182 181 184 186
123 6 181 183 185 187
124 6 181 183 185 188
125 6 181 183 185 189
126 6 181 184 186 190
127 6 181 184 186 191
128 6 181 184 186 192
129 8 194 193 195 197
130 8 194 193 196 198
131 6 193 195 197 199
132 6 193 195 197 200
133 6 193 195 197 201
134 6 193 196 198 202
135 6 193 196 198 203
136 6 193 196 198 204
137 8 206 205 207 209
138 8 206 205 208 210
139 6 205 207 209 211
140 6 205 207 209 212
141 6 205 207 209 213
142 6 205 208 210 214
143 6 205 208 210 215
144 6 205 208 210 216
145 8 218 217 219 221
146 8 218 217 220 222
147 6 217 219 221 223
148 6 217 219 221 224
149 6 217 219 221 225
150 6 217 220 222 226
151 6 217 220 222 227
152 6 217 220 222 228
153 8 230 229 231 233
154 8 230 229 232 234
155 6 229 231 233 235
156 6 229 231 233 236
157 6 229 231 233 237
158 6 229 232 234 238
159 6 229 232 234 239
160 6 229 232 234 240
161 8 242 241 243 245
162 8 242 241 244 246
163 6 241 243 245 247
164 6 241 243 245 248
165 6 241 243 245 249
166 6 241 244 246 250
167 6 241 244 246 251
168 6 241 244 246 252
169 8 254 253 255 257
170 8 254 253 256 258
171 6 253 255 257 259
172 6 253 255 257 260
173 6 253 255 257 261
174 6 253 256 258 262
175 6 253 256 258 263
176 6 253 256 258 264
177 8 266 265 267 269
178 8 266 265 268 270
179 6 265 267 269 271
180 6 265 267 269 272
181 6 265 267 269 273
182 6 265 268 270 274
183 6 265 268 270 275
184 6 265 268 270 276
185 8 278 277 279 281
186 8 278 277 280 282
187 6 277 279 281 283
188 6 277 279 281 284
189 6 277 279 281 285
190 6 277 280 282 286
191 6 277 280 282 287
192 6 277 280 282 288
193 8 290 289 291 293
194 8 290 289 292 294
195 6 289 291 293 295
196 6 289 291 293 296
197 6 289 291 293 297
198 6 289 292 294 298
199 6 289 292 294 299
200 6 289 292 294 300
201 8 302 301 303 305
202 8 302 301 304 306
203 6 301 303 305 307
204 6 301 303 305 308
205 6 301 303 305 309
206 6 301 304 306 310
207 6 301 304 306 311
208 6 301 304 306 312
209 8 314 313 315 317
210 8 314 313 316 318
211 6 313 315 317 319
212 6 313 315 317 320
213 6 313 315 317 321
214 6 313 316 318 322
215 6 313 316 318 323
216 6 313 316 318 324
217 8 326 325 327 329
218 8 326 325 328 330
219 6 325 327 329 331
220 6 325 327 329 332
221 6 325 327 329 333
222 6 325 328 330 334
223 6 325 328 330 335
224 6 325 328 330 336
225 8 338 337 339 341
226 8 338 337 340 342
227 6 337 339 341 343
228 6 337 339 341 344
229 6 337 339 341 345
230 6 337 340 342 346
231 6 337 340 342 347
232 6 337 340 342 348
233 8 350 349 351 353
234 8 350 349 352 354
235 6 349 351 353 355
236 6 349 351 353 356
237 6 349 351 353 357
238 6 349 352 354 358
239 6 349 352 354 359
240 6 349 352 354 360
241 8 362 361 363 365
242 8 362 361 364 366
243 6 361 363 365 367
244 6 361 363 365 368
245 6 361 363 365 369
246 6 361 364 366 370
247 6 361 364 366 371
248 6 361 364 366 372
249 8 374 373 375 377
250 8 374 373 376 378
251 6 373 375 377 379
252 6 373 375 377 380
253 6 373 375 377 381
254 6 373 376 378 382
255 6 373 376 378 383
256 6 373 376 378 384
257 8 386 385 387 389
258 8 386 385 388 390
259 6 385 387 389 391
260 6 385 387 389 392
261 6 385 387 389 393
262 6 385 388 390 394
263 6 385 388 390 395
264 6 385 388 390 396
265 8 398 397 399 401
266 8 398 397 400 402
267 6 397 399 401 403
268 6 397 399 401 404
269 6 397 399 401 405
270 6 397 400 402 406
271 6 397 400 402 407
272 6 397 400 402 408
273 8 410 409 411 413
274 8 410 409 412 414
275 6 409 411 413 415
276 6 409 411 413 416
277 6 409 411 413 417
278 6 409 412 414 418
279 6 409 412 414 419
280 6 409 412 414 420
281 8 422 421 423 425
282 8 422 421 424 426
283 6 421 423 425 427
284 6 421 423 425 428
285 6 421 423 425 429
286 6 421 424 426 430
287 6 421 424 426 431
288 6 421 424 426 432
289 8 434 433 435 437
290 8 434 433 436 438
291 6 433 435 437 439
292 6 433 435 437 440
293 6 433 435 437 441
294 6 433 436 438 442
295 6 433 436 438 443
296 6 433 436 438 444
297 8 446 445 447 449
298 8 446 445 448 450
299 6 445 447 449 451
300 6 445 447 449 452
301 6 445 447 449 453
302 6 445 448 450 454
303 6 445 448 450 455
304 6 445 448 450 456
305 8 458 457 459 461
306 8 458 457 460 462
307 6 457 459 461 463
308 6 457 459 461 464
309 6 457 459 461 465
310 6 457 460 462 466
311 6 457 460 462 467
312 6 457 460 462 468
313 8 470 469 471 473
314 8 470 469 472 474
315 6 469 471 473 475
316 6 469 471 473 476
317 6 469 471 473 477
318 6 469 472 474 478
319 6 469 472 474 479
320 6 469 472 474 480
321 8 482 481 483 485
322 8 482 481 484 486
323 6 481 483 485 487
324 6 481 483 485 488
325 6 481 483 485 489
326 6 481 484 486 490
327 6 481 484 486 491
328 6 481 484 486 492
329 8 494 493 495 497
330 8 494 493 496 498
331 6 493 495 497 499
332 6 493 495 497 500
333 6 493 495 497 501
334 6 493 496 498 502
335 6 493 496 498 503
336 6 493 496 498 504
337 8 506 505 507 509
338 8 506 505 508 510
339 6 505 507 509 511
340 6 505 507 509 512
341 6 505 507 509 513
342 6 505 508 510 514
343 6 505 508 510 515
344 6 505 508 510 516
345 8 518 517 519 521
346 8 518 517 520 522
347 6 517 519 521 523
348 6 517 519 521 524
349 6 517 519 521 525
350 6 517 520 522 526
351 6 517 520 522 527
352 6 517 520 522 528
353 8 530 529 531 533
354 8 530 529 532 534
355 6 529 531 533 535
356 6 529 531 533 536
357 6 529 531 533 537
358 6 529 532 534 538
359 6 529 532 534 539
360 6 529 532 534 540
361 8 542 541 543 546
362 8 542 541 544 545
363 5 541 543 546 545
364 7 543 546 545 544
365 7 541 544 545 546
366 8 552 551 553 556
367 8 552 551 554 555
368 5 551 553 556 555
369 7 553 556 555 554
370 7 551 554 555 556
371 8 562 561 563 566
372 8 562 561 564 565
373 5 561 563 566 565
374 7 563 566 565 564
375 7 561 564 565 566
376 8 572 571 573 576
377 8 572 571 574 575
378 5 571 573 576 575
379 7 573 576 575 574
380 7 571 574 575 576
381 8 582 581 583 586
382 8 582 581 584 585
383 5 581 583 586 585
384 7 583 586 585 584
385 7 581 584 585 586
386 8 592 591 593 596
387 8 592 591 594 595
388 5 591 593 596 595
389 7 593 596 595 594
390 7 591 594 595 596
391 8 602 601 603 606
392 8 602 601 604 605
393 5 601 603 606 605
394 7 603 606 605 604
395 7 601 604 605 606
396 8 612 611 613 616
397 8 612 611 614 615
398 5 611 613 616 615
399 7 613 616 615 614
400 7 611 614 615 616
401 8 622 621 623 626
402 8 622 621 624 625
403 5 621 623 626 625
404 7 623 626 625 624
405 7 621 624 625 626
406 8 632 631 633 636
407 8 632 631 634 635
408 5 631 633 636 635
409 7 633 636 635 634
410 7 631 634 635 636
411 8 642 641 643 646
412 8 642 641 644 645
413 5 641 643 646 645
414 7 643 646 645 644
415 7 641 644 645 646
416 8 652 651 653 656
417 8 652 651 654 655
418 5 651 653 656 655
419 7 653 656 655 654
420 7 651 654 655 656
421 8 662 661 663 666
422 8 662 661 664 665
423 5 661 663 666 665
424 7 663 666 665 664
425 7 661 664 665 666
426 8 672 671 673 676
427 8 672 671 674 675
428 5 671 673 676 675
429 7 673 676 675 674
430 7 671 674 675 676
431 8 682 681 683 686
432 8 682 681 684 685
433 5 681 683 686 685
434 7 683 686 685 684
435 7 681 684 685 686
436 8 692 691 693 696
437 8 692 691 694 695
438 5 691 693 696 695
439 7 693 696 695 694
440 7 691 694 695 696
441 8 702 701 703 706
442 8 702 701 704 705
443 5 701 703 706 705
444 7 703 706 705 704
445 7 701 704 705 706
446 8 712 711 713 716
447 8 712 711 714 715
448 5 711 713 716 715
449 7 713 716 715 714
450 7 711 714 715 716
451 8 722 721 723 726
452 8 722 721 724 725
453 5 721 723 726 725
454 7 723 726 725 724
455 7 721 724 725 726

