ITEM: TIMESTEP
1500
ITEM: NUMBER OF ATOMS
770
ITEM: BOX BOUNDS pp pp pp
0.0000000000000000e+00 2.0000000000000000e+01
0.0000000000000000e+00 2.0000000000000000e+01
0.0000000000000000e+00 2.0000000000000000e+01
ITEM: ATOMS id mol type x y z vx vy vz
136 12 19 3.39666 1.02088 0.600391 0.0010467 0.00853238 -0.0058441
59 5 11 4.08555 0.344754 3.59514 -0.00783304 -0.0453275 -0.0118337
52 5 19 2.72761 1.2394 4.53126 -0.000539529 -0.00177572 -0.00685408
49 5 9 2.85823 2.16014 3.68088 -0.00308791 -0.00597342 0.000487491
51 5 19 3.88824 2.88899 3.93114 -0.000114285 -0.00235311 -0.00761641
50 5 20 1.81196 2.80196 3.79544 0.00237069 -0.00106259 -0.00639551
133 12 9 4.80705 1.43467 0.636582 0.00138652 -0.00606158 -0.00197327
135 12 19 4.57612 2.96003 1.2159 0.00489263 0.00176923 -0.00398935
116 10 11 0.353521 1.28868 2.41714 0.0434437 -0.0366086 0.0120334
134 12 20 5.58079 0.637963 1.24585 0.00405519 0.0060745 0.00164491
508 43 19 7.50105 0.480157 3.59584 -0.00499286 -0.00791526 0.00585065
505 43 9 8.6303 1.38702 4.37164 -2.75004e-05 -0.00481164 -0.00696378
137 12 1 6.15114 3.07988 1.78113 0.00456295 0.00209895 0.0048697
140 12 11 6.61417 2.39855 1.39212 0.00104464 -0.00375833 -0.0085529
56 5 11 5.88233 2.16945 4.5465 -0.0319345 0.017409 -0.00284055
762 73 26 9.7985 2.63531 1.28612 -0.000374643 -0.00761385 0.000847028
141 12 11 6.75553 3.93889 1.95605 0.0133567 -0.0114268 0.00558645
139 12 11 5.98753 2.2922 2.73199 0.0342903 0.000921142 0.0270483
734 68 31 6.31555 3.93027 4.30222 -0.0016887 0.00419045 -0.00185496
759 73 26 8.0668 1.37628 0.263759 -0.00660247 0.00373835 0.000879916
761 73 26 9.19186 0.999881 0.866007 0.0020836 -0.00420424 0.00203417
507 43 19 10.3152 2.25085 4.26882 -0.00189916 -0.00450488 0.00100972
132 11 11 13.7666 0.768548 2.2288 0.0117935 0.0125505 0.0483622
170 15 20 14.7424 1.30416 0.812931 -0.00250123 -0.00455228 0.00299543
169 15 9 14.7468 2.56324 0.858709 0.00649323 -0.00687059 0.00116105
174 15 1 12.9036 4.08273 2.26006 0.00321083 0.00309635 0.0011782
172 15 19 14.5098 3.44844 1.85652 -0.00537405 -0.005598 0.00721356
130 11 11 12.2929 1.95074 2.72946 0.00676129 -0.0171211 -0.02221
124 11 19 12.5223 1.37395 3.87186 0.000913592 3.65041e-05 -0.00150792
513 43 11 10.6368 3.46615 4.52885 -0.00776937 -0.0124017 0.0174128
178 15 11 12.4877 4.37744 1.17216 -0.0140754 0.0123171 -0.0101529
126 11 1 12.5315 0.912005 2.38591 0.003115 -0.00330283 -0.00289093
121 11 9 14.1956 1.88892 4.06545 0.00253037 -0.0058119 -0.00591273
179 15 11 12.6933 4.13574 3.00827 0.0017804 -0.0142002 0.00427199
131 11 11 13.3876 0.135991 2.50117 -0.0146431 -0.0149857 -0.0183951
180 15 11 11.4955 3.98125 2.66074 0.00565045 -0.0147387 0.0135325
113 10 1 19.3494 1.31497 2.7071 -0.00142239 0.000443712 0.000180239
115 10 11 18.7677 0.51184 3.37712 -0.00798694 -0.00298197 -0.00574766
117 10 11 19.08 1.95626 2.01075 -0.00891089 -0.013985 0.0134959
175 15 11 17.3241 2.05129 0.988148 0.0432375 -0.0115714 0.012798
109 10 9 19.38 3.17548 4.28211 0.00160136 0.00713185 0.00439623
111 10 19 18.5709 2.41947 2.97345 -0.000608997 -0.000284712 -0.00313491
123 11 19 15.2083 0.769743 4.73641 0.00356147 0.00914346 0.00849769
128 11 11 16.5273 0.549266 3.26871 -0.00478454 -0.0010924 0.00177263
38 4 20 1.16087 8.25073 4.30636 -0.00565467 -0.00538938 0.00211785
674 59 19 3.15886 7.99483 1.0141 -0.00374692 0.00725077 0.00527693
680 59 11 3.26441 7.75014 1.39475 -0.0119403 0.0119322 -0.0106998
675 59 2 4.42712 7.70097 1.284 0.00286048 0.0026235 -0.00556535
37 4 9 1.63625 7.86368 4.88264 0.00403247 -7.33535e-06 -0.000369608
39 4 19 2.73463 7.38254 4.5966 0.00431807 0.0049532 0.00133076
44 4 11 4.43691 7.88808 4.19349 -0.00764653 -0.017848 0.0211578
41 4 1 3.88476 8.521 4.89378 -1.36456e-05 0.0107594 0.00363824
333 28 11 0.536387 6.81236 1.94205 0.00821474 -0.016192 -0.0189293
45 4 11 4.3623 9.53722 4.59385 0.00353694 -0.0167465 0.0167949
679 59 11 5.33977 7.49767 2.20141 -0.0138806 0.0315638 0.019091
205 18 9 9.37454 6.76479 2.47861 -0.0048584 0.00294794 -0.00364019
206 18 20 8.67511 6.3569 1.62955 -0.00437635 0.00363154 -0.01208
210 18 1 8.59449 8.68634 2.467 0.00485331 -0.00473732 -0.00231325
215 18 11 7.96666 8.12024 1.64766 -0.0294402 0.00384605 -0.0348892
208 18 19 8.86366 7.4575 3.13427 0.00201524 -0.00384045 0.0024686
216 18 11 7.98873 9.24803 1.91093 -0.00164301 0.00677954 -0.0297039
214 18 11 9.37854 9.34862 2.55253 -0.00283365 -0.00381219 -0.015747
718 63 11 9.89782 8.71731 0.0755789 0.0216591 -0.0300661 0.00569039
491 41 11 6.66139 5.99651 4.70071 -0.000717584 0.0333943 0.0138982
490 41 11 5.22352 5.6694 4.99762 0.027621 0.010307 0.0149697
207 18 19 10.3985 6.06656 3.1604 0.00299189 -0.00545682 -0.000610594
209 18 1 11.5931 6.93288 3.41994 0.00415735 -0.00195481 0.00281302
213 18 11 11.9923 7.36101 1.9474 0.0255148 0.0279197 0.00601943
212 18 11 11.414 8.0455 4.08859 0.00641521 -0.0032051 0.0084318
593 51 19 14.7326 6.51207 0.327192 -0.000147497 0.00380575 0.00690832
211 18 11 12.822 7.029 3.99983 0.00616621 -0.00860339 0.00951328
597 51 11 13.3728 7.53006 0.258486 0.00595066 -0.00120432 0.00476227
335 28 11 16.2727 9.40697 4.01097 -0.00921948 0.0146136 0.00485283
336 28 11 15.974 7.98609 3.16429 -0.0264424 0.0146733 -0.0232001
334 28 11 15.0704 7.8007 2.98718 -0.0161045 -0.00378914 -0.00259257
592 51 20 16.6611 5.73455 0.481255 -0.00252136 0.00550632 -0.0090879
332 28 11 19.2368 6.42802 1.89483 0.00588399 0.0169239 0.0196195
331 28 11 18.5644 7.32657 1.38216 -0.0102014 0.0160186 0.00615639
329 28 1 19.7502 7.25172 2.05277 0.00933537 -0.000416241 0.00143565
328 28 19 16.657 8.13919 4.2254 0.00272734 -0.000167243 -0.005841
326 28 20 18.2272 7.77127 4.62282 -0.00281815 0.00405698 -0.00436188
325 28 9 17.479 7.19496 3.9305 0.00881661 -0.00123484 -0.00162593
327 28 19 19.078 7.89162 3.61421 0.00271089 -0.0109032 -0.00170798
330 28 1 15.5384 8.07286 3.84848 0.00274205 -0.00248239 -0.00672032
733 67 31 16.7333 9.34567 2.41352 -0.00779007 -0.00886525 -0.00105532
63 6 19 0.267656 12.3581 1.4583 0.00312249 -0.000953468 -0.00112474
577 49 11 2.2734 11.2994 2.76326 0.0180743 0.0102837 -0.0112282
576 49 2 3.49467 11.1427 2.67475 0.000755119 0.0116887 -0.00626514
579 49 11 3.6086 12.3405 2.90867 -0.00285259 -0.0203857 -0.00675725
61 6 9 0.237597 13.2435 2.88731 -0.00344739 -1.7209e-05 0.00266925
580 49 11 4.2953 12.3807 4.53896 -0.0121868 -0.000864529 0.0044837
578 49 11 3.75596 10.4404 1.8376 -0.0337016 0.00350829 0.00501256
573 49 19 4.92986 10.2759 2.99041 0.00461138 -0.00504421 0.00248013
575 49 2 4.54349 12.0663 3.39569 0.0114688 0.00185366 -0.00320763
62 6 20 0.39738 14.2609 3.10663 -0.0013583 0.00369789 0.00324667
572 49 20 6.44703 10.8672 4.26787 0.00323541 0.00312862 -0.00076503
571 49 9 6.02677 11.0275 3.07625 0.00639882 -0.00792243 -0.00193564
574 49 19 5.85761 12.6761 2.92691 0.00512898 0.00293809 -0.00076459
84 7 11 9.02354 13.4666 0.345521 -0.00612971 -0.000103047 -0.00452913
78 7 1 9.78673 13.0977 0.872923 0.00436396 0.00791899 0.00486395
83 7 11 9.24569 13.0008 1.60515 -0.017023 -0.00191926 -0.00138173
654 57 19 8.69187 14.7978 4.4439 -0.00121808 0.00863977 0.00133398
722 64 20 12.6567 10.2234 1.21238 -0.00362419 0.00181408 -0.00085533
82 7 11 10.0846 12.1332 0.75388 -0.00298328 -0.021069 -0.017392
727 64 11 12.2614 11.9722 4.47919 -0.00664431 0.0371885 0.0119247
726 64 2 13.0455 12.4944 3.54069 -0.00575102 -0.00269526 -0.00228829
723 64 19 11.9438 11.6214 3.80124 0.00198182 0.00413372 0.00400527
721 64 9 12.7047 10.669 2.72921 0.00155547 -0.00293695 -0.0112668
728 64 11 12.7748 12.9418 2.65217 -0.00013921 -0.0126679 0.00588542
724 64 19 13.5048 11.0202 3.10933 0.00950772 -0.00347281 -0.00665807
725 64 2 14.344 11.3828 4.05475 -0.0034605 0.00481317 0.00483299
76 7 19 10.4597 14.2763 0.12229 -0.00216302 -0.00177009 -0.000185833
74 7 20 11.9228 14.9367 1.23768 0.000475327 0.00276452 -0.00302703
659 57 11 10.9312 13.8078 4.86673 -0.0103218 0.00722513 0.00256827
655 57 2 10.2271 14.8243 4.36219 -0.00570362 0.00298856 -0.000790993
660 57 11 11.203 14.4578 3.56668 -0.0277153 -0.00313024 0.0364288
639 55 11 14.6264 14.8348 4.32616 0.0230151 -0.0107934 0.00515092
68 6 11 18.7793 11.4705 1.46274 -0.00386247 -0.00177962 0.00642567
65 6 1 19.1539 11.8229 0.731575 -2.16008e-05 0.00209032 -0.00259335
67 6 11 18.3135 12.577 0.43993 -0.000352064 0.0021651 0.0292674
729 64 11 15.8106 11.8817 4.88717 0.00654009 0.022985 -0.00419386
383 32 11 17.5072 13.4596 3.11261 0.00524703 -0.00565479 0.00343075
382 32 11 18.366 14.1154 3.9589 -0.0166566 0.020959 -0.00287414
378 32 1 17.0278 13.8042 3.50457 0.000508796 -0.00303167 -0.00300284
384 32 11 16.7142 13.6167 4.07549 0.00183922 -0.0212783 0.00398817
70 6 11 19.8187 10.9071 3.81324 -0.00243195 -0.00123995 0.0150108
64 6 19 19.4246 12.4843 3.24319 -0.000803176 -0.00598143 -0.0154944
66 6 1 18.7981 11.433 4.2059 0.00253105 -0.0043478 0.00386967
54 5 1 3.11468 19.9636 4.03371 -8.67918e-06 -0.00355624 -0.00209711
104 9 11 2.10295 15.2052 1.52557 0.0121916 -0.0143459 0.0175986
240 20 11 2.54242 18.6752 2.09501 -0.00224749 -0.00536736 -0.0100372
239 20 11 2.94723 17.3576 2.967 0.00432598 -0.02763 -0.00103522
238 20 11 2.88207 16.7603 2.17392 -0.0111794 0.000942771 0.0119047
234 20 1 2.68521 17.5399 2.01645 0.00323184 0.00365349 0.00499921
232 20 19 3.59148 18.0666 1.29747 0.00104795 -2.86051e-05 -0.00300035
105 9 11 0.593366 15.5974 0.631249 -0.0278361 0.00777977 -0.0158283
103 9 11 1.73395 15.9807 0.265135 -0.0525364 -0.0180587 -0.0336614
380 32 11 0.642942 16.849 2.88036 -0.00200567 0.000447281 -0.0134815
377 32 1 0.303204 17.8477 2.9846 0.00105797 -0.00195908 0.00356511
379 32 11 0.988354 18.5735 3.25367 0.0172682 -0.0153751 0.0125684
60 5 11 3.81713 19.9933 4.8501 -0.010958 0.00136007 -0.0100048
58 5 11 2.17208 19.9257 3.23478 0.0203353 0.0292681 -0.0108853
242 21 20 2.99062 16.4482 4.57473 0.00193792 0.00846361 -0.00322101
101 9 1 1.62142 15.3344 0.576153 -0.00414847 -0.000428344 -0.000629151
516 43 11 8.36639 19.7164 2.30752 -0.0152799 -0.0101237 0.00541702
652 57 20 6.57388 16.2449 4.83815 0.00122413 -0.000497316 0.0019897
515 43 11 6.56653 19.6986 3.62271 0.0170376 0.00387877 0.024736
230 20 20 5.72646 17.6601 1.88727 0.00216024 0.00268363 -0.002759
229 20 9 5.10238 17.7575 1.06094 -0.00100728 0.00152471 -0.00702111
514 43 11 7.3037 18.41 3.95138 0.00891506 -0.0014004 0.0191247
510 43 1 7.3684 19.4917 3.25117 0.0042214 -0.00184377 -0.00130522
191 16 11 9.5275 17.9198 2.33514 0.0299347 0.0381368 -0.0182054
662 58 20 6.7765 15.6353 0.671831 0.00120525 -0.00803117 0.00262924
231 20 19 6.02386 18.7138 0.0100074 -0.00485786 0.0024729 0.00636316
73 7 9 11.5105 15.0363 0.351486 0.00523481 0.00708395 -0.00264832
182 16 20 13.1573 18.4474 3.99637 -0.00799006 -0.00633778 -0.00185592
186 16 1 10.1933 17.4244 2.24339 -0.000650633 0.00333502 0.00647126
192 16 11 10.4782 17.9456 2.6818 0.00387718 -0.0304895 0.0191206
190 16 11 10.1213 17.6853 0.761585 -0.0400827 0.0108351 -0.0143418
184 16 19 11.261 17.3504 2.54275 -0.00650264 -0.00200751 0.00301634
181 16 9 12.5745 18.0838 2.72783 -0.00469786 0.0049916 0.0023273
183 16 19 13.1819 17.7731 1.63936 0.00650504 -0.00111034 -0.0013305
185 16 1 14.7037 17.5641 2.39744 0.00352583 0.00808821 0.000687651
187 16 11 14.7181 18.2026 1.52825 -0.0167558 -0.00463322 0.0345177
188 16 11 14.2494 17.0317 2.98931 3.80574e-05 -0.00302226 0.0151148
640 55 11 15.6025 15.2935 4.51825 0.011132 0.0142206 0.0117947
376 32 19 17.0788 15.2417 2.62494 -0.00489784 0.000241451 -0.00414916
189 16 11 15.7343 17.1234 2.65588 -0.0233514 0.0254926 -0.00605144
755 72 26 16.2547 19.5651 0.308393 -0.00752175 -0.00145144 -0.00389585
373 32 9 18.2868 16.4696 3.2856 0.00282295 0.00248222 -0.00316064
375 32 19 18.9381 17.7124 3.232 0.00164074 0.00364811 -0.00388528
125 11 1 15.716 19.9593 4.14904 0.00083516 -0.000823165 0.00393403
127 11 11 15.3646 18.8088 4.46501 -0.0291329 0.0174048 -0.0135594
381 32 11 19.6416 18.7512 2.62499 0.0108589 0.0124857 -0.0108721
129 11 11 16.4899 19.7017 4.51719 0.00390566 -0.00912854 -0.0171493
374 32 20 17.2746 16.7758 3.35082 0.00338301 0.0014364 -0.00847659
57 5 11 4.25071 3.40373 5.14016 0.00465962 0.0276249 -0.00609072
691 61 9 2.18552 2.25937 7.8183 0.0030428 0.00532042 -0.00259965
693 61 19 1.35714 3.00542 7.39352 0.00538159 -0.00409768 -0.00137238
692 61 20 2.69477 1.52783 7.15299 -0.00238673 -0.000246259 -0.00594471
694 61 19 3.35138 3.13162 8.14792 -0.00515434 -0.00289949 -0.00666531
698 61 11 1.08202 4.00808 7.00302 -0.00170747 -0.0263792 0.0111704
696 61 2 1.48142 4.43952 8.16707 0.00651949 -0.00361681 -0.00131036
695 61 2 2.71472 4.43867 8.15046 0.000739972 -0.00664622 1.57767e-05
53 5 1 4.82723 2.43065 5.06838 0.00206084 -0.00314242 0.00771735
699 61 11 2.92073 4.59737 6.86656 -0.0138285 0.00599074 0.0140608
506 43 20 8.39399 1.12925 5.26461 -0.00666408 0.00107729 -0.00420088
511 43 11 9.67352 3.69661 5.98255 -0.0143961 -0.0268301 0.00549394
512 43 11 9.05583 3.44242 5.00669 0.0376235 -0.01149 0.00368126
55 5 11 5.01652 1.34704 5.42612 0.0130794 -0.0242333 0.0151566
86 8 20 5.52636 2.18718 7.84262 0.00201671 -0.00626361 0.00229348
85 8 9 5.43306 0.960848 8.45996 0.000647652 0.00968599 0.00287797
87 8 19 6.02128 1.20262 9.92081 0.00404381 -0.00214315 -0.00167024
481 41 9 7.20461 4.44312 6.51637 -0.000639097 0.0019488 0.00131311
482 41 20 6.85875 3.30972 5.73358 0.0022133 -0.00044868 0.00072084
483 41 19 8.21071 4.97774 6.1156 -0.00587934 -0.000329428 0.00119658
91 8 11 7.28207 0.86403 9.81175 0.0159566 -0.0079292 -0.0260234
509 43 1 10.1374 2.88654 5.30044 0.0126997 -0.00066506 0.00742788
122 11 20 13.9029 2.13119 5.2425 -0.00256493 0.00321661 0.000136455
556 47 2 11.4172 0.721518 7.80612 0.00396415 -0.0032382 -0.00070094
553 47 19 10.4594 1.66283 7.16187 0.000419822 -0.00128387 0.00714644
558 47 11 11.215 1.92106 7.65031 0.0197562 0.0111425 -0.00199609
557 47 11 11.6765 1.50387 7.91795 0.0260708 -0.0123218 -0.010825
364 31 19 14.466 4.46126 8.11948 -0.000951751 -0.000625286 -0.00292442
361 31 9 13.5907 4.4848 6.49551 -0.00140599 -0.00513337 0.000754237
362 31 20 12.4498 3.94102 5.77959 -0.00154443 0.00378199 0.0010058
370 31 11 14.0517 3.30961 8.64658 0.00347914 -0.0205776 -0.00474701
570 48 11 11.6453 4.95051 9.37187 0.0163137 0.0217693 0.00268775
565 48 2 11.2075 4.03737 9.75465 -0.00952121 -0.00405325 -0.0087466
560 47 11 10.6537 0.460755 9.07695 0.00581483 0.00918294 0.037929
282 24 1 14.4753 0.0898205 7.33517 0.00651849 0.00651346 0.00685538
551 47 9 10.4071 0.244516 6.15188 0.0020889 -0.00207116 -0.00120196
286 24 11 14.8726 0.695563 6.96632 -0.00297782 0.00564381 0.0181059
569 48 11 11.5794 3.86883 8.8006 0.0220992 0.00750175 0.0189768
119 10 11 17.5201 3.63714 5.53619 0.024181 0.0199707 -0.00881847
118 10 11 17.3619 2.27522 5.35544 -0.0088033 -0.017514 -0.00692721
114 10 1 17.5355 2.83705 6.04244 0.00147777 -0.00395573 0.00442398
112 10 19 18.4563 3.76987 5.22636 -0.00212407 0.00695449 -0.00476245
120 10 11 16.4632 2.66648 6.17375 0.000802237 0.00617516 -1.38917e-05
110 10 20 19.9757 3.60189 5.15906 -0.0016893 -0.00219371 0.00417202
301 26 9 19.9065 0.688871 9.70608 -0.00593142 -0.00219852 -0.0102579
372 31 11 15.0197 3.65833 9.5829 -0.013463 0.025822 -0.0269569
366 31 1 15.0515 3.282 8.73763 0.00678245 0.00456185 0.00153816
371 31 11 16.0158 3.18292 8.41044 -0.00621772 0.00843642 -0.0159698
280 24 19 15.1327 0.390746 8.21146 -0.00277855 0.00106658 0.00320989
277 24 9 16.5299 0.966306 8.08486 0.00299908 -0.00632456 -0.00317133
279 24 19 17.8103 0.549161 7.15008 -0.00584063 0.00485961 -0.00847217
285 24 11 19.905 0.110538 6.29968 0.0365172 -0.0252788 0.0138982
278 24 20 16.9761 0.853543 9.20226 0.00893035 0.00044012 -0.000654469
310 26 11 18.8068 4.09083 9.07555 -0.00763449 -0.00372604 0.00719282
304 26 19 19.6673 2.23804 9.53522 -0.00248158 0.00814592 -0.0082287
312 26 11 18.2577 3.26312 8.21154 -0.022435 0.0208672 -0.00867667
306 26 1 18.3125 3.11903 9.26117 -0.00271867 0.00924724 -0.000313102
43 4 11 3.4585 8.65578 5.89647 0.000480811 -0.00663818 0.0420334
700 61 11 3.46169 5.26736 8.58488 -0.0109653 -0.0158282 -0.0188609
697 61 11 0.651699 5.21447 8.09848 -0.0215525 -0.0325682 -0.00462644
354 30 1 2.15046 9.8114 9.41959 0.00880587 0.000565613 0.00275236
492 41 11 4.90932 6.81333 6.35229 0.00355533 4.43401e-06 0.0293179
357 30 11 4.10266 6.52488 9.48202 0.011296 -0.00850736 0.0175128
40 4 19 0.826256 6.82308 5.86983 -0.00965463 -0.00525391 0.00154363
358 30 11 1.41328 8.82958 9.68738 0.0145808 -0.00434209 0.0147127
356 30 11 4.3354 6.72154 9.60594 0.0435246 -0.0113576 -0.0449603
355 30 11 4.37011 7.22858 8.57191 -0.0240225 -0.0104252 0.00932096
484 41 19 5.92858 5.45365 6.9402 -0.0054709 -0.00518053 -0.00111849
486 41 1 5.66991 5.86609 5.83091 -0.0074934 0.00223426 0.00016453
485 41 1 8.89661 6.15699 6.46887 -0.00641358 0.00240104 -0.00360412
353 30 1 5.2512 7.04799 9.38506 0.000313807 -0.00278736 -0.00316769
487 41 11 8.80429 6.24851 7.52668 0.00680762 -0.00787288 -0.0234692
489 41 11 9.12297 5.15551 5.61996 -0.00365338 0.00356778 -0.00218132
488 41 11 8.73866 7.35214 5.57467 0.015541 -0.00211086 0.0379202
479 40 11 7.56687 9.57006 9.14246 -0.0435152 0.0299337 -0.00737151
472 40 19 8.94458 9.9025 7.89899 -0.00250959 0.00492269 0.00912929
568 48 11 9.65441 5.10131 9.35346 0.00733467 -0.00885236 0.00713445
363 31 19 13.4503 5.6998 7.00556 0.000779397 0.00209271 0.00376919
473 40 1 12.859 9.67279 7.08493 -0.00237956 0.00362133 0.0027415
476 40 11 13.328 9.57692 6.26799 -0.00576101 0.00206776 0.0357484
475 40 11 12.6368 9.89509 8.18775 0.00218965 -0.00249222 -0.0136804
365 31 1 13.8614 6.83571 6.04676 -0.000888905 -0.00177899 0.00181932
368 31 11 14.7429 6.55735 5.43689 0.00981452 -0.0132548 -0.0106597
369 31 11 13.8516 7.07134 7.09473 -0.0290057 -0.0434332 0.0290871
367 31 11 14.7429 7.11451 5.62841 0.0048427 0.00599625 -0.0299143
548 46 11 14.6002 7.29394 9.79273 0.00606401 -0.00500875 -0.02079
547 46 11 13.7371 5.48548 9.90871 0.0214926 0.0283428 0.0040222
546 46 2 14.9105 6.26314 9.78991 0.00676361 -0.000910177 -0.00856374
609 52 11 10.8542 8.19238 9.71235 0.0250252 0.00239923 0.00336152
542 46 20 17.135 6.84065 8.02995 -0.00185971 -0.00431777 -0.00129621
46 4 11 19.5543 6.81995 7.41244 0.00801147 0.00801674 0.00366602
48 4 11 19.5604 8.33564 6.3689 -0.0133693 -0.00126146 0.0352426
42 4 1 19.764 7.42487 6.91712 -0.00867023 0.000267313 0.00038926
543 46 19 15.1593 7.66109 9.42736 -0.000996166 0.00101 0.00160972
47 4 11 19.1514 6.80939 6.40094 0.00749066 0.00460279 -0.000333059
541 46 9 16.6064 7.04542 9.47403 -0.00755864 0.00726206 -0.00251481
6 1 1 16.4839 9.5125 7.25004 -0.00129225 -0.00765843 -0.0034244
12 1 11 16.1954 8.60184 6.95884 0.00251192 0.0230643 -0.00441284
1 1 9 18.483 9.64579 9.07922 0.0110508 0.00533892 -0.00267057
2 1 20 18.7465 8.77215 9.70676 -0.00398656 -0.000721322 -0.00548209
11 1 11 15.5405 9.62057 8.24927 0.00736369 -0.00752896 -0.0193592
248 21 11 2.6548 13.728 6.46022 0.0151469 0.0140402 -0.0164784
360 30 11 1.73917 10.709 8.65124 0.0208203 -0.0222633 -0.00555395
245 21 1 1.67131 13.6638 5.92504 0.00292104 -0.00330339 0.00326409
247 21 11 1.48993 13.1482 6.92318 -0.0131333 0.0022177 -0.00734186
612 53 20 3.99737 11.3886 7.46693 -0.000604624 0.000252983 0.00977269
249 21 11 2.90951 13.5429 5.83698 -0.000326845 0.0122341 -0.00923399
613 53 19 4.50427 13.362 7.90694 -0.00220189 -0.00336851 -0.00018547
582 50 20 0.0798517 14.2382 9.27401 -0.00386247 -0.000392549 -0.000106507
581 50 9 0.88331 13.3755 9.89653 -0.00393141 0.00181248 0.00399375
584 50 19 2.19887 12.6169 9.36034 -0.00524012 -0.00300005 0.000345068
616 53 2 4.77228 14.7867 7.5542 0.00192862 0.00258778 -0.00464612
478 40 11 7.71112 10.1785 7.58554 -0.0205527 -0.0269959 0.0222761
474 40 1 7.91538 10.1491 8.31635 0.00962896 0.00177682 -0.00204129
480 40 11 8.97582 10.4567 8.99953 -0.0132681 0.0145937 -0.00493298
611 53 9 5.01297 12.1014 7.2921 -0.00175313 0.0108065 -0.00807744
615 53 2 5.99339 13.7479 7.07633 -0.00351145 -0.00815178 0.00190341
614 53 19 5.51779 12.7753 6.41027 0.00209065 -0.000653282 0.00198282
620 53 11 7.0416 13.9818 6.68846 0.0102829 0.00501958 -0.0145484
619 53 11 6.31098 14.1438 5.84311 0.0155515 0.0113645 0.00408166
730 64 11 14.8412 11.319 5.32923 0.017155 0.0167267 -0.00273303
469 40 9 10.3796 10.5169 7.16215 3.93412e-05 -0.0064736 -0.000730145
471 40 19 11.9111 10.3708 7.92847 -0.00385112 -0.00445998 0.000544677
477 40 11 13.5233 10.5183 7.14544 0.0267844 -0.00459059 -0.0245652
470 40 20 10.5511 11.0283 6.00327 -0.003903 0.00321287 0.00085502
631 55 9 13.3226 13.4813 6.98952 0.00437819 0.00745039 -0.00263423
634 55 19 13.5138 14.0446 5.79337 -0.00377283 0.00231222 0.000662029
632 55 20 14.213 12.8864 7.44198 -0.00163715 -0.00257727 0.00061279
633 55 19 12.9522 14.7834 7.15933 0.00289706 0.00148636 0.0011312
152 13 11 12.7859 12.2221 9.85677 -0.0208607 0.0340728 0.00653119
4 1 19 17.8957 10.3573 7.77306 0.000895497 -0.00491453 -0.00327012
10 1 11 16.3414 10.0059 6.16556 -0.00688834 -0.0124231 0.00146729
71 6 11 19.3559 12.6389 5.22975 -0.0227951 0.0129519 -0.0032296
72 6 11 18.7473 10.6119 5.35779 -0.00287769 -0.0205825 -0.0224201
3 1 19 18.8167 10.597 9.80806 0.00286921 -0.000313616 -0.00178202
8 1 11 16.8769 13.1981 8.90594 -0.0059762 -0.00600146 -0.0278011
682 60 20 18.6235 14.9552 7.14308 -0.00187028 0.00273455 0.00103851
243 21 19 2.06392 15.0232 6.68111 0.00797579 0.00182145 -0.00354461
241 21 9 2.07417 16.2566 5.47689 0.00345353 0.000830706 0.00118075
244 21 19 1.30024 17.1829 6.20577 0.00116956 0.00600031 -0.00206879
251 21 11 3.01273 18.4644 6.44091 -0.00125263 0.00729517 0.000882071
246 21 1 2.32603 17.926 6.53434 -3.40165e-05 -0.000194654 -0.00037904
252 21 11 3.46068 17.1975 6.49503 0.0102996 0.00575504 0.00919876
250 21 11 3.13094 17.5365 7.42707 -0.00744177 0.0129963 0.0200017
524 44 11 1.94407 18.008 9.60576 0.00114018 -0.0114892 0.00811593
88 8 19 4.58129 19.8361 8.14031 0.00355457 -0.00115272 -0.00393211
523 44 11 0.238551 16.5782 9.68818 -0.0414773 0.0215838 0.017603
521 44 1 1.11322 17.3003 9.83378 -0.00226245 -0.00160392 0.00343391
651 57 9 7.98498 16.1292 5.05394 0.00790579 0.00023263 0.00729809
653 57 19 8.69432 16.737 5.57133 -0.00259559 -0.00136436 0.00629602
94 8 11 6.1565 19.4767 6.0656 0.00173274 0.0157247 0.0139161
617 53 11 5.64344 15.0621 7.8659 0.0191937 0.031629 -0.0289855
656 57 2 9.78345 16.0167 5.14903 -0.00355408 0.00182925 -0.00754693
95 8 11 6.93449 19.824 7.5586 -0.0252697 -0.0275929 -0.0310789
96 8 11 5.4773 18.4287 6.49352 0.00369921 0.0185728 0.0193615
90 8 1 5.89897 19.3458 7.11955 -0.00233961 0.00418271 -0.00862362
618 53 11 5.06509 15.7826 6.95895 -0.015244 -0.00894755 0.0261278
503 42 11 6.22031 17.9917 8.65214 -0.00721214 -0.0239393 0.0345006
498 42 1 7.0407 17.1976 8.94236 0.00368538 -0.00844403 -0.000461374
502 42 11 6.60137 16.8019 9.67391 -0.010648 0.00664749 0.00983477
554 47 19 9.41688 19.6869 6.80934 -0.00438396 0.00111143 -0.00381585
493 42 9 8.25395 15.1257 9.88709 -0.00576811 0.00132799 -0.009105
504 42 11 8.13314 17.9243 9.05161 0.0246963 0.00744266 0.0125776
496 42 19 7.86408 15.8118 8.2799 0.00144193 0.000762808 0.00317403
495 42 19 9.58603 15.2851 9.9964 0.000567911 -0.00185263 0.00491133
555 47 2 10.1964 19.7594 8.33237 0.00233916 -0.00246413 -0.00331308
559 47 11 10.0208 19.4861 9.47528 -0.000384109 0.0213612 0.0381724
288 24 11 14.8293 19.9778 6.44731 0.0061444 0.00424266 -0.0155838
287 24 11 13.6262 19.3373 7.25942 -0.000777306 0.030646 0.0275861
636 55 2 13.4463 15.6959 6.34449 0.00718569 -0.00170206 0.00339977
635 55 2 14.521 15.0053 5.14342 -0.000677196 0.00124451 -0.00674893
657 57 11 10.8614 16.6231 5.13747 -0.000252342 0.010427 0.0112633
658 57 11 10.6787 15.4356 5.29821 -0.00679227 -0.0106764 0.0149579
500 42 11 10.1271 15.4448 7.33341 0.0409068 0.00182242 0.0299998
638 55 11 12.3459 16.1802 6.53839 -0.0203616 0.00503146 -0.00744787
637 55 11 14.2072 16.7257 6.65526 0.00459944 -0.00553329 0.0384066
552 47 20 10.8184 19.1308 5.78385 -0.0024429 -0.000627597 0.00347526
497 42 1 10.3195 15.2903 8.72082 -0.00566316 0.00588972 6.92165e-06
499 42 11 10.8571 15.1763 9.56395 -0.00869757 0.036317 0.00495554
501 42 11 11.1362 15.2389 8.33702 -0.0303232 0.0155346 0.0257448
703 62 19 12.4317 18.8403 9.89697 0.00248113 0.00497276 0.00184295
284 24 11 18.7505 19.0832 6.09806 0.0293053 -0.0146973 -0.0082668
281 24 1 19.124 19.7339 6.84652 -0.000846378 0.00330692 0.00537423
283 24 11 19.355 18.8967 7.62605 -0.0174256 -0.0244417 0.0237047
302 26 20 19.2224 19.6174 9.39229 0.00100467 0.00597255 -0.00172784
683 60 19 17.0178 15.8407 7.97241 -0.00299331 0.00747901 -0.000178022
681 60 9 17.7172 16.015 6.99437 0.0059616 -0.00916083 -0.00422656
686 60 2 16.3882 16.7821 8.49521 0.0040054 -0.00803359 0.0124658
685 60 2 17.0277 17.8907 8.17395 -0.00260643 -5.90775e-05 0.000695252
690 60 11 16.9528 18.9877 8.14628 -0.0153094 -0.0219872 -0.0396529
688 60 11 15.305 16.6056 8.68312 -0.0088725 -0.0280697 -0.00241079
687 60 11 16.17 16.7151 9.46164 0.0127867 0.00622389 -0.00357121
684 60 19 18.1602 17.0735 7.34999 0.000901884 0.00397964 0.0012896
689 60 11 17.8518 17.9022 8.91502 -0.0340083 -0.00809366 0.0243647
525 44 11 19.8526 17.4179 9.52708 -0.0139329 9.75857e-05 0.00895031
303 26 19 0.75894 0.20973 10.9149 0.00570377 -0.00705237 0.000427536
308 26 11 2.55811 1.21634 10.1344 -0.00392435 -0.0322183 0.0195392
305 26 1 2.00567 1.07569 11.0219 0.000206023 -0.0124314 0.00361274
309 26 11 1.81963 1.60598 11.7786 0.0277104 -0.0239217 -0.0430922
307 26 11 2.43745 0.00349458 11.44 -0.0185074 0.00277464 -0.0243725
226 19 11 1.06921 4.45886 12.9466 0.00867082 0.0030689 0.0334365
224 19 11 4.54679 2.65917 10.3858 0.0196409 0.0120826 0.00234935
622 54 20 1.10502 0.943357 13.9552 -0.00386681 -0.00383227 0.00173961
624 54 19 1.0361 2.88815 14.667 -0.00107516 -0.0032837 0.00309822
219 19 19 4.82793 3.64641 12.6177 -1.64409e-05 0.00278428 -0.00355519
221 19 1 4.84299 3.43921 11.2212 -0.00841588 -0.00875761 0.00231526
225 19 11 4.66991 4.47813 10.8029 0.0056487 0.0101854 -0.0206986
223 19 11 4.29671 2.76551 11.7668 0.00140957 0.0112026 -0.0302925
621 54 9 0.415197 1.67012 14.8291 0.00108071 0.00341909 -0.000858244
220 19 19 2.39491 4.22316 11.8887 -0.00301277 -4.12578e-05 0.00645435
217 19 9 3.74613 4.49287 12.6888 -0.00666418 0.00191405 -0.00347393
276 23 11 2.70154 3.94478 14.7566 0.0253967 -0.00375989 0.0129006
89 8 1 6.44266 0.351258 10.4417 0.00109522 -0.00143325 0.00531477
561 48 9 9.62871 2.33244 11.3563 0.00319683 -0.00625967 0.00631899
563 48 19 9.49415 3.70802 11.6797 -0.00334996 0.00249577 0.00188936
93 8 11 7.34783 0.427005 11.3115 0.0129792 0.00166581 -0.00736324
416 35 11 5.61346 1.85909 13.6311 5.94419e-05 0.00806547 0.00706614
413 35 1 5.88726 1.04393 14.3351 -0.00327007 0.00628951 0.0029607
415 35 11 5.71067 0.786087 13.4228 -0.0256442 -0.00666111 0.017914
417 35 11 6.87163 1.04123 13.5726 -0.00407486 0.0023971 0.0274102
562 48 20 8.97952 1.50748 10.2996 -0.000761596 0.00464132 -0.00515409
735 69 31 5.94115 4.2141 13.5165 0.00353727 -0.00358971 0.000687153
564 48 19 11.287 2.93393 10.4099 0.00326021 -0.00156316 -0.00401601
539 45 11 14.5647 4.49983 13.4188 -0.0146618 -0.0239071 -0.0272166
705 62 2 11.3602 0.217605 11.7819 -0.00252828 0.000522755 0.0036293
709 62 11 10.392 0.154438 12.3467 0.0072438 0.00600149 0.0279441
168 14 11 10.5906 0.0457773 14.7859 0.0128596 0.00951088 0.000306406
293 25 1 11.7762 4.56325 14.0781 0.00282883 -0.00288564 0.00236029
295 25 11 12.6177 4.15424 14.3643 -0.0156149 0.000437178 0.031908
297 25 11 11.2827 3.65906 14.2836 -0.00833073 0.0304681 -0.00920942
704 62 19 12.1083 1.17365 11.4074 -0.00690119 -0.000281276 0.000698718
566 48 2 10.038 4.59915 10.2616 -2.11551e-05 -0.0043396 -0.00738987
702 62 20 14.0621 0.583867 10.1521 0.0016203 0.0065361 -0.00359946
701 62 9 12.781 0.0556636 10.5382 0.0048784 0.00153753 0.000465473
167 14 11 12.0079 0.806262 14.8942 0.0300509 0.000202514 0.0107167
311 26 11 18.089 3.91073 10.0627 -0.00272983 -0.0162948 -0.000316652
534 45 1 15.1604 3.31518 13.7931 -0.00144045 -0.00231574 0.00308139
540 45 11 16.2237 2.95707 14.5885 -0.0109631 0.0196012 -0.00506214
538 45 11 16.0733 3.53314 13.9345 -0.0105917 0.0108966 -0.000520408
529 45 9 15.9597 2.34653 12.069 0.00414626 -0.00264924 0.00951931
530 45 20 15.6333 1.50373 12.2192 -0.00659912 0.00113161 -0.00562606
532 45 19 15.3988 3.42475 12.3901 -0.00239627 0.00314634 -0.00088551
531 45 19 17.5199 2.35347 11.6302 0.00818326 -0.00328751 0.00263919
533 45 1 18.2849 1.68985 12.2558 0.00205105 0.00265896 -0.00254377
627 54 11 17.7832 1.89684 14.9624 0.0266288 0.00829739 -0.00524507
536 45 11 19.4767 1.95024 12.3981 0.0224427 0.0125472 -0.0169593
549 46 11 16.3041 4.81329 10.8116 -0.0218211 -0.00187021 0.00748029
630 54 11 18.7848 3.51288 13.246 -0.00545156 -0.000258603 0.0198265
537 45 11 18.8129 0.839761 13.0794 0.0222284 -0.0079768 0.00245722
535 45 11 18.5198 1.06089 11.4794 -0.0337852 0.0188252 -0.0142921
625 54 2 19.6379 3.52348 14.1315 -0.00408913 0.00432729 0.00480284
629 54 11 19.5876 4.3949 14.9733 -0.00916593 -0.0199188 0.00846792
349 30 9 4.31628 9.59622 10.0448 0.0086619 -0.000623091 -0.00244068
351 30 19 4.68875 7.92439 10.2234 0.00722059 0.00262954 0.00794803
228 19 11 2.71204 5.98291 11.2824 0.0132507 -0.0250875 0.017124
222 19 1 1.60557 5.24969 11.8369 -0.000257046 -0.00517954 -0.00247757
352 30 19 3.00284 9.96396 10.6524 0.0058063 0.00143729 -0.00762143
227 19 11 0.854269 6.10279 12.2828 0.0246361 -0.0209706 0.0153646
218 19 20 4.19348 5.58196 13.0289 -0.00471402 -0.00815115 0.00177374
427 36 11 2.46963 9.33045 14.2542 -0.0229896 0.00821234 0.0279966
429 36 11 0.929739 9.05746 13.5756 -0.0103647 -0.0200241 0.0333008
428 36 11 0.984101 9.18485 12.5201 -0.00382864 -0.0168067 -0.0554152
425 36 1 1.51307 8.75766 13.5919 0.00146131 0.00398273 0.00413056
347 29 11 4.84827 8.35705 13.2363 -0.0126633 -0.00714021 -0.0169488
423 36 19 0.486655 7.56091 14.0814 -0.00124331 0.00218179 -0.00496652
290 25 20 8.5766 5.98865 13.9647 -0.00403539 -0.00498829 -0.00257652
289 25 9 9.22422 5.37705 14.5726 0.0110906 0.00439313 0.00857976
342 29 1 5.30058 8.81341 12.9306 -0.00267957 -0.00170627 4.33705e-05
348 29 11 5.7266 7.70592 13.9651 -0.0202518 -0.000561127 -0.0152609
346 29 11 5.50985 9.92388 12.7705 -0.00863241 -0.0293138 -0.0141136
337 29 9 7.65326 8.93876 13.8385 -0.00368249 0.00112492 0.00511653
338 29 20 8.30335 8.27098 14.5662 -0.00253576 0.0100324 0.0050861
340 29 19 5.99011 9.28861 13.8932 0.000548815 4.30785e-05 0.00368383
567 48 11 10.647 5.22059 11.031 0.0157153 0.0111287 -0.0276979
296 25 11 11.7003 5.03863 13.0282 0.0202079 0.0570599 -0.0138832
291 25 19 10.9424 5.20905 14.8693 0.00501133 0.00526296 0.00603104
603 52 19 12.273 7.79306 13.2363 -0.000675387 0.00170043 0.00115286
601 52 9 13.5604 7.73313 12.3499 0.000249711 -0.00160582 -0.00665349
605 52 2 11.5317 8.46401 11.0361 -0.00273196 0.000621017 -0.00982194
604 52 19 12.8576 8.78629 11.2525 -0.00835293 0.00527177 -0.00464627
608 52 11 10.7373 8.72109 12.8011 -0.0264923 0.0054006 0.0305953
606 52 2 11.152 7.68604 12.1414 0.00144778 -0.00214603 0.00165586
607 52 11 10.0668 7.81682 12.2072 -0.000430621 0.0292511 -0.0152698
610 52 11 12.5593 8.92555 10.3566 0.00170081 -0.00983307 0.00522101
602 52 20 12.9098 6.42341 12.6077 -0.000369203 0.00168849 -0.00159007
550 46 11 15.625 5.79567 11.699 -0.0119839 0.00301315 -0.0064932
545 46 2 15.8076 5.77863 10.6498 0.00135948 0.000722135 0.00458125
544 46 19 16.8605 6.40354 10.6773 -0.0027577 0.00289181 -0.00456999
422 36 20 18.8593 6.59921 12.0171 -0.00239236 -0.0055767 -0.00848303
421 36 9 19.046 7.13086 13.1752 -0.00252932 -0.00179563 0.000408307
426 36 1 17.3157 6.19925 14.9025 -0.00267168 -0.000348943 -0.00243514
430 36 11 16.8678 5.95697 13.948 0.0227004 0.0037429 0.0040625
424 36 19 18.5725 6.41434 14.5197 -0.00074554 -0.00407753 -0.000588602
431 36 11 16.8084 7.24252 14.9986 0.00584453 0.00498595 -0.0170686
359 30 11 1.99738 10.4744 10.2158 -0.00497527 -0.0026096 -0.0110442
590 50 11 2.61063 12.5157 10.027 -0.00872783 -0.0169994 0.00269781
589 50 11 2.92557 11.724 11.4943 -0.0431789 0.0207286 -0.00274667
350 30 20 4.92821 10.1203 10.3411 -0.00226508 0.00190139 -0.00141895
583 50 19 1.55968 14.1299 10.8912 -0.00776649 0.00842509 0.00169413
585 50 2 3.13624 12.5034 10.9637 -0.000338397 0.00363679 0.00343118
588 50 11 3.68225 14.7184 11.6627 0.021738 -0.00452441 -0.00326286
586 50 2 3.00856 13.827 11.1031 -0.00984736 0.00262149 0.0039704
587 50 11 1.62081 14.2599 11.6913 0.0133063 0.0223277 0.0226028
318 27 1 1.23504 13.6107 14.5796 0.00479289 -0.00318163 -8.85849e-05
323 27 11 1.54342 14.6228 14.0135 0.00188501 -0.00989633 -0.0291415
316 27 19 2.75251 13.5338 14.9176 0.00118833 -0.0105613 0.00303291
322 27 11 1.06298 12.3769 14.008 -0.00684913 0.0163331 -0.00433994
314 27 20 3.97472 11.6334 14.1797 0.00180686 -0.00299363 0.00443663
313 27 9 3.66849 12.6987 14.338 0.00233582 0.00278728 -0.00194059
315 27 19 4.31366 13.7005 13.8037 -0.00109838 -0.00486624 -0.00385213
154 13 11 6.89629 12.3512 12.4059 0.0109996 -0.0133572 0.0266413
339 29 19 8.47166 10.036 13.9066 0.000743094 0.0019961 0.00260905
150 13 1 7.36043 12.8482 11.6317 -0.000513982 0.00596343 -0.0032231
148 13 19 8.40909 12.1288 11.4091 0.00317184 -0.0023693 -0.00207093
146 13 20 9.9165 11.2665 11.0942 0.00398734 0.00675575 -0.00454135
156 13 11 8.02074 14.0243 11.8863 -0.0268689 -0.0314587 0.00518569
155 13 11 6.48789 13.5624 10.928 -0.00155686 -0.0437817 0.0219164
341 29 1 9.6999 10.7464 14.4061 -0.00297063 0.00610379 0.00999962
456 38 11 7.28751 11.6677 14.6277 0.013488 -0.023007 0.00260644
445 38 9 7.54963 14.6605 14.9005 0.00863998 0.00148502 0.0046604
345 29 11 9.17364 11.8263 14.2667 0.00688325 0.0147185 -0.00801314
452 38 11 9.92394 14.6832 13.4839 0.0161513 -0.00282315 0.0103047
454 38 11 5.8939 12.225 14.7521 0.0232019 -0.0137376 0.0041451
450 38 1 6.5183 12.494 14.9292 0.0049598 -0.00260428 0.0119588
147 13 19 11.0232 13.2341 11.3051 0.00969249 0.00602046 0.000253038
145 13 9 10.0037 12.3129 11.6073 -0.00744022 -0.000636349 -0.0020017
343 29 11 10.9346 10.8524 14.3299 0.0194432 0.00630831 -0.0117017
36 3 11 14.3906 12.5652 10.8134 0.0104352 0.0137466 0.0354924
149 13 1 12.2686 12.8739 10.8106 -0.002918 -0.00624568 -0.00895631
153 13 11 12.7628 14.4371 11.1787 -0.00542828 0.0228257 0.0060245
151 13 11 12.1122 13.7058 11.5134 -0.00345158 0.00986477 -0.00119283
35 3 11 14.4368 13.7001 11.1257 -0.03761 0.000626689 0.0219737
30 3 1 14.6456 12.3926 11.6687 -0.0119174 0.00460005 0.000385936
34 3 11 14.9512 13.3322 12.3634 -0.01625 -0.0397865 0.0119504
26 3 20 15.8895 10.4793 13.3435 -0.00412146 -0.0024403 0.00562559
9 1 11 18.3923 12.6068 11.2194 0.00616773 0.00304542 0.0055834
5 1 1 17.6089 12.3143 10.0094 0.0114395 0.00224764 0.00156939
7 1 11 18.0224 12.0699 10.8573 0.0104397 -0.0287032 -0.0204858
25 3 9 16.4024 10.9084 12.4796 -0.00525111 -0.00593538 0.00335076
32 3 11 19.065 12.0143 14.5346 0.00755966 -0.0178104 0.0065193
31 3 11 18.8074 10.3064 13.3393 -0.023299 -0.0268506 0.0063606
27 3 19 17.9687 10.6776 12.4639 -0.00206804 -0.00170815 0.00519677
29 3 1 18.3739 10.9509 14.1345 -0.00194779 0.0024381 0.00376367
33 3 11 18.9588 10.4304 14.9124 0.0195743 -0.0071928 -0.0206433
28 3 19 15.8127 11.3387 11.7732 -0.00335655 0.0010847 0.00463968
526 44 11 19.5764 13.965 13.3583 -0.00535676 -0.0201559 0.0160419
522 44 1 19.1583 14.7973 13.0004 5.13339e-05 0.00187347 0.00201107
262 22 11 16.4683 14.5086 12.6417 -0.00100274 -0.0181033 -0.0145279
527 44 11 18.113 14.3875 13.8529 0.0072466 0.00840095 -0.00708426
434 37 20 4.53987 18.7356 11.0564 0.00312074 -0.000721427 0.0086259
317 27 1 4.46803 15.2763 14.0734 0.00175453 0.00630031 -0.00484028
321 27 11 4.74112 15.3977 13.0203 -0.00220967 -0.017215 0.0330855
443 37 11 3.82133 19.913 12.9352 -0.0264276 -0.011402 0.00482213
444 37 11 2.27798 19.0303 12.5966 0.00336915 0.016693 0.0409514
438 37 1 3.15777 19.1387 13.2827 -0.0019295 -0.011279 -0.00661989
442 37 11 2.71646 18.9545 14.1369 0.0242151 -0.0266521 -0.0210149
436 37 19 3.32192 17.9863 12.8989 0.00718509 0.00511325 -0.00491363
433 37 9 4.49159 18.0005 12.1499 -0.00217461 0.00295281 0.0083898
319 27 11 4.38602 15.5831 13.4757 -0.0102543 -0.00889035 -0.0238318
519 44 19 0.537725 17.5939 11.3303 0.000191048 -0.00562695 0.00398055
92 8 11 6.27855 19.312 10.3571 -0.000682366 0.0132453 0.0223868
494 42 20 7.79549 15.5221 10.6705 -0.0022513 -0.00228496 0.00210617
447 38 19 8.74898 15.052 14.0523 0.00232381 -0.00389295 -0.00467021
435 37 19 5.54791 18.207 12.7088 0.00482286 -0.00170029 -0.00173436
441 37 11 6.94417 16.6102 13.0159 0.0150216 -0.00417208 -0.00243991
437 37 1 6.88454 17.3228 12.1618 0.00646148 -0.00302625 -0.000616536
439 37 11 6.53581 16.3275 11.8545 -0.0123884 -0.00189502 -0.0283606
440 37 11 6.94309 17.6458 13.0973 0.0332674 -0.00854237 -0.0209899
453 38 11 9.44825 16.1093 14.1587 -0.0172813 -0.0337778 0.00711449
710 62 11 10.4296 19.9204 11.7875 -0.019592 0.00304514 -0.00422858
449 38 1 10.2938 15.3449 13.9684 -0.00427996 -0.00136084 -0.00615984
451 38 11 10.5081 16.35 13.8595 -0.0228487 -0.0274612 -0.0054897
708 62 11 10.6197 17.7754 10.9819 0.013834 -0.0184687 -0.0130524
707 62 11 12.7475 18.1638 10.158 0.020358 -0.00869212 0.0253013
706 62 2 11.5542 18.8411 10.6611 -0.00540017 -0.00616403 -0.00469757
157 14 9 13.8546 19.3084 14.4037 -0.00391398 0.00669999 0.000348775
158 14 20 13.3797 18.7035 13.5649 -0.000609732 0.00154676 -0.000452993
165 14 11 16.9082 18.6735 13.622 -0.0102521 -0.0134744 0.00739441
164 14 11 15.8983 18.7994 13.0284 0.0399436 0.00627536 0.018
263 22 11 15.3898 16.037 13.4109 0.0182189 0.007979 -0.0332975
528 44 11 19.8573 15.3019 13.2476 0.020126 0.00405663 0.00605311
408 34 11 19.6251 19.4872 14.5503 -0.022645 -0.017236 0.0114338
256 22 19 15.5415 16.2374 14.6503 -0.00267933 -0.0037916 0.00573539
264 22 11 17.1046 16.1867 12.9041 -0.024822 -0.0189413 -0.0185834
258 22 1 16.1448 15.6756 13.3945 -0.00331442 -0.00485992 -0.00177551
517 44 9 19.3924 16.7288 11.5219 -0.00605947 -0.00160473 -0.000922017
520 44 19 19.2412 15.181 11.5582 -0.0025051 -0.00441673 -0.00628069
518 44 20 18.8088 17.2377 12.415 0.000744078 -0.00226095 0.00193696
159 14 19 15.0196 19.9428 14.4615 -0.00805726 -0.0067196 -0.00305815
161 14 1 16.0403 19.0058 14.1558 -0.00151536 0.00228484 -0.00287749
163 14 11 15.7058 19.5705 13.6132 -0.0040881 -0.0117917 -0.00141696
420 35 11 1.57466 0.601926 16.658 0.0199243 0.0141672 0.00206098
144 12 11 2.59847 0.120703 19.2399 0.0233461 0.0139365 -0.0158667
138 12 1 3.68927 0.284387 19.5592 -0.00409886 0.00710914 -0.000974472
419 35 11 1.61821 1.52357 17.4457 -0.00544185 0.0182103 0.0110506
414 35 1 2.602 1.04311 17.1755 -0.00289079 0.00123793 0.00864566
418 35 11 2.73861 2.10941 17.3621 0.00595254 -0.0235395 0.0278186
412 35 19 2.8765 1.13043 15.8662 -0.000988141 0.00761918 -0.00457761
647 56 11 4.39204 3.07535 18.7153 0.00639059 0.0178342 0.0114786
646 56 2 4.62407 3.99349 18.287 -0.00275586 -0.000715213 0.00268208
643 56 19 4.90697 2.54332 17.4507 0.00701807 -0.00410979 0.00751297
749 71 26 1.39444 3.95027 17.3194 -0.00460399 -0.00418172 0.00321711
409 35 9 4.57136 0.595868 15.6653 -0.00288702 -0.000338557 -0.000309067
731 65 31 0.354784 0.495289 19.7189 0.00674385 -0.00164339 -0.000991651
747 71 26 0.836774 2.43005 19.34 -0.00172728 -0.000920876 -0.00132368
743 71 27 0.488131 3.80624 18.3693 -0.00143446 -0.00164487 0.00481453
648 56 11 3.99043 4.45118 18.0642 0.00226383 -0.0133938 -0.0178065
744 71 26 1.23686 4.14357 19.7494 0.00642581 0.00107883 0.00581736
410 35 20 5.23749 0.554771 16.6858 0.000530087 0.00742935 0.00649775
300 25 11 8.53434 3.53623 16.3534 -0.00240994 0.000339641 -0.00368567
294 25 1 9.11113 2.77868 15.6109 0.0010159 0.00409933 -0.00108969
292 25 19 8.66847 4.16689 15.1904 0.00232684 0.000372245 -0.00647473
642 56 20 5.42526 3.20538 15.5697 -0.000238781 -0.00183531 -0.00409173
298 25 11 9.69386 2.46722 16.4875 -0.00113472 -0.0131812 0.0172434
760 73 26 9.01133 3.57014 18.8853 0.000997622 0.00501115 -0.000811177
763 73 26 9.21604 1.48804 18.4636 -0.00205867 0.00332386 -0.00717272
757 73 27 9.14779 2.38994 19.8 0.00120079 0.000789929 -0.000239566
641 56 9 5.496 3.5319 16.8946 0.0122443 -0.00485506 -0.00138049
299 25 11 9.80532 2.01107 15.1184 -0.00883965 0.0205348 -0.0386648
650 56 11 6.23978 4.16877 19.1288 0.00540332 -0.0113352 -0.0128708
645 56 2 5.69949 4.73536 18.8161 -0.0007147 0.00419586 0.00577984
644 56 19 6.42735 3.95669 17.9127 0.00717141 -0.0098682 -0.000124797
466 39 11 8.99409 0.327599 16.5011 0.0126247 0.0239856 -0.0151114
468 39 11 7.426 0.483308 16.2826 -0.00848628 0.00242573 0.00824782
162 14 1 11.637 0.0148163 15.3652 -0.000178532 -0.00363693 0.00538816
166 14 11 10.8043 0.832752 15.862 -0.0237878 0.0115643 -0.0054246
160 14 19 12.9846 0.174091 15.4815 -0.00241181 -0.00593894 0.0040311
758 73 26 10.5955 2.60818 19.3068 0.00531587 0.00375879 0.00386394
194 17 20 13.6891 3.89756 18.8422 0.0052259 -0.00994618 0.000142354
196 17 19 12.9836 4.9847 16.5546 0.00948005 -0.00160332 -0.00381917
195 17 19 13.8506 3.14451 16.7862 -0.00594992 -0.00337935 0.00323908
193 17 9 13.2175 3.95337 17.7285 0.00393605 -0.000321088 -0.0066759
732 66 31 12.8643 0.187005 18.1467 -0.00653818 0.00166597 0.00508273
201 17 11 14.8587 1.68473 17.3729 -0.00120433 0.00627752 0.0104111
171 15 19 15.8594 2.81173 19.7812 -0.00285776 0.000947886 0.00351513
173 15 1 17.3658 2.48682 19.9775 -0.00188368 -0.0103134 -0.00588702
177 15 11 17.5026 3.80317 19.9921 0.0143444 0.00574008 -0.00908167
176 15 11 18.0922 2.01281 19.0798 0.00128365 0.0143634 0.00258534
623 54 19 19.3548 1.76394 15.5608 -0.00398171 -0.0073608 -0.00130223
626 54 2 18.627 2.66887 15.1587 -0.00783103 -0.00226713 0.002207
628 54 11 18.4922 2.26969 15.946 -0.0369837 -0.0205636 0.00480023
748 71 26 19.4377 3.94204 19.4253 0.00146069 0.00758891 0.000199719
200 17 11 16.1886 2.97757 17.6756 0.0118092 -0.0107965 0.0032883
199 17 11 15.5625 3.63934 17.4675 0.00536547 -0.0273302 0.0045482
753 72 26 16.4047 0.495222 18.4569 -0.00426219 0.0039283 -0.00274368
197 17 1 15.1475 2.44955 17.1948 -0.0026657 0.00201376 -0.00285919
745 71 26 19.7845 3.0487 17.3494 -0.0068828 -0.00536778 0.0016102
672 59 20 2.3684 6.11536 19.9797 -0.000547599 0.00211231 0.000398771
671 59 9 2.69849 7.31317 19.6068 -0.0116481 -0.00188686 0.00803637
673 59 19 3.4492 7.32901 18.7296 -0.00476706 0.00346174 0.000416525
676 59 2 4.77943 8.04039 19.8875 -0.00239327 -0.0022985 0.00220522
678 59 11 4.47667 8.73899 19.1076 0.0166643 0.000596251 0.000315955
275 23 11 3.49779 5.29794 16.4165 -0.00815546 0.0193466 0.0128435
270 23 1 3.49831 5.00045 15.3862 -0.00136916 -0.00382556 -0.000298768
274 23 11 2.77291 5.02782 16.0251 0.0168228 0.00840678 0.0261459
268 23 19 3.31316 6.68319 15.2322 0.00144408 0.00845115 0.00448814
265 23 9 3.48023 7.66007 16.0762 0.000108638 -0.0054555 -0.00594487
266 23 20 3.7409 8.72874 15.7951 -0.00438459 -0.00448562 0.00100069
768 74 26 2.07536 9.81817 17.7847 0.0024248 -0.00138583 0.00173978
766 74 26 0.230654 9.7451 16.3058 -0.00291308 0.00456444 -0.0022419
267 23 19 4.81597 7.21079 16.4383 0.00157409 0.00415727 0.000550433
746 71 26 0.0409774 5.13395 17.4226 0.00351946 0.000733242 -0.00393774
649 56 11 6.20838 5.42131 18.5641 0.00561365 0.0315487 -0.0135616
713 63 19 9.12691 7.44978 19.5031 0.00440366 -0.00220874 -0.00307024
716 63 2 9.33286 8.86515 19.1228 0.00699158 0.00165576 0.00651981
717 63 11 8.35565 8.57502 19.8001 0.00969222 -0.0143695 0.0224909
677 59 11 5.36512 7.45146 19.178 -0.000404877 0.0170164 0.0133217
269 23 1 6.6217 7.27287 16.4326 0.00181319 0.00787981 -0.0138207
271 23 11 5.97247 6.4709 15.6782 -0.00524262 0.0261869 -0.00257464
272 23 11 7.4079 6.88209 17.0766 -0.0317883 0.00116301 -0.00257061
273 23 11 6.42474 8.3177 16.5883 0.0220418 -0.0196728 0.0105424
714 63 19 9.95533 7.32617 17.8318 0.00042837 0.000608373 0.0098104
715 63 2 8.92798 8.1627 17.7651 -0.00339854 0.00331012 -0.00869139
720 63 11 8.23346 8.13287 16.4383 -0.00828222 0.00693396 0.0189507
719 63 11 8.26715 8.81845 17.6312 0.0307516 0.0023088 -0.00288081
711 63 9 9.66822 6.30386 18.7183 0.00729781 -0.00410054 0.00294822
386 33 20 6.46233 9.80945 18.427 0.00494131 -0.000722128 -0.00236118
599 51 11 14.537 7.10142 17.817 -0.0181647 0.0241089 0.0294867
712 63 20 10.6131 5.45902 18.1586 -0.0033905 0.0015701 -0.000525543
202 17 11 13.0117 6.8119 15.1845 -0.0137271 0.00239942 -0.0266534
204 17 11 13.2221 7.45205 16.6594 0.0232944 -0.009304 -0.020889
203 17 11 11.7777 6.45021 16.4229 0.0220022 0.0168529 0.00592569
198 17 1 13.0811 6.3054 16.3292 0.00341374 0.00216904 -0.00391341
598 51 11 13.5901 6.77103 19.7958 0.0137981 -0.0330757 0.0132765
596 51 2 14.0993 7.32953 19.3755 0.00144112 0.00519742 -0.00286185
22 2 11 14.5403 9.77905 16.2836 0.00700162 -0.01401 -0.00918406
741 70 26 11.9608 8.96159 17.819 0.00560255 -0.000549573 -0.00238775
591 51 9 16.3733 5.79906 19.8242 -0.00507636 -0.000419059 0.00319385
432 36 11 17.4436 5.39369 16.2483 -0.0263828 0.00563238 0.00218285
594 51 19 15.8887 7.19624 19.5681 -0.00587552 -0.000356997 0.00299917
595 51 2 15.213 7.57062 18.5319 -5.16073e-05 0.00666734 -0.00185574
600 51 11 15.9448 8.4741 18.7691 0.00314609 -0.0047856 -0.00675943
24 2 11 15.6744 9.92969 17.4712 -0.00852263 -0.014015 -0.0323454
324 27 11 0.527402 13.1182 15.1954 -0.025538 0.0012659 -0.018714
770 74 26 1.57211 10.7862 15.3247 -0.000154852 0.00638371 0.00226542
395 33 11 3.43202 10.2719 19.0745 -0.024592 -0.00498761 -0.00509599
396 33 11 4.588 10.6241 17.2968 0.00758025 0.0140364 0.00115614
765 74 26 2.19123 12.3257 16.7819 -0.00169732 -0.00375096 -0.000844464
764 74 27 1.44718 10.7752 16.5484 -0.00408541 -0.000967488 0.000554296
390 33 1 4.38787 10.814 18.3555 -0.000408513 -0.00210078 -0.00565189
663 58 19 4.72006 14.9292 19.8949 0.00662648 -0.0045249 -0.000641558
394 33 11 4.03757 11.5227 18.1568 0.00711777 0.00210652 -0.0141754
769 74 26 0.562215 10.2174 17.7599 -0.00466802 -0.00316988 -0.000949532
767 74 26 0.891063 10.9923 15.4013 0.000379673 -0.00333671 0.000591592
99 9 19 1.61849 14.5495 19.4994 -0.00771484 0.00120306 -0.00207551
455 38 11 6.44964 11.5346 15.5276 -0.0392502 0.00622319 0.0196701
388 33 19 5.11863 11.1804 19.3805 0.000583139 -0.00437509 -0.00360364
448 38 19 7.32068 13.4142 15.3743 0.000545186 0.00474758 0.0111908
385 33 9 6.35459 10.4914 19.2271 0.00948178 0.00300621 -0.000852273
387 33 19 7.38759 11.4094 19.3353 -0.0053837 0.00496569 0.00204142
389 33 1 8.08998 12.0851 18.4632 0.00561234 0.00161206 0.00220725
391 33 11 8.80835 11.9339 19.1961 0.00931097 -0.0121044 -0.00248183
392 33 11 8.24177 12.3285 17.4654 0.00247565 0.0127396 0.00929613
393 33 11 9.3561 11.6559 18.3283 0.00284487 -0.0039858 -0.00312692
80 7 11 12.5318 13.6976 18.2228 -0.0201907 -0.00097109 0.0172225
344 29 11 10.161 10.0865 15.0711 0.0316058 0.020193 -0.00648439
738 70 26 11.3561 10.4164 18.4932 0.00294558 -0.00192087 0.00447593
739 70 26 10.6236 10.5157 16.8875 0.0046867 -0.00461149 0.00344464
742 70 26 10.6884 11.9164 16.678 -0.00836852 -0.00074549 -0.00298286
736 70 27 11.7852 10.7174 17.5536 -0.00322029 0.000110763 0.0023011
740 70 26 12.5403 11.6861 18.0042 -0.00319289 -0.000785879 -0.000186279
737 70 26 12.7267 10.9396 16.2356 0.00531496 -0.000881761 -0.00349348
20 2 11 14.7487 13.547 19.2126 -0.00404613 -0.0196599 0.0146699
77 7 1 11.9704 14.8704 18.2046 -0.00172854 -0.00190046 -0.00459404
81 7 11 12.3108 14.646 16.9493 -0.0148671 0.00596966 -0.00731457
69 6 11 19.6369 11.1826 19.8026 0.0110305 0.0110367 -0.0100842
108 9 11 18.262 13.8284 18.7285 -0.0208793 0.00328415 0.0273558
23 2 11 16.1591 10.3898 17.1661 -0.00637591 -0.00563973 -0.00799888
18 2 1 15.4542 10.4901 16.4472 -0.0033479 0.0030067 -0.00710256
13 2 9 16.2921 12.712 15.9033 -0.0038361 -0.00179413 -0.00582925
16 2 19 15.4461 11.8043 15.8628 0.00274676 -0.00451482 0.0038673
15 2 19 16.46 12.8768 17.3898 0.00104726 0.000295087 0.000294576
17 2 1 15.4656 13.9541 18.1632 -0.000528835 -0.00749373 0.00117372
19 2 11 15.9449 13.3664 19.0688 0.00675903 0.00168764 0.0254353
14 2 20 16.8677 12.8899 15.2425 -0.0010931 -0.00836976 -0.00221174
107 9 11 18.8919 14.9115 16.964 0.0270308 -0.0207029 -0.0348635
102 9 1 18.4744 14.8156 18.1245 -0.00108273 -0.00259772 0.0038191
100 9 19 19.816 14.5757 18.1722 0.00480393 0.00251465 0.0026983
143 12 11 3.36716 19.5926 19.3398 0.0125504 0.0133844 -0.0220762
400 34 19 0.245486 18.1233 16.4925 0.00272038 0.00356833 -0.00203807
320 27 11 4.42761 16.2076 15.0057 -0.000817188 -0.0164389 0.0257098
142 12 11 4.31789 19.2428 19.7682 0.0397192 -0.0265948 -0.0106486
668 58 11 3.15718 15.678 17.9901 0.00341292 0.00202239 0.0156475
666 58 2 3.81315 15.718 18.6786 -0.00369553 -0.00241857 0.0074951
398 34 20 1.89642 16.2408 15.9018 0.00162197 0.00122445 0.00235125
397 34 9 1.42351 17.265 15.5648 0.00476228 -0.00447915 -0.000249454
399 34 19 2.72719 17.7714 16.1799 0.00391053 0.00346877 0.00221481
401 34 1 2.90621 18.1254 17.4546 0.000997164 0.00483577 0.00219958
405 34 11 3.68195 18.1142 17.7668 0.00170246 -0.0156565 0.0101979
403 34 11 2.18116 19.1969 17.783 0.0117133 0.021399 0.0162879
667 58 11 3.65206 16.4503 19.3614 -0.0111893 -0.00977662 -0.00126706
404 34 11 2.5485 17.5794 17.9344 -0.0147042 -0.025932 -0.0137698
670 58 11 4.63566 15.5309 17.0526 0.00839034 0.010465 -0.00140397
406 34 11 0.565348 19.6862 15.7711 -0.0170562 -0.00609759 -0.0129973
97 9 9 0.940498 15.1773 18.5576 -0.00314037 -0.00983394 -0.00154153
98 9 20 0.772151 16.2007 18.758 0.00567378 0.00678204 -0.00365563
236 20 11 8.03089 19.5912 18.8895 0.0470877 0.0037963 0.00624988
411 35 19 5.00947 19.8496 15.0146 0.00324001 -0.00374608 0.00204608
446 38 20 6.84707 15.1906 15.2224 -0.00662507 -0.000901659 0.000503123
669 58 11 5.8075 15.6283 17.4982 -0.0323746 -0.0114021 -0.00247123
661 58 9 6.04444 15.3593 19.6454 0.00683112 -0.000664634 -0.00246589
664 58 19 5.87171 16.3456 18.7056 0.0064355 -0.00700895 -0.00232224
665 58 2 5.00864 16.0052 17.795 -0.00489298 0.000585182 -0.000556645
467 39 11 7.43422 19.0774 16.7539 -0.00301631 0.000284593 0.0173865
458 39 20 9.22107 16.6203 16.6333 -0.00495765 0.00753059 0.0040605
237 20 11 7.38158 18.2831 18.8234 -0.0223329 -0.0374897 -0.011913
235 20 11 6.54296 19.2494 18.424 0.00423241 -0.00271272 -0.0168245
233 20 1 7.06263 19.1118 19.3768 -0.00186863 -0.00532726 0.00432356
460 39 19 8.54693 18.5445 16.4367 -0.00657072 0.00352163 -0.0031165
462 39 1 8.18072 19.7145 16.7458 0.000129533 0.00541825 -0.00549251
457 39 9 9.67025 17.686 16.6438 -0.000619842 -0.00137504 0.00304789
75 7 19 11.851 15.9926 18.9667 -0.000728929 0.00593447 0.00279209
752 72 26 14.1886 19.8893 18.5999 -0.00115382 -0.00134997 0.00341242
79 7 11 11.9188 15.3771 17.1022 -0.0126635 -0.0287781 -0.00629877
459 39 19 11.2195 17.6413 16.539 -0.00474518 0.00442196 0.00675629
465 39 11 11.6682 19.0355 18.5499 -0.0235146 -0.0405911 0.040299
254 22 20 14.3021 15.2825 16.0593 0.00477375 0.00743204 0.00133151
464 39 11 12.7648 17.853 17.32 -0.0383837 0.0424084 -0.00738367
461 39 1 11.9469 18.5521 17.3444 0.00286197 0.00844946 0.00255388
463 39 11 11.8178 18.394 18.1618 -0.00400664 0.00897126 -0.0176579
754 72 26 14.7929 18.1982 19.2887 0.00758798 -0.00889629 -0.00142928
402 34 1 19.7446 18.9687 15.4779 -0.00707456 0.00552166 0.00275791
261 22 11 18.1547 17.1498 17.0447 -0.0084507 -0.00220884 0.00823513
259 22 11 18.2599 16.3322 15.7381 -0.0137899 0.0124072 -0.0209396
21 2 11 15.4369 15.0768 18.569 0.0062068 0.0283212 0.00796791
407 34 11 19.0099 18.5475 15.5856 0.00475737 0.0195638 -0.0319343
253 22 9 15.3918 15.7489 15.8105 0.0118499 0.00927597 0.00113674
255 22 19 16.1617 16.421 16.7908 0.00227722 -0.000562384 -0.00326815
257 22 1 17.4811 16.9824 16.3606 -0.00352729 -0.00190088 -0.00225606
260 22 11 16.7399 17.4701 15.4005 0.0111769 0.0088452 -0.0272177
750 72 27 15.5674 19.2969 18.9071 0.00332805 0.00347944 -0.00130838
106 9 11 18.8749 15.2807 19.353 0.0394458 -0.000603524 -0.0272929
756 72 26 15.0426 19.0748 17.4527 -0.000639945 -0.000645959 -0.00217379
751 72 26 16.7786 18.7354 18.9101 0.0019095 0.00678859 0.00074497
ITEM: TIMESTEP
1550
ITEM: NUMBER OF ATOMS
770
ITEM: BOX BOUNDS pp pp pp
0.0000000000000000e+00 2.0000000000000000e+01
0.0000000000000000e+00 2.0000000000000000e+01
0.0000000000000000e+00 2.0000000000000000e+01
ITEM: ATOMS id mol type x y z vx vy vz
136 12 19 3.56272 1.25667 0.653633 -0.00756894 0.0212191 0.0131616
59 5 11 3.5503 0.107994 2.95681 -0.0449384 -0.0860429 -0.0694917
52 5 19 2.4485 0.965979 4.35196 -0.0203815 -0.0013769 -0.00797669
49 5 9 2.85072 2.28805 3.76412 -0.018346 0.0185168 -0.000230056
51 5 19 4.15957 2.91976 3.83085 0.0046419 -0.000627878 0.00273179
50 5 20 1.96729 2.92509 3.22252 0.0201577 0.00366007 -0.0331408
133 12 9 4.69725 1.63897 1.25659 -0.00501621 0.00502705 0.0205185
135 12 19 5.17831 2.86976 1.02733 0.0140736 0.0192223 -0.0184789
116 10 11 19.935 0.83931 3.8684 0.0131359 -0.0602582 0.0270438
134 12 20 5.51789 0.924898 1.41911 0.0163201 -0.0110023 0.0188396
508 43 19 7.74194 0.953062 3.25039 0.00745072 -0.00406133 -0.030348
505 43 9 8.46148 1.00615 4.53385 0.00239606 -0.0110129 -0.0196507
137 12 1 6.0551 3.57001 1.90406 -0.000629636 0.029437 0.00482766
140 12 11 6.92007 4.0823 1.21464 0.01012 0.0806768 0.0641673
56 5 11 5.19008 1.58786 4.89998 0.0528213 -0.0241098 -0.0657329
762 73 26 9.48607 2.94023 1.17364 -0.0165064 0.0162967 -0.00493777
141 12 11 5.20565 3.95619 2.46163 0.0448578 0.0461394 0.0343686
139 12 11 6.31304 2.9106 2.59811 0.0303378 0.0574501 -0.0459594
734 68 31 6.56512 3.62425 4.41948 0.0222526 -0.024179 0.00601124
759 73 26 7.76735 1.97781 -0.00396401 0.000203099 0.0277679 -0.0113103
761 73 26 9.85506 0.743455 0.562644 0.0407968 -0.0275595 -0.0165039
507 43 19 9.59683 1.94308 3.89264 -0.0136981 0.0128048 0.00194396
132 11 11 13.1248 0.0138876 2.08471 -0.105426 -0.000257442 -0.126601
170 15 20 14.5317 1.51529 0.900592 -0.0133048 0.0181685 0.0129402
169 15 9 14.8753 2.6214 1.081 -0.00377052 -0.00381064 -0.00584448
174 15 1 13.2863 4.19515 1.91754 0.00132594 -0.00222059 -0.0239473
172 15 19 14.4746 3.31711 1.93869 0.0218366 -0.00366318 0.0107429
130 11 11 12.4248 1.56879 1.26437 0.0358711 0.0102527 0.17549
124 11 19 13.048 1.34057 3.56393 -0.00244438 0.011222 -0.0186353
513 43 11 11.1734 3.46898 4.41442 0.0206653 -0.194357 -0.123858
178 15 11 13.198 4.49668 1.05345 -0.0631374 -0.0927082 -0.0611238
126 11 1 12.418 0.650712 2.34945 0.00751754 -0.0189223 -0.0194546
121 11 9 13.8859 1.27219 4.85118 0.0104129 0.00559066 0.0099462
179 15 11 13.6139 4.54313 2.91464 0.031277 0.0493469 0.119727
131 11 11 11.2126 0.329163 2.49475 -0.0892211 0.150399 0.105149
180 15 11 12.264 3.90956 2.21289 0.0461013 0.0796541 -0.0160752
113 10 1 19.4393 1.30038 2.90702 -0.00254965 0.0141595 0.0382649
115 10 11 18.5588 0.660196 2.91765 0.0358434 0.0503944 -0.0371484
117 10 11 0.18778 1.43866 1.97202 0.00804832 0.0864516 0.0696124
175 15 11 16.945 1.33466 0.249501 0.0434489 0.0445977 -0.0244582
109 10 9 19.2008 3.60667 4.42241 -0.0187365 0.0121723 -0.0151169
111 10 19 18.865 2.68184 3.38779 0.00445547 0.00784618 -0.00585264
123 11 19 15.3789 1.11953 4.42156 0.0175633 -0.00138515 -0.0219223
128 11 11 16.2677 0.154466 3.04386 -0.064869 0.0547536 0.124264
38 4 20 1.04706 8.59494 4.51576 -0.017949 0.0348637 0.0124605
674 59 19 2.83821 8.10505 1.21185 -0.000365949 0.0073397 0.022318
680 59 11 4.00166 8.81845 0.901548 0.0661596 0.028207 -0.0345965
675 59 2 4.23973 7.796 1.04978 -0.00175648 0.0194882 -0.0167426
37 4 9 1.63018 7.76567 5.00455 0.0250595 -0.0428779 0.00952846
39 4 19 2.9723 7.39627 4.81085 -0.00973098 -0.000404549 0.0215286
44 4 11 4.24416 9.24735 4.54834 0.0146162 -0.0014708 -0.00569496
41 4 1 3.8662 8.65401 5.29739 0.000779618 0.0233741 0.0122374
333 28 11 0.70346 6.91609 2.69211 0.0940049 -0.0803162 0.0496336
45 4 11 3.77856 9.75244 4.97407 0.0773635 0.0294404 0.0969273
679 59 11 5.33456 7.94493 1.28602 -0.0665381 0.0104111 0.125992
205 18 9 9.28212 6.66621 2.53341 -0.0170341 -0.00582849 0.0163737
206 18 20 8.73161 5.86891 1.69414 0.00885627 -0.0215315 0.0261947
210 18 1 8.55023 8.90321 2.53466 0.00108411 0.00324699 0.0197292
215 18 11 7.57796 8.55516 2.10897 -0.073519 0.0809798 0.101352
208 18 19 8.68284 7.73643 3.21464 0.00386506 0.00261121 -0.0161165
216 18 11 8.9195 9.38449 3.52723 -0.00629677 0.0510918 0.000253063
214 18 11 9.44425 9.17287 1.99098 0.0171556 0.000217253 -0.0581339
718 63 11 9.85785 8.75868 19.917 -0.0350433 0.0158073 -0.00306301
491 41 11 5.90151 6.40687 5.27296 0.0449163 -0.0797716 0.176093
490 41 11 4.99471 5.71877 5.20893 -0.038256 -0.0779619 -0.00171151
207 18 19 10.5862 5.99975 2.94172 -0.0132922 -0.0034631 -0.017642
209 18 1 11.503 6.83904 3.42463 0.02254 -0.00564384 0.00254382
213 18 11 12.1161 7.03134 2.41949 -0.105731 0.0139782 0.20749
212 18 11 11.4283 7.75167 4.25901 -0.00917629 -0.0368037 -0.109991
593 51 19 14.4203 6.23799 0.454678 -0.0103834 -0.00303738 0.00755401
211 18 11 12.2608 6.30396 4.01688 -0.0572224 0.0667768 -0.0667928
597 51 11 13.493 7.5828 0.277242 -0.00208579 -0.192558 0.0590779
335 28 11 14.4971 8.11088 3.74684 0.0743732 0.0211268 -0.103126
336 28 11 14.3806 8.12913 2.51647 -0.0825186 -0.0657038 -0.0403433
334 28 11 15.736 7.04525 2.55256 -0.0326621 0.0488816 -0.0802226
592 51 20 16.6459 5.64731 0.545837 0.0194728 -0.0382157 0.0117157
332 28 11 19.6816 5.8458 1.44288 -0.0367701 -0.0634246 -0.0986843
331 28 11 19.8145 7.48963 1.24434 -0.0266474 -0.186943 -0.00722145
329 28 1 19.6049 6.80793 1.97506 0.022076 -0.0268025 -0.0366186
328 28 19 16.6283 8.17702 3.74332 -0.0319435 0.0168155 -0.0403903
326 28 20 18.2495 7.84562 5.08871 0.00247434 -0.00590795 0.00649263
325 28 9 17.8255 7.35582 4.11804 -0.0250151 0.00952964 0.0209901
327 28 19 18.6304 7.75557 2.65868 -0.0361535 0.0287066 -0.024209
330 28 1 15.2548 8.07889 3.31819 0.0268574 -0.0367773 -0.00188007
733 67 31 17.0881 9.11113 2.50599 0.0340025 -0.0127515 0.00954568
63 6 19 0.545154 12.603 1.33466 0.00219908 0.00303914 0.0042111
577 49 11 2.96184 10.9117 2.59652 0.0554043 -0.00728962 -0.0140972
576 49 2 4.00134 11.3368 2.70875 -0.00597518 0.0350884 -0.00808365
579 49 11 5.33408 12.889 2.92886 -0.0402228 -0.0519337 -0.0125343
61 6 9 0.131433 12.859 2.81614 -0.0365093 -0.0440314 -0.021233
580 49 11 4.15519 12.9279 4.31928 0.0218147 0.0785445 -0.0906794
578 49 11 4.09667 11.3827 1.60381 -0.0783726 0.0336855 0.00468088
573 49 19 5.14909 10.2948 2.61685 0.0294407 -0.0160664 -0.0145772
575 49 2 4.33017 12.7466 3.19974 0.00380461 0.0161417 -0.0065303
62 6 20 0.402653 13.9502 3.04658 0.000212241 -0.0152566 0.0027119
572 49 20 6.76177 10.807 4.17894 0.0101424 -0.0103057 -0.0061978
571 49 9 5.89967 10.8901 3.30847 0.00294444 -0.01735 0.0190579
574 49 19 5.6742 12.3273 2.91087 -0.0143953 0.0119944 0.00306921
84 7 11 9.09336 12.9961 1.56905 -0.0193144 0.00381668 0.0729283
78 7 1 9.95637 13.4992 1.09633 0.00447076 0.0129413 0.0032445
83 7 11 10.5289 13.6004 2.06778 0.03365 -0.00933112 0.133358
654 57 19 8.2203 14.6545 4.26195 -0.016299 -0.00584912 -0.00661615
722 64 20 12.3178 10.5744 1.70716 -0.00742623 0.00299038 0.0249476
82 7 11 10.6422 12.6608 1.18366 0.0345735 -0.0264453 -0.0202979
727 64 11 11.8918 12.627 4.28461 0.0298199 -0.116184 -0.0368143
726 64 2 12.5602 12.3639 3.50827 -0.0505154 0.0127929 -0.034287
723 64 19 11.8803 11.4469 3.10536 -0.00733197 -0.00567031 -0.0217792
721 64 9 13.1184 10.4619 2.85301 0.0458633 -0.0080386 -0.0294791
728 64 11 13.0921 13.33 3.19417 -0.0532672 0.0910856 0.00676798
724 64 19 14.231 10.6651 2.79287 -0.00519903 -0.00406715 0.0157073
725 64 2 14.0621 11.532 3.83796 0.0325045 -0.0388298 -0.0151029
76 7 19 10.1793 14.2904 19.8836 -0.00478084 0.00261082 0.00757812
74 7 20 12.2286 15.1027 1.2207 0.0134811 -0.00334133 0.00419277
659 57 11 9.48749 14.1666 4.94779 -0.0154131 0.11804 0.0174233
655 57 2 9.69961 15.1713 4.47403 -0.00679284 0.00687968 0.010372
660 57 11 10.2414 14.7332 3.90515 -0.0530748 0.0436399 0.0757397
639 55 11 14.4071 14.6876 4.51989 0.0519392 -0.0666009 -0.0396964
68 6 11 19.2468 11.0105 1.10353 0.0459624 -0.0186825 0.0351021
65 6 1 19.3732 12.0667 0.741622 0.0258004 0.028941 -0.0203524
67 6 11 18.3797 12.603 0.80057 0.0166767 -0.0569371 0.0660328
729 64 11 14.6498 11.7029 3.98048 -0.0974743 0.0329035 -0.123733
383 32 11 16.1908 13.523 2.58586 -0.0406996 -0.0485009 -0.0985032
382 32 11 17.4256 13.8575 3.90191 0.00208953 0.131266 -0.0850772
378 32 1 16.9321 14.2808 3.24321 -0.0218633 -0.000551485 0.00137253
384 32 11 16.4299 15.1716 3.59155 -0.182229 -0.0857665 0.111855
70 6 11 0.341567 11.7622 5.05055 -0.0881733 -0.0241948 0.12147
64 6 19 18.9642 12.1182 3.16921 -0.00843153 -0.00242855 0.00781402
66 6 1 19.3203 11.423 4.53706 0.0250166 -0.00841655 0.0357997
54 5 1 3.31533 19.9094 3.9039 0.0209703 -0.0254918 -0.00217755
104 9 11 1.99984 14.2894 1.5825 -0.0492567 0.0367646 0.00597848
240 20 11 2.63966 18.0537 2.16611 0.109504 -0.0264087 -0.0829163
239 20 11 3.86301 17.6438 3.13394 -0.0135983 -0.0169464 0.0178511
238 20 11 3.25873 16.7542 1.98942 0.0193298 -0.0985424 -0.0622438
234 20 1 3.5782 17.6656 2.21285 0.0457931 0.0118899 0.002441
232 20 19 3.9524 18.1583 0.799996 0.0128682 -0.0137881 0.00252567
105 9 11 0.663602 15.1547 0.899945 -0.0438978 -0.0475297 0.0215988
103 9 11 1.77975 15.6342 1.51793 -0.0596382 0.00800335 0.053415
380 32 11 0.466141 16.731 3.11307 0.0162607 -0.0344244 -0.0180039
377 32 1 19.9155 17.6295 3.02691 -0.0174908 -0.0212804 0.00219565
379 32 11 0.431351 17.9577 3.99773 -0.0268868 0.084514 -0.0285963
60 5 11 4.53614 19.6659 3.98523 0.0254449 0.0923968 -0.0171594
58 5 11 2.9788 19.0552 4.25398 -0.00227805 0.0283118 0.0670889
242 21 20 2.85904 16.2188 4.9318 0.0134052 -0.0124812 -0.00615281
101 9 1 1.64497 14.9033 0.780078 0.0193394 -0.0225655 -0.000648638
516 43 11 7.63607 19.0668 2.7589 -0.0605852 0.153883 0.103989
652 57 20 6.79582 16.1599 4.9762 0.0105214 -0.00211715 0.00867619
515 43 11 6.65651 19.7871 4.1377 0.0427292 0.0579504 -0.0348461
230 20 20 5.74878 17.3807 2.05742 0.0115421 -0.0247113 0.00886607
229 20 9 5.27168 17.9693 1.06692 -0.00656458 0.0207091 -0.017131
514 43 11 7.45604 19.077 4.38043 0.0498326 0.122056 -0.103711
510 43 1 7.48362 19.6066 3.46309 -0.00846134 0.0218976 0.0341256
191 16 11 10.5569 18.7202 2.06214 0.125954 0.0782597 0.0899756
662 58 20 6.85883 15.2503 0.602383 0.00274422 -0.0169092 -0.00816961
231 20 19 5.82288 18.8126 0.0701552 0.00361488 0.00352273 -0.0122482
73 7 9 11.2649 15.0618 0.428228 -0.0153783 0.00836886 -0.0296792
182 16 20 12.5248 18.2282 3.90451 -0.021451 -0.0065973 0.000812968
186 16 1 10.183 17.6353 2.20357 0.0433056 -0.00432485 -0.0207601
192 16 11 9.07341 17.8074 2.79927 -0.059974 -0.00768521 -0.0344826
190 16 11 10.2074 17.7361 1.02515 -0.0412572 -0.108293 0.179244
184 16 19 11.2239 17.0156 2.86254 -0.0317897 -0.0110934 -0.00666964
181 16 9 12.4335 17.724 2.8141 -0.0111133 -0.036667 0.0445447
183 16 19 13.2837 17.8261 1.95986 -0.0144644 0.00739657 -0.00461383
185 16 1 14.8122 17.4282 2.02822 0.0226942 -0.0233238 -0.0114039
187 16 11 15.3122 18.1215 2.53358 -0.00419222 0.0484367 0.0603647
188 16 11 15.353 16.5249 1.90176 0.0542876 -0.106464 -0.0300811
640 55 11 15.125 15.542 5.16575 -0.0393997 -0.0733273 0.0129314
376 32 19 17.634 15.367 2.51451 0.0363868 0.00786364 -0.0273051
189 16 11 14.0159 17.0741 1.53001 0.0154283 -0.0890132 -0.0180855
755 72 26 15.9533 19.4872 0.232737 -0.00999369 -0.0080751 -0.000316208
373 32 9 18.0491 16.5348 3.48925 -0.00465831 0.0292146 0.036432
375 32 19 18.5882 17.3355 2.86426 -0.0138165 -0.0134688 -0.0377729
125 11 1 15.7881 19.9831 4.02602 -0.0104228 0.00299996 -0.00779196
127 11 11 15.2513 19.2185 4.39779 0.0279472 0.0281385 -0.028509
381 32 11 0.173914 18.5035 2.41074 -0.0779383 -0.0588527 0.113557
129 11 11 16.7499 19.5917 4.34477 0.0764524 0.0177529 0.0270849
374 32 20 17.1174 17.0133 3.66247 -0.018008 0.0171211 0.0295405
57 5 11 4.65195 3.35186 5.56823 -0.106194 0.0168451 -0.0470857
691 61 9 2.26728 2.33874 7.51318 0.00230239 0.0105201 -0.0165123
693 61 19 1.12096 2.93862 7.39765 -0.0129069 -0.0164876 -0.00405643
692 61 20 2.54761 1.21162 7.0955 -0.0146585 -0.0125705 0.0110615
694 61 19 3.46157 3.19493 8.27078 0.00183065 0.00604865 0.00131246
698 61 11 0.829258 4.49076 7.28053 0.0898127 0.00621126 0.0579496
696 61 2 1.36239 4.31849 8.07684 0.00292003 0.0205954 -0.00496968
695 61 2 2.76997 4.50349 7.94309 -0.00575314 0.00630708 0.0029128
53 5 1 4.64028 2.35269 5.11894 0.00868896 0.00103495 0.0180326
699 61 11 3.30275 4.58718 7.02646 -0.115694 -0.0343315 0.042037
506 43 20 7.82938 1.54653 5.41811 -0.0317427 0.0294442 0.0289197
511 43 11 10.0092 3.00645 5.51477 0.02528 0.010669 -0.0940271
512 43 11 9.6093 3.92513 4.18798 -0.0162908 -0.109068 -0.0314626
55 5 11 4.10963 1.997 5.84594 0.0161854 0.0398353 0.0157528
86 8 20 5.67527 1.97629 7.80844 0.00728273 -0.000616626 -0.00608742
85 8 9 5.29147 1.1133 8.54188 0.0137527 0.0162676 -0.00239808
87 8 19 6.04678 1.15934 9.88995 0.0195946 -0.0251393 0.0128654
481 41 9 7.3852 4.54578 6.73511 0.0255912 -0.00191451 -0.00550496
482 41 20 7.01862 3.68985 5.89418 0.00619356 0.00905652 0.00656418
483 41 19 8.1611 5.16906 5.93977 0.0188532 0.0296606 -0.0117073
91 8 11 7.8381 0.339079 10.3336 -0.0328899 0.0651638 -0.0391007
509 43 1 10.0666 3.10541 4.61379 -0.0296338 -0.0054228 -0.0444242
122 11 20 13.8577 2.5522 5.18805 -0.00384183 0.00278525 -0.00266065
556 47 2 11.2702 0.837078 8.20587 -0.0128748 -0.0188624 0.0190842
553 47 19 10.9342 0.964602 6.71319 0.0202193 5.1284e-05 -0.0452245
558 47 11 11.9979 1.26205 8.75857 0.11594 -0.108025 -0.0128195
557 47 11 12.0238 19.8275 8.10525 0.0138936 0.104935 -0.0657716
364 31 19 14.2306 4.20931 7.76242 0.0140613 0.00991684 0.0220825
361 31 9 13.6446 4.86131 6.79054 -0.00192546 0.0155077 -0.0223186
362 31 20 12.7513 4.14211 6.57825 -0.0153458 -0.00754016 0.0311589
370 31 11 15.1859 2.42052 7.87013 -0.0280078 -0.0176161 -0.0684676
570 48 11 11.9679 4.18366 9.64741 -0.0126671 -0.0301794 0.0235892
565 48 2 10.9477 3.91814 9.83958 -0.0256945 0.00611107 0.00342755
560 47 11 9.65893 19.4869 9.20422 -0.0216487 -0.0415488 0.0102224
282 24 1 14.5129 0.0222924 7.24918 0.0135345 -0.0131381 0.0202462
551 47 9 10.326 19.8049 6.393 0.00796677 -0.0237734 -0.00476514
286 24 11 13.6817 0.794296 7.03959 0.00234644 0.048182 0.176246
569 48 11 10.9586 4.28596 8.82729 0.0571676 0.0379976 0.0379037
119 10 11 16.4873 3.66041 5.3971 -0.0454867 -0.0515087 -0.0527341
118 10 11 17.1457 2.34528 4.78112 -0.0720165 -0.00812133 -0.0268517
114 10 1 17.2765 2.93057 5.70232 -0.0382753 -0.00442443 -0.00575066
112 10 19 17.8489 4.22911 5.09385 -0.0117968 0.0364301 -0.00748503
120 10 11 17.6001 2.74146 6.72437 0.0687307 0.037167 -0.0537309
110 10 20 0.0980884 3.12462 4.76962 0.0166668 -0.0255514 -0.000958165
301 26 9 19.8396 0.905426 9.76027 0.000624786 0.00107886 -0.000475385
372 31 11 14.0384 3.62016 9.33339 -0.0602124 -0.0683729 -0.0535276
366 31 1 14.6535 3.19273 8.46697 -0.0117904 -0.0193168 -0.00951522
371 31 11 15.3692 3.96733 8.84158 -0.0644799 0.0272212 0.0704582
280 24 19 15.6359 0.283972 8.09007 0.000945101 -0.0180368 -0.0210385
277 24 9 16.9669 0.413796 8.19164 0.00776502 -0.0116244 0.00636702
279 24 19 17.5173 0.473948 6.84676 -0.0177737 -0.0121046 -0.0055955
285 24 11 19.1938 1.08642 6.99469 0.0196433 0.0684214 -0.00933616
278 24 20 17.1719 1.03498 9.28153 0.0049278 0.0100923 -0.00672737
310 26 11 18.8901 4.21779 8.99004 -0.0318518 -0.0267749 -0.0130198
304 26 19 19.8062 2.1563 9.4101 0.0282743 0.012301 -0.00318244
312 26 11 18.5617 2.89297 8.16273 0.100679 0.0386684 0.00591018
306 26 1 18.7721 3.1691 9.16347 0.0125432 -0.00894024 -0.00521697
43 4 11 3.52353 8.85626 6.23478 -0.0328291 0.0573705 -0.022823
700 61 11 3.18711 5.09219 8.68542 0.0221564 -0.0648358 -0.0835739
697 61 11 0.757465 4.91544 8.76543 0.0345436 -0.0566693 -0.0254158
354 30 1 1.94195 9.55805 9.45917 0.0121723 -0.0273281 -0.0173902
492 41 11 4.68643 6.44855 6.44911 -0.0189817 0.106302 -0.0615728
357 30 11 5.66831 7.38245 9.5388 0.0499257 -0.01213 0.0111215
40 4 19 0.852854 6.73834 5.97521 0.0115824 -0.00229502 -0.0104533
358 30 11 1.80875 8.44256 9.38543 -0.0895894 0.0356656 -0.0279046
356 30 11 4.33891 6.37982 9.92805 -0.0596038 -0.0492293 -0.116205
355 30 11 4.93086 7.62645 8.39563 -0.114212 -0.121417 -0.0626693
484 41 19 5.89398 5.07006 6.75818 -0.00724653 -0.00483888 -0.0076635
486 41 1 5.49075 6.10072 6.0023 -0.0140226 0.0111816 0.0129062
485 41 1 8.82226 6.36184 6.53972 -0.0179358 0.00321216 0.0209771
353 30 1 4.9662 7.13762 9.44782 0.011746 0.0322016 0.0260795
487 41 11 9.1644 5.87835 7.4736 0.000351661 0.0107342 0.0347099
489 41 11 9.52057 6.90761 6.20626 -0.180801 -0.078503 -0.0559116
488 41 11 8.09861 7.02321 7.00043 0.182891 0.0900593 0.0225955
479 40 11 7.66682 9.74887 8.80305 0.0142695 -0.0105823 0.000775352
472 40 19 9.40912 9.69381 7.8086 -0.0255229 0.00927005 0.0120339
568 48 11 8.69895 4.83713 9.91736 -0.0160034 0.0880646 0.00517894
363 31 19 13.1586 5.92313 6.95115 -0.0201848 0.0203246 0.00607388
473 40 1 12.6626 9.90962 7.44074 -0.030316 0.0164615 0.00800483
476 40 11 12.4873 9.5381 6.33875 0.0434953 0.034986 -0.152232
475 40 11 12.7947 8.89893 7.50177 -0.0177901 0.0102241 0.118331
365 31 1 14.0332 6.77174 6.08586 0.0225445 0.0110736 0.00563905
368 31 11 14.9654 6.08527 5.62767 -0.00182997 -0.0942938 0.0133794
369 31 11 14.0648 6.88115 7.1865 0.0492162 0.05367 -0.0413081
367 31 11 14.9889 7.19917 6.17598 -0.00522199 -0.00135059 0.00396208
548 46 11 14.2929 7.34584 9.8156 -0.0268165 0.00593536 -0.0220102
547 46 11 13.8763 5.74039 9.54261 0.103532 0.108599 0.0497798
546 46 2 14.5808 6.29296 9.88056 -0.0104524 -0.00553777 0.0101256
609 52 11 11.2982 7.83697 10.1344 0.0635968 0.120354 0.164278
542 46 20 16.9259 6.63024 8.34529 -0.00996143 -0.00394217 0.00563451
46 4 11 0.68927 7.05426 7.59959 0.107077 -0.0205057 0.129981
48 4 11 19.6337 8.09132 6.51116 -0.0244972 0.00203348 0.0125265
42 4 1 19.8679 7.2558 6.89915 0.0186507 -0.00236542 0.00865373
543 46 19 15.2603 7.49678 9.25696 -0.0245371 -0.00439921 -0.00876645
47 4 11 19.1892 6.6799 7.39719 -0.00498935 -0.00599066 0.0647703
541 46 9 16.627 7.23375 9.40656 0.0223956 -0.00377354 -0.0254233
6 1 1 16.6219 9.6568 7.33951 -0.00482336 0.00275633 0.013255
12 1 11 16.6484 8.61036 6.86731 -0.0877736 -0.0486787 -0.0476661
1 1 9 18.3737 9.82022 9.0255 -0.0190764 0.0334869 -0.00117386
2 1 20 18.7305 8.84415 9.20986 0.018136 -0.0110673 -0.0136981
11 1 11 16.1621 9.6345 8.24357 -0.0104356 0.043705 -0.123235
248 21 11 1.87364 12.9072 6.51062 -0.0273834 0.0541357 -0.0183011
360 30 11 2.22431 10.0977 8.45682 -0.125066 0.00467379 -0.0109676
245 21 1 1.98033 13.741 5.99078 -0.0271776 0.00277324 -0.0134679
247 21 11 1.47611 13.9955 6.96752 0.113732 -0.0130418 0.0802342
612 53 20 4.15251 11.2915 7.44051 0.00659302 -0.00212039 -0.000482311
249 21 11 1.33337 13.6406 5.3016 0.0380249 -0.0863564 -0.0710936
613 53 19 4.28064 13.6585 8.34648 -0.00595208 0.00555182 0.0135632
582 50 20 0.343925 13.8075 9.15955 0.0202807 -0.0126622 -0.00521821
581 50 9 1.15358 13.7919 9.98687 -0.00755625 0.0200975 -0.0128046
584 50 19 1.75043 12.6078 9.68625 -0.0281572 -0.0107308 -0.00739437
616 53 2 5.01639 14.4897 7.49527 -0.00757238 0.00463642 -0.0120986
478 40 11 7.97745 10.6389 7.18524 0.0414417 -0.0464515 -0.194669
474 40 1 8.23725 10.5171 8.31325 0.0387811 -0.0106378 -0.0113462
480 40 11 7.95423 11.4563 8.76053 0.223302 0.00821616 -0.00111951
611 53 9 4.7264 12.3815 7.37034 -0.00409007 -0.00125532 -0.00842673
615 53 2 6.28833 13.813 6.57865 0.0296023 -0.0197597 -0.0287725
614 53 19 5.58049 12.6407 6.33506 0.00186176 0.00186609 0.0187522
620 53 11 7.32288 13.8421 7.06437 0.00120821 -0.0329854 -0.0757826
619 53 11 6.6038 13.7941 5.60115 -0.0549442 0.0189522 0.108002
730 64 11 14.428 11.9259 4.62497 -0.0477612 -0.0693555 -0.0402803
469 40 9 10.3001 10.4951 7.28159 -0.00809951 -0.00421676 0.0155293
471 40 19 11.5524 10.3091 7.91293 0.00924234 -0.0023712 0.025903
477 40 11 13.7361 10.3811 7.60126 0.0365827 -0.0616449 -0.0361955
470 40 20 10.2325 10.964 6.20052 -0.0165576 0.00454584 -0.0130416
631 55 9 13.5875 13.7931 6.79699 0.00335742 0.0213256 -0.00132956
634 55 19 13.7662 13.9175 5.42631 0.0194847 0.0060589 0.0106923
632 55 20 14.1477 12.954 7.45269 -0.00430515 0.00440954 -0.00291459
633 55 19 13.1764 15.0511 7.43855 0.0193041 0.00435005 0.00512358
152 13 11 11.7816 13.9851 10.0837 0.146383 0.0144718 -0.074189
4 1 19 18.0002 9.87528 7.68495 0.0327767 -0.000943994 -0.00240176
10 1 11 16.6004 10.5217 6.66277 -0.0323563 -0.0262328 0.0846011
71 6 11 18.9163 11.9429 5.45883 0.14008 -0.106637 -0.231008
72 6 11 18.9015 10.3975 4.47064 0.0241877 0.170354 -0.0311542
3 1 19 18.9634 11.0143 9.85305 0.018559 -0.0348379 -0.00734678
8 1 11 17.2147 12.5054 10.0089 0.0818834 0.190057 -0.0350273
682 60 20 18.6909 15.0234 6.8832 -0.00797193 0.0181673 -0.00979006
243 21 19 2.23056 15.1139 6.36133 0.0125232 -0.00197562 0.0149116
241 21 9 1.8118 16.1575 5.42751 -0.0157499 -0.00172763 -0.0023985
244 21 19 1.66288 17.2873 5.9817 0.0075912 0.0161366 0.00325699
251 21 11 2.50523 19.1563 6.61732 -0.0331807 -0.123538 0.00325626
246 21 1 2.15674 18.0148 7.07194 -0.020677 0.0277378 0.0162286
252 21 11 3.17457 17.9524 6.7454 -0.0515333 -0.0542548 0.0189039
250 21 11 2.45819 17.8486 8.01657 0.0228537 -0.143978 -0.0309172
524 44 11 1.45685 17.5405 10.8813 0.102494 0.0873509 0.0875363
88 8 19 5.24357 19.9384 8.12337 0.00950965 -0.0172345 0.0172775
523 44 11 1.66696 16.6077 9.64106 0.0536801 -0.017419 -0.147675
521 44 1 0.789062 17.2333 9.91845 -0.00362693 -0.0037896 0.00794166
651 57 9 8.01764 15.976 5.04995 -0.0256761 -0.00470114 -0.000350294
653 57 19 9.0063 16.6047 5.66002 0.024162 -0.00636656 0.00430309
94 8 11 5.59367 19.9462 5.91375 0.0404329 0.0061232 -0.048214
617 53 11 4.81436 14.1654 8.64157 0.0245611 -0.0942452 -0.0110884
656 57 2 10.239 16.4214 5.26573 0.00343621 0.00410834 -0.0144323
95 8 11 6.6601 19.5403 6.90964 -0.0110558 -0.0189308 -0.140047
96 8 11 5.29652 18.741 6.31342 0.068348 -0.0245719 -0.0177587
90 8 1 5.67307 19.4522 6.81663 0.00783294 0.0074981 -0.0158172
618 53 11 4.22954 14.4857 6.90565 -0.0432969 0.0946579 0.0610092
503 42 11 7.144 17.2768 7.82613 -0.0535736 0.0985041 0.0228567
498 42 1 7.15311 17.1469 8.81508 0.00704635 0.0255924 -0.0197236
502 42 11 6.23232 17.1337 9.42409 -0.0769463 0.0687019 -0.0264795
554 47 19 9.29334 19.4791 7.37431 -0.0136979 -0.0194306 0.0104479
493 42 9 8.30532 15.2953 9.78818 0.0191421 0.00770579 -0.023407
504 42 11 7.95761 17.6992 8.73754 -0.115235 0.00850646 0.0489499
496 42 19 7.67457 15.8573 8.68793 0.000440218 -0.0205803 0.00229963
495 42 19 9.55111 15.2269 9.87799 0.00394201 -0.0031384 0.00428402
555 47 2 10.1255 19.9331 8.42207 -0.0271305 0.009822 0.04905
559 47 11 9.42718 0.526172 8.45212 0.116227 0.0631849 0.127117
288 24 11 14.3183 19.4174 6.58925 0.0983599 -0.0521157 -0.0542085
287 24 11 14.4392 19.3945 7.98048 0.0168246 -0.000752701 -0.0233832
636 55 2 13.2995 15.856 6.51082 -0.0353439 0.0333102 0.0314001
635 55 2 14.3993 15.1091 5.57494 0.0169211 0.0252521 0.00273776
657 57 11 9.99325 17.3561 4.75868 0.069739 0.112991 0.0883
658 57 11 10.0469 16.8268 6.07626 -0.0975636 0.0390218 0.0564362
500 42 11 10.9419 15.8835 8.03436 0.0396829 -0.0913486 -0.00537236
638 55 11 13.0066 16.834 6.20198 0.0158225 0.0185714 -0.0197944
637 55 11 14.1835 16.3613 6.98415 0.00880869 -0.115165 -0.0310865
552 47 20 11.2487 19.3473 5.88705 0.023767 -0.00193944 -0.00127442
497 42 1 10.6383 15.5104 8.92937 0.00979041 0.0310173 -0.0142159
499 42 11 10.7482 16.4338 9.6341 0.115591 0.00987661 0.133254
501 42 11 10.8061 14.515 8.57575 0.025411 -0.0356169 -0.0369019
703 62 19 12.5662 19.0777 10.2666 -0.0127014 -0.0358031 0.0242018
284 24 11 19.2891 19.8708 5.75972 0.0375346 0.0333775 -0.00603125
281 24 1 18.7385 0.0956021 6.70665 -0.0124219 0.0281985 -0.0128768
283 24 11 19.0879 19.2431 7.33778 -0.0244181 0.00856255 -0.0553944
302 26 20 19.2438 0.0345673 9.52697 -0.000518761 0.00689477 0.0027742
683 60 19 16.537 15.3397 8.0681 -0.0198099 -0.00393932 0.00593602
681 60 9 17.8149 15.8388 7.32867 0.0170179 -0.0515004 0.0122522
686 60 2 16.3823 16.448 8.91239 0.0130919 -0.0378331 0.00423173
685 60 2 17.2467 17.652 8.25075 -0.00259979 0.00254273 0.00625624
690 60 11 17.1317 17.7924 7.40478 0.0837007 -0.06367 -0.0492891
688 60 11 15.4299 16.6565 8.97881 -0.0278077 0.0244713 0.00532694
687 60 11 16.3142 16.674 9.89989 0.0518917 0.0235416 0.0439853
684 60 19 18.2775 17.2316 7.19544 -0.00330398 -0.00508953 -0.00356004
689 60 11 17.7743 18.204 9.02281 0.038444 -0.0657255 0.081469
525 44 11 0.964729 18.092 9.52992 0.00173226 -0.0791243 -0.00781129
303 26 19 0.732363 0.394787 10.7025 0.00200135 0.0108051 -0.000998176
308 26 11 2.41289 1.89356 10.3568 0.0566736 0.0215885 0.0136628
305 26 1 2.00559 0.931032 10.7605 -0.00690759 0.0214902 -0.0188094
309 26 11 1.93743 1.06105 11.7241 0.0173265 -0.0408507 0.0564303
307 26 11 2.54005 0.419414 10.341 -0.0138877 -0.000168443 -0.112826
226 19 11 0.748817 5.15495 11.5988 0.102611 0.0727923 -0.0847085
224 19 11 4.32168 2.63256 10.2592 0.0198925 0.0577328 -0.0207277
622 54 20 0.837801 0.85949 14.0313 -0.00682144 0.00331351 0.00256272
624 54 19 0.795331 3.23387 14.4741 -0.0048627 0.0044255 -0.00915316
219 19 19 4.70797 3.47387 12.371 0.00824746 -0.0181036 -0.0145533
221 19 1 4.80085 3.26311 10.9553 -0.00265581 -0.00129772 -0.00673469
225 19 11 4.8674 4.23729 10.5171 -0.00371046 -0.0302726 -0.0230037
223 19 11 4.07841 2.63906 11.1867 -0.052236 -0.066405 0.00562734
621 54 9 0.38272 1.78406 14.7192 -0.00624606 0.00615022 -0.0233118
220 19 19 2.4853 4.20757 12.0731 -0.00772432 0.0107183 0.00410218
217 19 9 3.75371 4.47229 12.6181 -0.00749215 0.00226848 -0.00152255
276 23 11 3.55299 5.1334 15.3573 -0.0997881 0.00768035 0.144372
89 8 1 6.91315 0.160506 10.2594 0.0154975 0.0120344 -0.0170628
561 48 9 9.62836 3.0401 10.4097 -0.0232177 -0.0136306 -0.0322561
563 48 19 9.41714 3.73059 11.2488 -0.0110768 0.0186245 0.00364728
93 8 11 6.88676 0.329048 11.2526 0.0121929 0.0233289 -0.116185
416 35 11 5.24475 1.57593 13.6168 0.00405059 -0.0165565 -0.0894718
413 35 1 5.83017 0.756866 13.868 0.0107246 0.0277007 -0.0143557
415 35 11 6.10737 0.39204 12.954 0.0216438 -0.064603 -0.0744104
417 35 11 6.54838 1.04703 14.3291 -0.0243928 -0.0202039 -0.0508108
562 48 20 9.27973 2.06071 10.7071 7.88725e-05 0.00941781 0.0109656
735 69 31 6.12888 4.5147 14.0029 0.000166357 0.0160397 0.0349058
564 48 19 11.1621 2.74415 10.332 0.0208263 0.00462959 -0.00774105
539 45 11 14.2331 3.92142 14.2415 0.0785749 0.00698141 -0.154124
705 62 2 11.1684 19.6157 11.6867 0.0100185 0.000364274 0.00907811
709 62 11 11.5212 20.0099 12.7646 -0.063627 0.00708113 0.0850467
168 14 11 10.9667 19.3838 14.7554 -0.0415886 -0.035062 -0.114836
293 25 1 11.3285 4.43441 13.9665 -0.0230713 0.0171262 -0.00777804
295 25 11 12.2135 4.72769 14.3429 0.0430658 0.0202725 0.0584138
297 25 11 11.3218 3.46249 14.3791 -0.00874786 0.0213076 0.0207301
704 62 19 12.2305 0.380911 11.667 -0.00913608 -0.032035 0.0295999
566 48 2 9.76585 4.82315 10.3865 -0.00702948 0.0382113 -0.00771279
702 62 20 14.1054 0.892746 10.2538 -0.00520739 0.00856088 -0.00568676
701 62 9 13.0354 0.245024 10.4672 0.0295709 0.0212967 -0.000906816
167 14 11 11.2899 1.28964 14.3532 0.0813732 0.0815587 -0.0994961
311 26 11 17.9895 3.38614 9.79165 0.0077095 -0.00650283 -0.0166155
534 45 1 15.1165 3.60691 13.8978 -0.010854 0.00672259 0.00859481
540 45 11 14.5866 2.8526 14.481 -0.0567969 0.0931942 -0.00505142
538 45 11 16.0711 3.77873 14.5707 -0.0318138 -0.0464278 0.0738606
529 45 9 15.9825 2.28274 12.0329 0.0203326 0.0296832 -0.0123477
530 45 20 15.5421 1.16768 12.0424 0.00454574 -0.0254183 -0.00146442
532 45 19 15.4192 3.49033 12.4491 -0.00627954 -0.00445002 0.00964865
531 45 19 17.5362 2.53365 11.8607 -0.007091 -0.00398814 0.0176996
533 45 1 18.3287 1.33543 11.9723 -0.00534137 -0.0142095 0.000801848
627 54 11 17.5703 2.90351 14.6587 -0.00657302 0.046942 0.0675821
536 45 11 19.2926 1.51326 12.2071 0.0135669 0.0237673 -0.10901
549 46 11 16.4265 5.18288 10.5263 -0.0137728 0.01106 -0.0733341
630 54 11 19.6477 3.72748 13.7878 0.0199156 -0.0491456 0.0663755
537 45 11 18.3385 1.11296 12.7627 -0.110143 -0.0324434 0.00985147
535 45 11 18.0788 0.333288 11.7141 -0.134552 -0.0450888 -0.022836
625 54 2 19.4567 3.82651 14.7889 -0.0112507 0.0379024 0.0260742
629 54 11 0.170698 3.74602 15.5082 -0.0587191 0.0266881 -0.0259404
349 30 9 4.59758 9.53098 10.0503 -0.0212018 -0.0339277 -0.00478427
351 30 19 4.89066 8.01647 10.3433 0.00877298 -0.00533232 -0.00964319
228 19 11 1.21342 4.97176 11.1386 0.0828255 -0.0563559 0.148663
222 19 1 1.59698 5.30647 11.9418 -0.0177628 -0.0214754 -0.00462331
352 30 19 3.13453 9.51692 10.3986 -0.00608748 -0.0116805 0.00466382
227 19 11 2.28805 6.07926 11.9947 0.086073 0.0124394 -0.0761659
218 19 20 4.10762 5.58865 12.8048 0.0058667 0.00777792 -0.0157034
427 36 11 1.3011 7.99656 13.9615 0.0518792 0.150812 -0.00368767
429 36 11 0.981539 9.50459 13.273 0.0841099 -0.0743886 -0.0502385
428 36 11 1.85048 8.69093 12.2905 -0.0549072 0.0699034 0.015958
425 36 1 1.0398 8.38922 13.088 -0.00116279 -0.013407 -0.0373778
347 29 11 4.27637 8.58904 13.4308 -0.109022 0.00330239 0.0897549
423 36 19 0.364852 7.37121 13.6057 0.0026225 -0.0239039 -0.00247831
290 25 20 8.99638 5.7065 13.8266 0.00959142 0.00603503 -0.0382323
289 25 9 9.28101 5.19378 14.7483 0.0133109 -0.00947841 0.0317402
342 29 1 5.40627 8.78896 13.1451 0.0421866 0.00809754 -0.00168986
348 29 11 5.53271 8.00706 12.6195 0.0629207 0.216623 0.114219
346 29 11 5.99554 9.22334 12.1727 -0.100591 -0.122015 -0.0578436
337 29 9 7.77024 9.36016 14.1133 -0.0105504 0.00838847 0.00290054
338 29 20 8.10724 8.32671 14.7093 0.00155434 0.00302383 0.00126886
340 29 19 6.27228 9.19298 14.06 -0.00250311 -0.00172579 0.00674135
567 48 11 9.79397 5.12974 11.4463 0.0301453 -0.0498941 -0.0198776
296 25 11 11.47 4.92346 13.062 -0.0654093 -0.0534179 0.00977435
291 25 19 10.6973 5.39973 14.8324 -0.015494 -0.0149273 -0.0130924
603 52 19 11.8142 8.13802 13.3107 -0.0255782 0.00999739 0.0153277
601 52 9 12.9486 7.53767 12.1879 0.0163017 -0.0240222 -0.00688981
605 52 2 11.6091 8.56128 10.9533 0.00384888 -0.00674221 -0.000406797
604 52 19 12.9157 8.40005 11.2578 -0.00276424 -0.0100466 -0.0155415
608 52 11 10.4292 8.70087 12.9116 -0.03836 0.0714955 -0.110233
606 52 2 10.873 8.19472 12.3306 -0.0240913 0.0172217 -0.00718462
607 52 11 10.7124 7.13678 12.6052 0.0644076 0.0161403 -0.00596056
610 52 11 11.7567 9.72967 10.6911 -0.0292968 -0.0674594 0.112831
602 52 20 13.7229 6.67501 12.1295 0.0160954 0.0176456 -0.00888458
550 46 11 15.7029 5.76391 11.7494 -0.018942 0.0199571 -0.012077
545 46 2 15.7768 6.02376 10.7762 0.0206552 0.0251289 -0.0128092
544 46 19 16.9339 6.56187 10.2479 -0.00326735 -0.0144197 0.0130329
422 36 20 19.128 6.73252 12.4757 0.00675181 0.000101374 -0.00475339
421 36 9 19.1859 7.13139 13.5257 -0.0199387 0.0131577 0.0301542
426 36 1 17.2693 6.50288 14.6242 0.0231561 0.0180081 -0.00676141
430 36 11 16.6835 6.53059 13.6379 0.00404144 -0.0124546 0.00885653
424 36 19 18.6572 6.2397 14.4293 -0.00823805 -0.00673264 0.00506205
431 36 11 16.9318 7.5303 15.0703 0.056563 -0.0188843 0.00764098
359 30 11 1.1795 10.227 9.69048 0.0551023 -0.0259196 0.0351246
590 50 11 3.77692 12.7035 10.7479 0.0266595 0.0163577 0.0877501
589 50 11 2.61692 11.8655 10.8024 -0.0407687 -0.0555072 0.0090411
350 30 20 5.26192 10.2268 10.2087 0.0368328 0.0262106 -0.0033968
583 50 19 1.36429 14.4468 11.1516 0.0084264 0.017027 0.0198521
585 50 2 2.83121 12.7703 10.6608 0.0163483 0.0154277 0.012307
588 50 11 3.60089 14.7106 10.4302 -0.122573 0.0569999 -0.000266368
586 50 2 2.76431 14.1972 10.9305 -0.00112436 0.0155385 -0.0301245
587 50 11 2.71777 14.5573 11.5793 -0.122662 -0.00929076 -0.0381442
318 27 1 1.45961 13.59 14.3482 -0.00631599 0.0137897 -0.00342532
323 27 11 1.66325 14.4815 13.5072 -0.0313066 -0.0809712 -0.0463647
316 27 19 2.66821 13.3329 15.1774 0.0136532 -0.0133303 0.000628965
322 27 11 1.13468 12.8521 14.0482 0.0643683 0.0453957 0.0468257
314 27 20 3.90283 11.8358 14.0427 0.0202174 0.0138255 -0.0229177
313 27 9 3.6492 12.9488 14.0865 0.00614769 0.0320178 -0.00810786
315 27 19 4.66531 13.698 13.3463 0.0047141 -0.0230314 -0.0228007
154 13 11 6.77564 11.8184 12.212 -0.0292348 -0.0075319 0.0363373
339 29 19 8.36707 10.4749 13.3583 -0.00270634 0.00368465 -0.0230643
150 13 1 7.35676 12.8173 11.9378 -0.00886642 -0.00497006 -0.00099213
148 13 19 8.44999 12.3388 11.105 -0.00410905 0.0134136 -0.0189755
146 13 20 10.4517 11.1111 10.9674 0.0217367 -0.00639122 0.000448398
156 13 11 7.3227 13.6363 12.1663 0.0612367 -0.0955953 0.0502747
155 13 11 6.96737 13.1064 11.0725 0.05292 -0.0776075 0.103546
341 29 1 9.49721 10.4257 14.1532 -0.00442708 -0.00250665 -0.0303204
456 38 11 7.11206 11.8314 14.6064 0.0618433 0.043937 -0.00323729
445 38 9 7.77595 14.7631 15.0946 0.0316394 -0.0266795 -0.00501859
345 29 11 9.38516 11.2184 14.7465 -0.000955821 -0.093075 -0.068388
452 38 11 10.6086 14.1981 14.5374 -0.0658994 -0.0377483 0.137214
454 38 11 6.36616 12.9445 14.6306 0.0334619 -0.0300619 0.0989888
450 38 1 7.06092 12.3164 15.367 -0.0076337 0.00832855 0.00768886
147 13 19 10.4916 13.3474 11.2936 -0.00811149 -0.0073666 0.00405803
145 13 9 9.91279 12.113 11.3773 -0.00435459 -0.00853493 -0.0184758
343 29 11 10.3603 10.6957 13.5448 0.0288589 -0.0280707 0.143561
36 3 11 14.4409 13.1722 11.679 -0.098175 0.0346942 0.0857741
149 13 1 11.9042 13.0309 10.7516 -0.0376424 0.0116459 -0.00408132
153 13 11 11.9682 12.3983 10.3351 -0.119469 0.186626 0.14227
151 13 11 12.5578 13.8525 10.8818 -0.0679336 -0.0863226 -0.0522592
35 3 11 15.5211 12.8774 12.5455 -0.0464178 -0.137161 -0.0464484
30 3 1 14.9066 12.3004 11.9688 0.0211086 0.02196 0.0257103
34 3 11 14.3701 12.3168 12.8193 -0.0956664 -0.0257612 -0.0981016
26 3 20 15.6473 10.1555 13.6978 -0.0117711 -0.0102383 -0.0104345
9 1 11 18.8401 12.7737 10.032 -0.0125492 0.194757 0.170743
5 1 1 18.0497 12.415 9.62721 -0.0106587 0.0293487 -0.0344781
7 1 11 18.5926 12.6524 10.4103 0.033897 0.0597557 -0.117179
25 3 9 16.0663 10.8249 12.6731 -0.0106421 -0.00769441 0.00265892
32 3 11 18.4949 11.6974 13.8629 0.038823 -0.12324 -0.0149276
31 3 11 19.2288 10.1755 13.8938 -0.0415451 -0.0095073 0.050279
27 3 19 17.6039 10.7592 12.6675 -0.0334168 0.000520886 -0.0299347
29 3 1 18.3965 10.6691 13.9311 -0.0021604 0.0071129 0.0249702
33 3 11 18.2708 10.9808 14.9319 0.0754613 -0.0388324 0.0369146
28 3 19 15.8209 11.306 11.4785 0.00662118 -0.0308252 0.0192483
526 44 11 19.0772 13.6336 12.7946 0.0669418 -0.0363096 -0.0126418
522 44 1 19.1962 14.6655 12.8064 -0.0119551 -0.0198197 -0.00129014
262 22 11 16.2965 14.6724 13.6271 -0.0189601 0.0594234 -0.118935
527 44 11 18.3586 14.5923 12.9489 0.0173819 -0.069456 0.000357342
434 37 20 4.33698 18.6592 10.9634 0.00528413 -0.0117558 0.00110138
317 27 1 4.2339 15.0855 13.8249 -0.0011949 0.00737307 0.0295586
321 27 11 4.55554 15.6577 13.2902 0.0602279 -0.00334351 -0.110591
443 37 11 2.94676 19.9135 12.8846 -0.0105839 0.000418607 0.0101911
444 37 11 1.74916 18.6871 13.3078 -0.0398383 -0.0302671 -0.0369437
438 37 1 2.64409 18.9385 13.2847 -0.00432578 -0.0390341 -0.0178797
442 37 11 2.837 19.2776 14.238 -0.0498425 0.0545161 -0.0229881
436 37 19 3.41725 17.8285 12.7849 -0.00663824 0.00373662 0.00741614
433 37 9 4.72437 18.0884 12.098 -0.0131244 0.0118446 -0.0174408
319 27 11 3.17572 15.8178 14.1724 -0.103298 -0.0184753 0.0225163
519 44 19 0.506067 16.9862 11.2655 -0.0073134 -0.0230119 0.00435732
92 8 11 6.50561 19.1893 10.5964 0.0151576 -0.0763603 -0.0345417
494 42 20 7.63945 15.209 10.6232 -0.0274966 -0.0195732 0.0275456
447 38 19 8.50108 14.7652 13.7621 -0.0236615 -0.0105016 0.0136788
435 37 19 5.81621 18.1953 12.953 -0.00210469 0.00766356 0.0161496
441 37 11 7.06773 16.9421 13.4047 0.000167763 0.139516 0.00996622
437 37 1 6.92458 17.2047 12.3473 0.0194939 -0.0238009 0.0131738
439 37 11 6.5416 16.2419 11.922 0.00897865 -0.00273244 -0.0934405
440 37 11 7.76105 17.8355 12.1574 0.0227288 -0.0123916 -0.0967259
453 38 11 10.3718 16.1365 14.7373 -0.0278269 -0.0600137 0.0610908
710 62 11 10.4463 0.478974 11.7203 -0.0166162 -0.00363529 -0.00301433
449 38 1 9.98826 15.2983 14.1539 0.000853353 -0.00154898 -0.00999941
451 38 11 9.59326 15.8481 13.3011 -0.0637505 0.00635448 0.0247569
708 62 11 10.6285 18.3772 10.7259 0.111751 -0.150902 0.0135171
707 62 11 11.4405 17.9257 12.0019 -0.0503942 -0.124155 -0.113611
706 62 2 11.5742 18.3548 11.0133 0.0194351 0.00162081 0.00545795
157 14 9 13.7937 19.4427 14.4476 0.00143572 0.0182089 0.0171299
158 14 20 13.1593 18.7738 13.6495 -0.0137714 -0.00475035 -0.00198043
165 14 11 15.8872 18.4653 14.5622 0.0557347 -0.109732 -0.0442143
164 14 11 15.6483 18.3292 13.4036 0.0206668 0.0409974 -0.151195
263 22 11 14.8163 15.4826 12.459 -0.113956 0.0260653 0.0292915
528 44 11 19.831 15.0811 13.6917 0.0670155 0.0480874 -0.00280744
408 34 11 19.7134 18.8205 14.4891 -0.0503102 0.0626415 0.0129322
256 22 19 15.3609 16.3598 14.4103 -0.0187505 0.00654866 -0.00301306
264 22 11 16.5097 16.2392 13.3874 -0.0885223 0.0117293 -0.0131588
258 22 1 15.8137 15.4126 13.3308 0.00368952 -0.0252626 0.00472521
517 44 9 19.3028 16.776 11.7858 -0.0111232 0.00743429 0.0135276
520 44 19 19.1137 15.4938 11.6442 -0.00971785 0.0148039 -0.00334564
518 44 20 18.6372 17.3824 12.5273 -0.00720004 0.0134234 0.00444611
159 14 19 15.0936 19.9235 14.3986 0.00961451 0.00880511 -0.0144257
161 14 1 16.0974 19.1584 13.9339 -0.00819531 0.0176595 0.0155187
163 14 11 16.8049 18.8247 13.0542 -0.0103341 0.0168812 -0.0387392
420 35 11 1.92981 0.509461 16.889 -0.0606315 -0.0690389 -0.0381545
144 12 11 2.04617 0.740214 19.3297 -0.00866307 0.0195308 0.0452273
138 12 1 3.1672 0.633624 19.6125 -0.033212 0.013719 0.0276601
419 35 11 1.93838 1.91079 16.3642 -0.0130831 0.132071 -0.0491673
414 35 1 2.51543 1.33717 16.7016 0.00658432 0.00959507 -0.0325166
418 35 11 3.08718 1.83313 17.3319 0.00549634 -0.0436918 -0.0214305
412 35 19 3.41482 1.18959 15.8026 0.0270002 0.000303251 -0.0121824
647 56 11 4.1509 3.06404 18.616 -0.0113847 0.0178813 -0.0302813
646 56 2 4.22202 4.11383 18.751 0.00926695 0.0156433 0.0294115
643 56 19 4.82847 2.95593 17.9506 -0.007074 -0.00548654 0.00431599
749 71 26 1.70411 3.54784 17.5916 0.00632631 -0.0148292 0.0249745
409 35 9 4.65012 0.264719 15.8686 0.00755066 -0.00577342 0.00895477
731 65 31 0.34062 1.01991 19.705 -0.0126328 0.038044 0.0010281
747 71 26 0.698048 2.39246 19.0598 -0.00691137 -0.00980238 -0.00539025
743 71 27 0.473018 3.7838 18.5174 -0.00150726 -0.00784144 0.000285244
648 56 11 3.64843 4.84312 19.395 -0.0352192 0.0754281 0.0927729
744 71 26 1.39524 4.30573 19.5244 0.00899107 0.00723081 -0.00819814
410 35 20 5.05815 0.448198 17.0828 0.000939416 -0.00739434 0.0199047
300 25 11 8.41931 2.84398 15.9007 -0.0305334 0.0696643 0.041597
294 25 1 9.31937 3.12708 15.5366 0.0236224 0.00598218 -0.0115946
292 25 19 8.45876 4.15151 15.0446 -0.0189153 -0.00169824 -0.0016332
642 56 20 5.85372 3.6323 15.7706 0.0243804 0.0111582 0.030622
298 25 11 10.1651 3.24522 16.5489 -0.0263653 -0.0862391 0.0530553
760 73 26 8.91261 3.28089 19.3255 -0.000524025 -0.0151506 0.0216527
763 73 26 9.08437 1.51141 18.5142 0.0028974 -0.0115411 -0.00193015
757 73 27 9.35102 2.19102 19.8261 -0.00790119 0.011505 0.00685354
641 56 9 6.02945 3.18194 16.9823 0.0109348 0.0049419 -0.0142704
299 25 11 9.21664 2.43828 14.7988 0.0133245 0.0151335 0.0584499
650 56 11 6.36984 3.74011 19.452 -0.00821478 -0.0936232 0.0851618
645 56 2 5.74428 4.32241 18.5845 -0.00469022 -0.00463183 -0.0269973
644 56 19 6.76995 4.12296 17.5691 0.0137874 0.0178433 -0.0118336
466 39 11 8.58376 0.535298 15.9124 -0.0441067 0.0631488 0.0296621
468 39 11 7.52622 0.131622 17.3478 -0.0475126 -0.123334 0.0811031
162 14 1 11.6417 0.438962 15.1273 -0.0152972 0.00567241 -0.000460508
166 14 11 11.0008 0.508106 15.8826 0.0783933 0.097438 -0.0478792
160 14 19 12.9274 19.9691 15.5732 0.00315076 0.000867795 -0.000862823
758 73 26 10.9327 2.52223 19.5662 0.0176072 -0.0167253 0.0109429
194 17 20 13.4586 4.23813 18.6484 -0.0127405 0.0236196 -0.00323209
196 17 19 13.2519 5.02549 16.4661 0.00911159 0.000397021 -0.0210558
195 17 19 13.7474 2.83551 16.6865 -0.00860751 -0.013752 0.000490292
193 17 9 13.3689 4.00448 17.4169 -0.00027795 0.00583805 -0.0254556
732 66 31 12.4183 0.810721 18.6039 0.00198861 0.0415122 0.0390437
201 17 11 15.454 2.13502 17.5597 0.0189682 0.000968867 0.0217392
171 15 19 15.7539 3.05249 19.9522 -0.0182028 0.0217004 0.013579
173 15 1 17.0193 2.47568 0.276981 -0.000110467 0.0108787 0.0238823
177 15 11 17.4906 2.97748 1.15076 -0.0142558 -0.0887616 -0.0576758
176 15 11 17.4191 2.86356 19.3218 0.001018 -0.00478108 0.104506
623 54 19 19.2022 1.68507 15.0924 -0.0179102 0.00202031 -0.0172703
626 54 2 18.3913 2.67163 14.973 0.00344567 0.00452207 -0.00848154
628 54 11 18.2019 1.72978 15.562 -0.0517706 -0.0643267 0.0371519
748 71 26 19.1624 4.12668 19.5322 -0.0104363 0.00328297 0.00539116
200 17 11 14.996 2.03944 16.3059 -0.041694 -0.191847 0.0628289
199 17 11 15.7424 3.47935 17.1185 -0.0313283 -0.0164536 -0.0210701
753 72 26 16.3773 0.51315 18.2412 0.0049791 -0.0173435 -0.0040562
197 17 1 15.1623 2.72016 16.9671 0.00157175 0.0369757 -0.0183696
745 71 26 19.4289 3.06659 17.6824 -0.0230794 4.3702e-05 0.00687129
672 59 20 2.42657 6.34498 0.107184 0.00260816 0.021377 0.0122636
671 59 9 2.69297 7.4435 19.8837 -0.0129699 -0.0121689 -0.00106335
673 59 19 3.48335 7.712 19.1257 -0.0134718 0.01761 -0.00415261
676 59 2 4.9194 7.45802 19.7815 0.0295949 -0.0173902 0.01036
678 59 11 4.62077 8.15809 19.0738 -0.00510655 -0.0435404 0.00528657
275 23 11 3.59442 5.03414 16.6546 -0.123073 0.0321645 0.0250566
270 23 1 3.06742 5.64315 15.9369 -0.0155961 -3.76043e-06 0.019463
274 23 11 2.13356 5.08181 16.2808 0.0210491 0.0476758 -0.0079137
268 23 19 3.28868 6.68411 14.9894 0.0122912 0.0245305 0.00507474
265 23 9 4.08331 7.5381 15.7037 0.00275422 -0.00559776 -0.0139941
266 23 20 3.69771 8.62607 15.7571 0.00793009 -0.0155909 0.000386853
768 74 26 2.14761 9.79527 17.4405 -0.00139286 -0.00770224 -0.0150968
766 74 26 0.334808 9.36169 16.2774 0.00104384 -0.0376829 -0.0128935
267 23 19 4.97443 7.02739 17.0274 -0.0125939 0.000352557 -0.000480266
746 71 26 0.190812 5.05984 17.9631 0.00449712 0.0129789 0.025192
649 56 11 5.92082 5.5499 18.7439 0.0405329 0.0363051 0.0298274
713 63 19 9.56014 7.08626 19.6693 0.0151788 -0.0151518 0.00414583
716 63 2 9.1867 8.38922 19.1186 -0.0138772 -0.0253253 0.00838584
717 63 11 8.25799 8.24301 19.5725 0.0581915 -0.0239597 -0.0290604
677 59 11 5.8749 7.56704 19.3231 -0.004252 -0.0387011 0.0462349
269 23 1 5.87112 7.39393 15.8232 -0.00304061 -0.0124065 -0.00921985
271 23 11 5.8068 6.97812 14.9937 -0.0239172 0.11746 0.10437
272 23 11 6.78928 6.75749 16.1456 0.0170573 -0.00916715 -0.0743701
273 23 11 6.2331 8.35838 16.1518 -0.0312943 -0.00227109 -0.104885
714 63 19 9.93636 7.17339 17.3589 -0.0106997 -0.0222057 -0.0308264
715 63 2 9.3542 8.28675 17.4322 -0.0109988 -0.018497 -0.0334037
720 63 11 8.14373 7.44686 17.1298 0.0903318 -0.0263147 0.180296
719 63 11 8.38798 9.08907 17.6168 0.0983038 -0.0187808 0.0474528
711 63 9 9.54489 6.35492 18.546 0.0276261 0.015161 -0.0119393
386 33 20 6.69302 9.62531 18.3992 0.00453215 -0.00597234 0.00502293
599 51 11 15.4648 7.22628 17.6245 -0.0797214 0.00170706 0.113024
712 63 20 10.526 5.60423 18.7381 -0.0118077 -0.000583209 0.0303526
202 17 11 13.2954 6.71896 15.4438 -0.0292317 -0.0577835 0.0629589
204 17 11 13.8291 6.86017 16.7022 -0.0387921 0.00612763 0.0374139
203 17 11 12.0232 6.75599 16.2039 0.0774134 -0.0491251 0.0596892
198 17 1 12.9171 6.34608 16.4217 -0.00101845 0.0158017 0.0135021
598 51 11 13.6666 8.42709 19.196 0.050162 0.0351757 -0.0343188
596 51 2 13.8751 7.14563 19.4439 -0.00253414 0.0112817 -0.0173821
22 2 11 14.944 9.35764 15.8981 -0.0359153 0.000594139 0.107421
741 70 26 12.6543 9.72047 17.6134 0.039877 0.0164835 -0.00737202
591 51 9 16.1011 6.44191 0.22265 -0.031908 0.0863767 -0.00287178
432 36 11 17.3883 5.7929 15.4249 -0.121484 0.102258 -0.174531
594 51 19 16.5113 7.59612 19.3234 0.0262124 0.00900285 -0.0110404
595 51 2 15.2199 7.71748 18.6458 -0.00656269 0.00520493 0.022585
600 51 11 15.2321 8.76765 18.8836 0.0906136 0.0225711 -0.0602857
24 2 11 15.2134 10.5007 17.4292 0.0722334 -0.132299 -0.00521597
324 27 11 0.580302 13.4641 15.1073 -0.0222682 -0.0275034 -0.0847987
770 74 26 2.27244 10.6764 15.552 0.0111581 -0.023292 0.0379029
395 33 11 3.38536 11.5723 19.0043 0.106913 0.0543967 -0.0127182
396 33 11 4.29296 10.4921 17.7802 0.0158112 0.0277004 0.0332495
765 74 26 1.85906 11.6234 17.3715 -0.0146507 -0.0142421 0.0268275
764 74 27 1.13984 10.6325 16.5242 -0.0142546 -0.00387771 -0.00450014
390 33 1 4.29448 11.3345 18.4402 -0.01101 0.0276498 0.0168986
663 58 19 4.83381 14.7643 19.9621 0.0102234 -0.0141983 0.0145708
394 33 11 4.63738 11.959 17.4908 0.091849 0.0432906 -0.0916663
769 74 26 0.189251 10.7739 18.1009 -0.0163974 0.0313653 0.000368529
767 74 26 0.0694943 11.4901 15.6453 -0.0373077 0.0289779 0.0365922
99 9 19 1.36408 14.4773 19.5743 -0.0149834 0.0151246 -0.00848668
455 38 11 6.28942 11.741 15.6517 0.0355231 0.0348219 0.048086
388 33 19 5.1876 11.1001 19.4252 -0.00319713 -0.00597279 0.00378804
448 38 19 7.88252 13.409 15.9147 0.033453 0.013165 0.0171131
385 33 9 6.46308 10.7265 19.0028 0.0142873 0.0284432 0.00758364
387 33 19 7.52054 11.6913 19.6476 0.0128062 -0.00118217 -0.00484736
389 33 1 8.26288 11.8529 18.3883 -0.00796099 -0.0102805 -0.0123233
391 33 11 8.74942 12.8098 18.1098 -0.0196408 0.0134324 0.0204779
392 33 11 7.67258 12.7817 18.6056 0.0135641 0.00683169 0.0734877
393 33 11 8.4305 11.4677 17.3192 0.0624275 0.0875707 0.056042
80 7 11 11.8698 14.1444 18.1966 0.120309 0.0547655 0.0723843
344 29 11 10.0248 9.72046 14.7105 -0.0503467 0.00829532 -0.0181007
738 70 26 10.9111 10.7179 18.9191 -0.00754667 0.0241974 -0.0180678
739 70 26 10.4741 10.0891 16.5716 0.0144655 -0.00146088 -0.0122505
742 70 26 11.1796 12.0734 17.1767 0.016628 0.026422 0.0214967
736 70 27 11.7508 10.7943 17.6011 0.000677288 0.00838538 0.0272411
740 70 26 12.9972 11.4646 18.2293 0.0122834 -0.0193308 -0.00124219
737 70 26 12.4835 10.8289 15.8906 -0.0236069 -0.00515948 -0.00850591
20 2 11 14.6258 13.1963 17.9202 0.0260263 -0.026084 0.0967671
77 7 1 11.8288 15.0294 17.9688 -0.00903967 0.00852546 0.00444987
81 7 11 12.7182 15.1254 17.7122 -0.124643 -0.0794556 -0.0622225
69 6 11 19.8136 12.2856 19.8112 -0.0186835 0.0173973 0.040902
108 9 11 18.3241 14.5431 19.3759 0.019493 0.0658083 0.0090229
23 2 11 16.7559 10.3789 16.8857 -0.019941 0.0375951 0.05486
18 2 1 15.6021 10.3397 16.3623 -0.00138106 0.00232266 -0.00233365
13 2 9 16.1195 12.6027 15.9625 -0.0317323 -0.0213828 0.0315568
16 2 19 15.0572 11.583 15.7988 0.00642828 0.00339429 -0.00493474
15 2 19 16.5608 12.9942 17.4603 0.0212099 -0.0221943 -0.0176832
17 2 1 15.5045 13.422 18.3893 -0.0377258 -0.0014968 0.00190537
19 2 11 15.2895 13.2205 19.4819 0.0149238 -0.0946471 -0.0521736
14 2 20 16.9599 13.0204 15.2983 0.00569715 0.0130154 0.00319421
107 9 11 17.9054 14.6017 17.4764 0.0930003 0.0617011 0.0366056
102 9 1 18.5665 14.7468 18.3423 -0.00864374 -0.00648571 0.0131675
100 9 19 19.806 14.1103 17.9376 -0.00422658 0.00472615 -0.0110539
143 12 11 2.79868 19.4875 19.8613 0.00297877 -0.0245244 -0.0805242
400 34 19 0.44197 17.7883 16.1549 0.00184088 -0.0223513 0.00665654
320 27 11 4.78894 14.9 14.6769 0.0200653 0.0990292 -0.0736468
142 12 11 4.00298 0.442344 19.2672 0.0335205 0.000837111 0.0645126
668 58 11 3.82939 14.2303 18.799 0.0568273 -0.100291 0.0128683
666 58 2 4.20396 15.2967 18.6989 -0.00699813 -0.0135061 -0.00825276
398 34 20 1.51737 16.1161 15.8053 -0.0115747 -0.017233 -0.0130179
397 34 9 1.7442 17.1993 16.0455 -0.0113334 0.00481996 -0.00829524
399 34 19 2.81036 18.1581 15.992 0.00352109 0.0141168 0.00423996
401 34 1 2.85494 18.1347 17.3539 0.006955 -0.00485326 0.00701422
405 34 11 4.05044 18.1624 17.3886 0.117363 -0.0242243 0.0330154
403 34 11 2.34863 18.5018 18.2713 -0.00648129 -0.0804957 -0.0536871
667 58 11 3.83966 15.6796 19.659 -0.0503936 -0.073281 -0.0239992
404 34 11 3.0414 17.0399 17.9911 -0.0185903 -0.00741661 7.82752e-05
670 58 11 4.52814 16.4322 17.181 0.0157815 0.0612115 -0.0376264
406 34 11 -0.133774 19.4058 15.9505 -0.131173 0.0249137 -0.0099595
97 9 9 0.668914 15.1666 18.5452 -0.0114047 -0.0228653 0.00929708
98 9 20 0.528251 16.4716 18.2906 -0.0111138 -0.00704682 -0.00415387
236 20 11 7.58255 18.0651 0.213112 -0.0425379 -0.0768935 -0.0197839
411 35 19 5.04595 -0.00808296 14.8223 -0.00762413 -0.0167663 -0.00319996
446 38 20 6.93878 15.6157 15.2722 0.00498562 0.0283868 0.00233371
669 58 11 5.36629 15.1818 17.0042 -0.0222721 -0.0479213 -0.0935474
661 58 9 6.09419 15.3077 19.6424 0.021499 -0.00349191 0.00039169
664 58 19 6.23622 16.0793 18.4503 0.00590445 -0.031078 -0.0161648
665 58 2 5.15674 15.8544 17.7482 0.0284441 -0.0108728 0.00582753
467 39 11 7.32472 19.4846 16.6079 -0.0168809 -0.0607337 -0.0252389
458 39 20 9.20782 16.4898 16.8908 0.00410891 -0.0054148 0.0179932
237 20 11 7.16313 17.6493 18.6991 -0.064118 0.042108 -0.0175735
235 20 11 7.74706 19.0116 19.4052 0.0045517 -0.024547 0.0764758
233 20 1 6.96635 18.3608 19.5185 0.0149398 -0.0155802 0.0312808
460 39 19 8.73011 18.5644 16.0479 0.00612037 -0.000982025 -0.0142452
462 39 1 8.35153 19.7875 16.5736 0.0205567 -0.000185123 -0.0173214
457 39 9 9.43705 17.6962 16.9681 -0.00904024 0.00195376 0.0016996
75 7 19 11.9527 15.5085 19.2818 0.000625874 -0.026828 0.0169144
752 72 26 14.1537 0.0473274 19.0642 0.00372864 -0.00120305 0.00887663
79 7 11 10.9962 14.5081 17.5744 0.0307301 0.0713618 -0.0539121
459 39 19 10.8259 17.961 16.6331 -0.0237397 0.00288152 0.0119741
465 39 11 11.1735 19.2556 18.1094 -0.0228142 -0.13926 0.0216161
254 22 20 14.4382 15.4264 16.1595 0.00202858 6.85204e-05 0.000937801
464 39 11 12.4433 18.6113 17.3421 0.0341039 -0.0651566 -0.0236967
461 39 1 11.6438 18.2443 17.7737 -0.0179987 0.0120235 0.0169759
463 39 11 11.9837 18.0738 18.9998 -0.0530948 -0.0328178 0.0475758
754 72 26 15.0058 17.8837 19.1378 0.0139666 -0.00527436 -0.0191884
402 34 1 19.7657 18.6506 15.5024 0.0378847 -0.0117992 -0.0159161
261 22 11 18.2145 17.22 16.7964 0.0391048 0.0714375 0.0224562
259 22 11 17.8103 16.315 15.4982 -0.0666826 0.00583493 0.0076306
21 2 11 15.457 14.5424 18.298 -0.00730356 -0.0232004 0.0903589
407 34 11 18.9324 17.8964 15.2712 -0.107535 -0.0914704 -0.0496323
253 22 9 15.4938 15.7696 15.6797 -0.00768875 0.00554072 -0.00384281
255 22 19 16.1544 16.3622 16.8255 -0.0109286 -0.0142977 -0.00107531
257 22 1 17.2894 16.808 16.3253 -0.00318044 -0.0103579 -0.00799831
260 22 11 16.8272 17.6019 15.9431 0.11522 0.0135297 0.0375997
750 72 27 15.6666 19.1707 18.799 0.0060527 -0.00953141 -0.00319861
106 9 11 18.5616 15.7874 18.7772 0.10209 -0.178681 -0.0136889
756 72 26 15.3064 19.0158 17.2886 0.0149101 -0.00425165 -0.00990639
751 72 26 17.1936 18.5206 18.694 0.00302474 -0.00790979 -0.0157812
ITEM: TIMESTEP
1600
ITEM: NUMBER OF ATOMS
770
ITEM: BOX BOUNDS pp pp pp
0.0000000000000000e+00 2.0000000000000000e+01
0.0000000000000000e+00 2.0000000000000000e+01
0.0000000000000000e+00 2.0000000000000000e+01
ITEM: ATOMS id mol type x y z vx vy vz
136 12 19 3.4092 1.62409 1.18539 0.0334252 -0.0101004 -0.00748908
59 5 11 2.7506 19.3694 3.27637 -0.0607421 -0.0644068 0.00400523
52 5 19 2.35409 1.07639 3.9954 -0.0187006 0.0229114 -0.00794325
49 5 9 2.6639 2.41299 3.68359 -0.000250732 -0.00195824 -0.0082136
51 5 19 3.9373 2.66758 4.01583 -0.00511603 0.00274488 -0.00878558
50 5 20 2.39247 2.98922 2.7125 0.00524326 0.00590224 0.0133024
133 12 9 4.85534 1.82554 1.27923 -0.0144947 0.00487971 -0.00290097
135 12 19 5.54128 3.15135 1.11978 0.0148427 -0.003929 0.0161334
116 10 11 19.5393 1.17768 4.19239 -0.033205 -0.0289047 -0.0503084
134 12 20 5.53168 0.937581 1.86491 -0.0159474 0.0218069 0.00902464
508 43 19 7.92374 0.920807 3.33941 -0.0173884 -0.00589986 0.0145002
505 43 9 7.98793 1.81784 3.97584 0.0105231 -0.0283423 -0.0316674
137 12 1 6.05156 4.1313 1.89876 -0.0074954 0.00712807 -0.00406678
140 12 11 6.14124 4.89659 1.27593 -0.03642 0.137212 0.0375036
56 5 11 5.54634 2.06363 4.93248 -0.0810664 0.0103942 0.0384364
762 73 26 9.3973 2.95201 1.22986 0.0147273 -0.0252337 -0.000580747
141 12 11 5.36074 4.29778 2.55809 -0.00802895 -0.0444923 -0.00230983
139 12 11 6.81941 3.9679 2.52745 0.00306972 0.0438816 0.0418816
734 68 31 7.20129 3.28717 4.59915 -0.00546059 0.0474113 0.0233516
759 73 26 7.97524 2.01263 0.0369785 0.0101951 -0.0287739 0.0107362
761 73 26 10.147 0.716497 0.192048 -0.0131446 0.00485576 0.00325379
507 43 19 9.32123 1.74273 4.00756 0.00447485 -7.24233e-05 0.00739018
132 11 11 11.4754 1.60898 2.86004 -0.0931864 -0.0417485 0.14263
170 15 20 14.348 1.65801 0.891609 0.00264675 0.0101673 -0.0115813
169 15 9 14.7316 2.76691 1.25162 0.0167028 0.00167965 -0.00131881
174 15 1 13.469 4.08608 1.79957 -0.00270959 0.0105016 0.00243773
172 15 19 14.6907 3.63815 2.25775 -0.00285157 0.0213073 0.00480721
130 11 11 12.1788 0.0909896 1.59479 -0.0512283 -0.137251 0.054849
124 11 19 13.0264 1.61218 3.28594 -0.01034 0.0236144 -0.0175926
513 43 11 10.8154 3.5163 3.30726 -0.0290128 0.0739125 0.0200231
178 15 11 12.5186 3.79754 1.09767 -0.108744 -0.0115648 0.019754
126 11 1 12.2422 0.694091 2.67399 -0.0264388 -0.00931242 0.00200811
121 11 9 14.0259 1.71016 4.14289 0.00394236 0.0125967 0.0147671
179 15 11 13.3556 5.36995 1.84072 0.0318464 -0.078523 0.0413325
131 11 11 12.0197 19.7338 3.37488 0.133449 0.108399 0.0992963
180 15 11 12.7447 4.06456 2.62114 -0.03731 0.0901832 0.0226667
113 10 1 19.3116 1.59592 3.27585 0.00132301 0.00366539 -0.0155331
115 10 11 19.2516 0.716287 2.76275 -0.0455495 -0.0410398 0.0351054
117 10 11 0.31222 1.7029 3.15593 -0.0444656 0.0179079 -0.0291895
175 15 11 16.6534 1.73555 0.837201 0.0798203 0.0268203 0.0320626
109 10 9 18.9823 3.52481 4.35717 -0.0323744 0.00947995 -0.00775747
111 10 19 18.6765 2.92048 3.14356 8.25606e-05 0.00196221 -0.00128862
123 11 19 15.3635 1.2817 4.11457 0.00999871 -0.00301485 -0.0274742
128 11 11 16.0065 19.6611 3.05329 -0.0125061 0.0428005 -0.0314223
38 4 20 0.987726 8.81858 5.06306 -0.00688472 0.0155391 0.0182003
674 59 19 3.11573 8.27055 1.37316 0.0151362 0.0153629 0.00296428
680 59 11 4.04214 9.30495 0.855223 -0.0558945 0.0039905 -0.016483
675 59 2 4.44328 8.27866 1.07864 0.00304631 0.0072245 -0.00364026
37 4 9 1.70984 7.63782 5.07725 0.0245311 -0.0265004 0.013483
39 4 19 2.91049 7.77845 5.28722 -0.0111162 0.00164 0.0077238
44 4 11 4.55627 9.27226 5.10262 0.063093 -0.00299476 0.0596322
41 4 1 3.63678 8.93127 5.49633 -0.0189344 0.0333759 0.00758687
333 28 11 19.7625 6.25805 2.91644 -0.0677604 0.0851273 -0.05979
45 4 11 3.11178 9.346 4.57287 -0.0246194 -0.0920753 -0.0501051
679 59 11 3.97408 8.27135 2.10946 0.0620685 0.0443192 0.0514904
205 18 9 9.24761 6.47302 2.58176 -0.0112637 -0.00469862 -0.0105678
206 18 20 8.44946 5.48613 2.28287 -0.0174347 -0.00153975 0.0214967
210 18 1 8.72067 9.00943 2.61052 0.0156007 -0.0357081 -0.00852632
215 18 11 7.73604 9.45429 2.59881 -0.0125857 0.0734518 0.0368436
208 18 19 8.66689 7.63657 3.30405 -0.000641279 0.00967165 0.00795482
216 18 11 9.62482 9.5327 2.65982 -0.00585338 0.00819708 -0.0328328
214 18 11 8.99323 9.01665 1.44455 0.0662218 -0.0230518 -0.00683111
718 63 11 9.3164 9.0494 19.1589 -0.0283525 -0.00152513 0.0234014
491 41 11 6.22547 6.83275 5.81317 0.121447 0.0697953 0.00643907
490 41 11 4.39383 5.79888 5.58469 -0.0541247 -0.0640453 -0.042733
207 18 19 10.6907 6.02976 2.84129 0.01085 -0.00337288 0.00144673
209 18 1 11.4269 6.89225 3.40665 -0.003416 0.00266203 0.0131977
213 18 11 11.8182 7.11158 2.74093 -0.0453771 0.0670678 -0.000657506
212 18 11 11.4215 7.44852 4.12237 -0.00146217 0.0452401 -0.0646734
593 51 19 14.8376 6.65124 0.321713 0.0230544 -0.00109336 0.0154452
211 18 11 11.7308 6.13213 3.87113 -0.0185699 -0.0131747 -0.0979001
597 51 11 13.7971 6.5756 18.7856 -0.00933652 0.0113618 0.0381884
335 28 11 14.8353 7.28167 4.0155 -0.0164533 -0.0400746 0.0700601
336 28 11 14.9056 8.08533 2.35779 -0.0375226 -0.137926 0.0044631
334 28 11 14.6421 6.87552 2.90385 -0.0920141 -0.0627399 -0.0877799
592 51 20 16.7102 5.77405 0.707798 0.0166308 -0.012524 0.0163547
332 28 11 18.449 5.63895 1.58742 0.0454 -0.0235646 -0.0242859
331 28 11 19.1874 7.16622 1.14878 -0.0724323 0.0540047 -0.00011889
329 28 1 19.0452 6.58455 1.95413 -0.0242556 -0.0458387 0.0282311
328 28 19 16.3012 8.43369 3.28881 -0.00405592 -0.0145366 -0.0105155
326 28 20 17.8591 7.68157 4.56598 -0.0204218 -0.00939997 -0.0273606
325 28 9 17.7098 7.92609 3.54546 0.00329389 0.00718673 -0.041997
327 28 19 18.4903 7.45404 2.37044 -0.00975954 0.0189349 -0.00287887
330 28 1 15.4323 7.21779 3.25129 0.0299583 0.0147988 0.000858307
733 67 31 18.2751 9.39096 2.20958 0.0492894 0.021116 -0.0232245
63 6 19 0.443996 12.1491 1.5568 -0.0125381 -0.032603 0.00684848
577 49 11 3.66374 10.8327 3.1286 -0.00868833 -0.0658848 -0.0846656
576 49 2 4.11094 11.3856 2.27584 -0.0124812 0.0290482 -0.0125562
579 49 11 4.3846 13.5438 2.17302 -0.0850582 -0.0571168 -0.0430046
61 6 9 19.6742 12.5424 2.8232 -0.019988 -0.0223719 -0.00401164
580 49 11 3.82063 12.9163 3.448 -0.0013745 -0.000150065 -0.0591906
578 49 11 3.30624 11.1603 1.52137 -0.00284788 -0.0577574 0.0273829
573 49 19 5.14424 10.6406 2.66424 0.000469686 0.0178699 0.0169119
575 49 2 4.50018 12.7177 2.76621 0.0147795 -0.0236876 -0.0173944
62 6 20 0.270901 13.5665 3.38304 0.00406764 0.0112138 0.027692
572 49 20 6.78564 10.6113 4.10412 -0.0118856 0.00349664 -0.00297612
571 49 9 5.96902 11.1213 3.50842 0.00918882 0.0120317 0.00264926
574 49 19 5.93081 12.6581 3.3049 0.02255 0.016775 0.0235161
84 7 11 8.81066 13.2088 1.37851 -0.000338183 -0.0509374 0.0201679
78 7 1 9.94002 13.4294 1.31871 -0.0202241 -0.0203834 0.0211204
83 7 11 10.0641 13.3559 2.53153 -0.0313352 0.00492554 -0.041834
654 57 19 8.35967 14.9659 4.34376 0.00851942 0.0173281 0.00677389
722 64 20 12.3921 10.047 1.11691 0.0159549 -0.0365146 -0.0157403
82 7 11 10.4874 12.4944 1.44364 0.0242105 -0.0111966 -0.0210132
727 64 11 11.7714 11.8977 3.51046 -0.0452785 -0.0497323 0.0365795
726 64 2 12.6592 12.2707 3.205 0.000128025 0.0123567 -0.00816172
723 64 19 11.9195 11.1723 3.15655 -0.00718334 -0.00260661 0.0242174
721 64 9 12.8158 10.059 2.41464 0.0032152 -0.0193781 -0.0685211
728 64 11 12.8753 13.1177 3.92933 0.0417986 -0.0673688 -0.0558425
724 64 19 14.0741 10.7074 2.89301 -0.042961 0.016693 0.0149412
725 64 2 14.0426 11.9006 3.68309 0.017573 -0.0165809 -0.0123592
76 7 19 10.2131 14.4556 0.4247 0.00327745 0.0183591 0.00941941
74 7 20 12.0248 14.8388 1.25666 0.00534135 -0.0135254 0.0225405
659 57 11 9.9388 14.1084 5.01059 -0.0269941 -0.0309907 0.00874295
655 57 2 9.85716 14.8921 4.53672 0.0224931 -0.0266173 0.00657404
660 57 11 10.4189 14.7947 3.78536 0.0345741 0.0168094 -0.0709389
639 55 11 14.3113 16.6747 4.96098 0.0470183 0.0413773 0.038878
68 6 11 0.0625323 11.444 19.6703 0.0332189 -0.0122632 0.0556405
65 6 1 19.6312 12.185 0.252016 0.00651845 -0.0107852 -0.00482022
67 6 11 18.5801 12.019 0.430117 0.0214855 -0.00368514 -0.0243227
729 64 11 15.1095 12.7595 3.10771 0.144695 0.18298 -0.0556615
383 32 11 17.2747 13.7473 1.7111 -0.0732036 0.0352084 0.0122446
382 32 11 17.4991 13.8949 3.00215 0.0836007 -0.105369 -0.041226
378 32 1 16.9528 14.6331 2.52259 0.00537257 0.00851446 -0.0278058
384 32 11 16.0904 14.8943 3.32935 -0.0315761 0.0110392 -0.155784
70 6 11 19.7527 11.5985 5.58987 0.0606624 -0.0322601 0.0749101
64 6 19 18.9643 11.8084 3.54936 -0.00472841 -0.0187813 -0.00558068
66 6 1 19.6837 11.3961 4.6992 0.0209326 0.00409408 0.0219951
54 5 1 3.22984 0.0980067 3.97497 0.00420646 0.0128033 -0.00611964
104 9 11 2.49946 14.9776 1.0916 -0.0141353 -0.0375691 0.0480604
240 20 11 2.34554 17.1683 2.17574 -0.0679567 -0.0185338 -0.0641619
239 20 11 3.56983 17.8158 3.02281 0.00520109 -0.0238441 0.106432
238 20 11 3.86127 16.0884 2.57342 0.0288899 -0.0286666 0.00981168
234 20 1 3.39687 17.1778 2.17122 -0.00771051 -0.0298792 0.00931633
232 20 19 4.22979 17.7697 0.994796 0.0061067 -0.0165052 0.00187243
105 9 11 0.98358 15.3648 1.53434 0.0235897 0.038087 -0.0385556
103 9 11 2.0683 16.057 0.561446 -0.0295778 0.0364095 -0.0838266
380 32 11 0.23138 16.4433 3.47234 -0.110535 -0.0690828 0.00610328
377 32 1 19.6412 17.4446 3.07002 0.00644911 0.000812206 -0.00588208
379 32 11 19.5384 17.6644 4.11131 -0.0393328 0.0250483 -0.00221045
60 5 11 3.81791 0.158256 3.23251 -0.0150266 -0.00259184 -0.0566926
58 5 11 3.28466 19.5715 4.97446 -0.0415738 0.0185165 0.0977433
242 21 20 2.91113 15.9935 4.55227 -0.00705131 0.00322072 -0.0115264
101 9 1 1.59504 15.0638 0.667639 -0.00172048 0.0260358 -0.0154494
516 43 11 6.83078 19.3537 2.91393 -0.0831587 -0.04582 -0.126882
652 57 20 6.68656 16.3652 5.27142 -0.00477431 0.00992049 0.0094852
515 43 11 6.4406 19.9337 4.37905 0.0349608 0.0856207 0.03037
230 20 20 6.46546 17.2408 1.59873 0.0268743 -0.00775653 -0.0101885
229 20 9 5.60452 18.0784 1.05636 -0.000343538 0.00338207 -0.00654691
514 43 11 7.4604 19.2823 4.36067 -0.0580761 -0.00202651 0.115192
510 43 1 7.0926 19.732 3.67601 0.00648794 -0.0172449 -0.0071218
191 16 11 10.361 18.9028 2.12767 0.05677 -0.0922874 -0.0478117
662 58 20 7.21349 14.8819 0.482777 0.0138202 -0.0165512 -0.00134981
231 20 19 6.10974 18.6336 0.0299201 0.0175108 -0.0128856 0.00506472
73 7 9 11.3293 15.0619 0.260989 0.0147044 -0.00342292 -0.019549
182 16 20 12.3621 17.8807 3.94538 0.00950901 -0.0342809 -0.00801292
186 16 1 10.4733 17.7807 1.71994 -0.00793191 -0.00858221 0.0118653
192 16 11 9.44879 17.5834 2.29632 -0.000112755 -0.0172406 -0.11613
190 16 11 10.6258 17.9374 0.946501 0.0496847 0.0346424 -0.0686356
184 16 19 11.1357 16.691 2.72982 0.0229146 0.0135404 -0.0221232
181 16 9 12.4278 17.199 3.09197 -0.0227126 0.000843734 -0.00410403
183 16 19 13.2853 17.3597 2.21624 -0.020583 -0.0150897 0.0107388
185 16 1 14.3598 16.9431 1.70055 -0.0090177 -0.0213322 -0.00487414
187 16 11 15.3816 17.4051 1.25385 0.00825603 -0.0476482 -0.00739482
188 16 11 14.5945 16.5015 2.74369 0.0859212 -0.0673277 -0.000306729
640 55 11 14.9733 15.9009 5.83711 0.0453627 -0.0644852 0.0774202
376 32 19 17.821 15.3905 3.0964 -0.007641 0.00701133 0.0453942
189 16 11 14.7478 15.9485 0.979429 -0.0699104 -0.145089 0.0332289
755 72 26 15.9487 19.2293 0.183937 0.00802716 -0.0108084 -0.0129126
373 32 9 17.341 16.9156 3.10562 -0.0355124 0.0196895 -0.0325644
375 32 19 18.4683 17.3062 2.29251 -0.0144372 0.00512886 0.00397889
125 11 1 15.7426 19.8912 3.86281 -0.00832223 -0.0087154 -0.00488631
127 11 11 15.245 19.348 4.55269 -0.0042873 0.00586166 0.0311091
381 32 11 0.185681 18.1302 2.60991 0.0101961 0.0643477 0.0694058
129 11 11 16.7834 19.4936 4.2276 -0.0249436 0.0301308 -0.0106833
374 32 20 16.9224 17.1149 4.28816 0.0189596 -0.013482 -0.000663198
57 5 11 4.27303 3.21691 6.12385 -0.0224642 -0.00661157 0.00163858
691 61 9 2.1801 2.41742 7.32236 -0.00223168 0.00128419 -0.00585651
693 61 19 1.23328 3.0944 7.19391 -0.00320275 0.001149 -0.0230768
692 61 20 2.30296 1.22251 7.52425 -0.00751827 0.0039441 0.0137186
694 61 19 3.17647 3.08273 7.98042 0.00324928 -0.011407 -0.00792727
698 61 11 0.599215 4.31562 7.17758 -0.0151048 -0.061257 -0.049636
696 61 2 1.31419 4.3278 7.85304 0.0152578 0.022455 -0.000449686
695 61 2 2.79691 4.50771 7.68472 -0.00914497 0.000110338 -0.010016
53 5 1 4.69756 2.75106 5.24053 -0.00354191 0.00891823 0.0153182
699 61 11 2.99034 5.22477 7.17244 -0.0700933 0.0643591 -0.0337105
506 43 20 7.81985 1.42683 5.27745 0.00564184 -0.00537372 -0.0161367
511 43 11 10.3379 3.48038 4.43863 0.0268728 0.0427428 0.0198322
512 43 11 9.32616 3.79015 3.57053 -0.073585 0.0324833 0.0451491
55 5 11 4.22479 1.85107 5.61426 -0.0187205 0.00844665 0.043793
86 8 20 5.89419 1.92964 7.90852 0.0063147 -0.00828874 0.00859369
85 8 9 5.83869 0.871343 8.34988 0.0107808 -0.00490488 -0.00245874
87 8 19 6.07158 1.10389 9.89991 0.00738146 -0.00623611 -0.0109754
481 41 9 7.2637 4.98824 6.23569 -0.00373951 -0.0101701 -0.0220745
482 41 20 7.27763 3.85831 5.94023 0.0177705 0.0138113 -0.000845927
483 41 19 8.25984 5.78511 6.02455 -0.0155049 0.0225603 0.0155256
91 8 11 7.55298 19.4233 9.31306 -0.0656689 -0.0821496 -0.00303689
509 43 1 9.92858 3.09886 3.67077 0.0160615 0.00145642 -0.0308922
122 11 20 13.8128 2.19856 5.11745 -0.00432215 -0.0177174 -0.00527097
556 47 2 10.9353 0.85911 7.94816 -0.013998 0.0311967 0.0260286
553 47 19 11.0532 0.878894 6.60974 -0.00937556 -0.00451907 -0.00550593
558 47 11 11.201 1.41671 8.98603 -0.01124 0.0383029 -0.0114876
557 47 11 11.9228 0.505806 7.73735 -0.0439861 -0.0606643 0.111072
364 31 19 14.4941 4.53695 7.99063 -0.0110822 -0.0199032 0.00124129
361 31 9 13.143 4.98113 7.3567 -0.0346712 0.0111717 0.0430487
362 31 20 12.1685 4.01569 7.10643 -0.00390694 0.0228554 0.0165888
370 31 11 15.4305 3.08276 7.96711 -0.0141287 0.0340534 0.051883
570 48 11 12.0159 4.86069 9.94186 0.0130154 0.0141894 -0.0716982
565 48 2 10.9675 4.56848 9.67192 0.0204641 0.0251083 0.0120238
560 47 11 10.4561 19.0836 8.8973 -0.0131499 0.00546614 -0.070782
282 24 1 14.7344 19.4439 7.27001 0.00702427 -0.00636719 -0.00198845
551 47 9 10.5291 19.634 6.41153 -0.000358084 -0.013703 0.0162207
286 24 11 13.6696 19.826 7.38587 -0.054966 -0.0759653 0.0300097
569 48 11 11.299 5.3526 9.00518 -0.0331117 0.0623473 0.0128258
119 10 11 16.1275 4.3047 5.7732 -0.0620818 0.0854244 -0.149267
118 10 11 16.813 2.48855 4.90753 -0.0846254 0.107289 0.0178146
114 10 1 16.779 3.59129 5.17052 -0.00388798 0.0178375 -0.00243878
112 10 19 18.0762 4.15868 4.86531 0.0190836 -0.00504683 -0.0115999
120 10 11 17.2276 3.50681 6.12341 0.0470234 -0.00505734 -0.000167788
110 10 20 19.9408 3.36688 5.20259 -0.00402245 0.0265104 0.0298778
301 26 9 0.163109 0.907387 9.61259 0.0154502 0.00618278 0.0059844
372 31 11 13.8334 2.47498 7.54103 -0.0184107 -0.0543952 -0.0582307
366 31 1 14.297 3.15164 8.19213 0.000869084 0.0179416 -0.0274017
371 31 11 14.6625 2.25288 8.77858 -0.00719658 0.0767312 0.0295799
280 24 19 15.5959 19.7337 8.6021 -0.0147306 -0.0368205 0.0260436
277 24 9 16.7044 0.423344 7.93648 -0.014035 0.00152233 -0.00488892
279 24 19 17.3307 0.394025 6.6737 0.00519539 -0.00107042 -0.0153616
285 24 11 18.998 1.7499 6.75911 -0.0615942 -0.00119775 -0.0362971
278 24 20 17.0312 1.22993 8.6326 -0.00190829 0.0175367 -0.0256093
310 26 11 19.0061 4.14738 9.38364 -0.0187733 0.0551411 -0.0587087
304 26 19 0.12255 2.36076 9.55639 -0.00710342 -0.0142347 0.00605391
312 26 11 18.5222 3.01316 8.21156 0.017421 0.00723466 -0.00933142
306 26 1 19.0109 3.11397 9.10896 0.000443348 0.00363799 0.0187355
43 4 11 3.39461 9.3248 6.50605 0.0927355 0.0693359 0.0940259
700 61 11 2.76105 4.78662 8.66342 -0.0244171 -0.0298091 0.0029981
697 61 11 0.896905 4.69879 8.70129 -0.0527482 -0.0730612 0.0164151
354 30 1 2.20075 9.15599 9.41607 0.0100915 0.00169491 0.0179857
492 41 11 4.55579 6.15152 7.06705 -0.0408439 0.0559121 0.00718195
357 30 11 5.76722 6.18287 9.04704 0.0784237 -0.114839 0.0200378
40 4 19 1.00778 6.69211 5.89827 0.00475422 0.00872192 -0.00337951
358 30 11 1.51478 8.39422 9.31808 0.0271183 -0.061516 -0.0769847
356 30 11 5.79123 7.1891 10.3529 0.0369835 0.00888252 -0.0111208
355 30 11 4.25685 7.27768 8.5806 -0.0174649 -0.0327893 -0.0274266
484 41 19 6.07482 5.24807 6.99805 0.00776588 0.0342915 0.00645892
486 41 1 5.35983 6.10444 6.18375 -0.0030571 -0.00855035 0.014394
485 41 1 8.84381 6.60223 6.87846 0.0227232 0.0132582 -0.00994564
353 30 1 5.17643 7.19776 9.24552 -0.00234187 0.0244353 0.0186481
487 41 11 9.65261 6.2819 7.64385 -0.0541248 0.0285146 0.0690831
489 41 11 9.60352 7.01859 6.41188 0.135563 0.116288 0.0187146
488 41 11 8.28034 7.64575 7.32167 -0.0880384 -0.013385 0.115477
479 40 11 7.82136 9.9416 8.47914 -0.0412525 -0.00667693 -0.06187
472 40 19 9.4376 9.51364 7.85953 -0.00362908 0.0122251 -0.00131095
568 48 11 9.84464 6.41033 9.89917 0.0443429 0.0319757 0.0226324
363 31 19 13.2608 6.29035 6.70154 0.00705538 -0.00840267 -0.0101162
473 40 1 12.4966 9.9266 7.56477 0.00304197 0.0205976 0.0241514
476 40 11 12.3962 10.0703 6.31143 -0.0246919 0.0339493 0.0516243
475 40 11 12.4754 8.91563 7.03455 -0.0495534 -0.0993095 -0.0271442
365 31 1 14.3362 7.01173 6.35124 -0.0220743 -0.00124455 0.00499434
368 31 11 14.0887 6.23843 5.68222 0.0693773 0.0520737 0.0396505
369 31 11 14.3017 7.66683 5.52144 0.107742 0.00113268 -0.0479327
367 31 11 15.0968 6.33576 6.72113 0.0746757 -0.0174213 -0.0470181
548 46 11 14.2577 7.30772 9.72484 0.0588509 -0.00688322 0.0206758
547 46 11 13.7909 6.18231 10.1975 -0.114617 -0.0174388 -0.0163916
546 46 2 14.6305 6.3462 9.87234 0.00176695 -0.00461246 0.00685524
609 52 11 10.9189 8.6921 10.3405 -0.0563431 -0.0199734 0.0449147
542 46 20 16.9073 6.51286 8.0215 0.00283894 0.00443836 -0.0030421
46 4 11 1.40557 6.58745 7.71079 0.0313112 0.0850301 -0.0504078
48 4 11 0.426785 8.14236 7.14313 0.0374637 0.0769283 0.0816034
42 4 1 0.689447 7.12558 7.1242 0.0270887 -0.0162624 -0.00839463
543 46 19 15.1467 7.52091 9.04415 0.0136916 -0.00137607 -0.000731342
47 4 11 19.6138 6.76986 7.35711 -0.0158023 0.00926161 0.0531538
541 46 9 16.5481 6.83717 9.07158 0.0137124 -0.0318924 -0.0308014
6 1 1 16.8724 9.97377 7.45475 0.0127645 0.0197128 -0.00579901
12 1 11 16.9738 8.93418 6.92173 0.019149 0.0303359 0.030155
1 1 9 18.4713 9.93761 8.7525 0.00986932 0.0510142 -0.0203063
2 1 20 19.1249 8.88231 9.21157 0.0245772 -0.0100942 0.0105914
11 1 11 16.1728 9.58404 7.99055 -0.0901592 -0.0314381 -0.0183627
248 21 11 2.35544 13.4762 5.55537 0.0236385 0.0772956 -0.0144437
360 30 11 2.13575 10.0188 8.76515 -0.0316967 -0.0385208 -0.059365
245 21 1 1.4633 13.7621 6.10964 -0.0197906 -0.00121875 0.00260268
247 21 11 1.74576 13.1496 7.02031 -0.000824988 -0.0233292 0.00859148
612 53 20 4.11644 11.2974 7.61437 -0.0117159 -0.000678841 0.0151191
249 21 11 1.90932 14.3006 5.22362 0.0207745 0.0228347 -0.00304356
613 53 19 4.52417 13.4879 8.05307 0.00972695 0.00566526 -0.00736203
582 50 20 0.4625 14.1782 8.82021 0.0142386 0.0191433 -0.00220862
581 50 9 1.1421 13.7157 9.77419 -0.0153632 -0.0026585 -0.0040986
584 50 19 1.8295 12.4227 10.1442 -0.0041913 -0.00845479 0.010936
616 53 2 5.36569 14.5171 7.61829 0.00130365 0.00244393 0.00406813
478 40 11 7.73893 11.1983 7.01984 0.0480801 0.00196468 0.0533573
474 40 1 8.30739 10.8746 8.18843 -0.00865691 -0.00928509 -0.00626775
480 40 11 7.69616 11.5395 8.9517 -0.0402956 0.0200968 -0.0201113
611 53 9 4.62759 12.308 7.22346 0.00567814 -0.0161402 -0.0216992
615 53 2 6.0468 13.7644 6.62985 -0.0046793 -0.0107361 0.00694104
614 53 19 5.62081 12.4003 6.54117 0.00641056 -0.010684 0.000248255
620 53 11 7.05208 13.9165 6.72557 -0.0439792 -0.0192707 -0.01361
619 53 11 5.78903 13.546 5.83177 -0.0214248 0.00442165 -0.0516637
730 64 11 14.109 11.465 4.7956 0.0370675 0.0600475 0.13553
469 40 9 10.362 10.1259 7.30085 0.00495479 -0.00992115 0.00700377
471 40 19 11.3874 10.5853 8.1427 -0.0125184 0.00471371 -0.0263335
477 40 11 13.3465 10.6467 7.8577 0.0169374 -0.0402425 -0.0165403
470 40 20 10.1862 10.9308 6.31557 0.00943737 -0.00922961 0.0184091
631 55 9 13.5875 13.9211 6.90487 0.00908478 0.0105721 0.000902553
634 55 19 14.1893 14.2676 5.75008 0.0109443 0.0255147 0.012531
632 55 20 14.0919 12.8557 7.53797 -0.00240044 -0.00879295 0.00912778
633 55 19 13.5231 15.2051 7.63838 0.00944554 0.00784758 0.0014674
152 13 11 11.7702 13.1829 9.6231 -0.0581751 -0.0333226 -0.0658017
4 1 19 18.0775 10.064 7.53996 -0.0060783 0.004619 -0.00681876
10 1 11 16.5547 10.815 7.09192 -0.0300016 0.0173978 0.010091
71 6 11 19.2596 11.8623 4.87244 -0.055513 -0.0707614 -0.0255425
72 6 11 19.305 10.551 4.76315 -0.100149 0.044114 -0.00181114
3 1 19 18.6741 11.2192 9.47671 0.00347279 -0.0349742 -0.00290567
8 1 11 17.5896 12.0525 10.5688 -0.0879468 0.0460314 0.113525
682 60 20 18.4552 14.9288 6.62639 -0.0157639 -0.0120519 -0.00572555
243 21 19 2.05969 15.0772 6.58896 -0.00751361 0.00751198 0.0134386
241 21 9 2.33256 16.4222 5.6702 0.0166755 0.0117958 0.00588614
244 21 19 1.4123 17.5075 5.88602 0.00441263 -0.0125826 -0.00278892
251 21 11 1.70772 18.5407 7.75429 -0.16284 -0.101356 0.0102393
246 21 1 2.14514 17.906 7.19047 0.00672273 -0.000521031 -0.00505562
252 21 11 3.17235 18.0936 6.85386 0.0631276 -0.0274469 -0.035419
250 21 11 1.70607 17.2431 7.97292 -0.0456806 -0.0326636 0.00687336
524 44 11 2.01934 17.235 9.98898 -0.0322354 -0.00813238 0.0995157
88 8 19 5.53365 19.6133 7.93546 0.00986487 -0.00221882 -0.00831566
523 44 11 0.607101 16.2582 9.3657 0.00560207 0.0393474 0.03416
521 44 1 0.785917 17.2225 10.2267 -0.0227599 -0.00971196 0.0150507
651 57 9 7.77688 16.2108 5.13841 -0.0294657 0.0105918 0.00142779
653 57 19 8.72505 16.5458 5.88586 -0.0146616 0.00231978 0.0136545
94 8 11 5.40385 0.13297 6.1791 0.0488084 -0.00769502 0.0445643
617 53 11 5.83041 14.5518 8.68138 -0.0394273 -0.0938554 0.0846108
656 57 2 9.96141 16.1973 5.29907 -0.0299836 -0.00944686 0.00920852
95 8 11 6.77211 19.6912 6.57064 0.041308 0.0181285 -0.0136433
96 8 11 5.49612 18.6896 6.15027 0.0386149 -0.0805346 -0.0371385
90 8 1 5.77656 19.4773 6.8014 -0.00630652 -0.0030045 -0.00348796
618 53 11 5.86027 15.0688 6.86315 -0.0265808 0.0286886 0.0423075
503 42 11 7.29228 17.4412 7.47069 -0.0484331 0.041468 -0.095735
498 42 1 7.34011 17.0371 8.45672 0.0168873 -0.0136693 -0.00225244
502 42 11 6.56092 17.2293 9.2514 -0.00961657 0.022522 -0.0296533
554 47 19 9.74554 19.1698 7.42365 0.0277891 -0.0176547 -0.0300678
493 42 9 8.30408 15.4202 9.71405 0.0136532 0.0129949 -0.0291792
504 42 11 7.88633 17.8498 8.82684 0.0140691 0.069634 0.00795953
496 42 19 7.58541 15.9249 8.49848 0.0158925 -0.00435314 0.0125202
495 42 19 9.7469 15.3013 9.87885 -0.0156986 0.00434992 0.01091
555 47 2 10.0465 19.9206 8.26268 0.040636 0.00645405 -0.0321227
559 47 11 9.40002 0.262873 9.16079 0.121068 -0.00252941 -0.0655554
288 24 11 14.8433 0.334826 6.34901 0.0253649 0.00242994 -0.0775265
287 24 11 14.4047 18.46 7.09865 0.0583005 -0.109107 -0.0470271
636 55 2 13.3978 16.1807 6.72792 -0.0117381 -0.00328408 0.0209752
635 55 2 14.1147 15.7361 5.46424 0.00342093 0.0208347 -0.0270232
657 57 11 9.65286 17.2261 4.85818 0.0900334 0.0427453 -0.0216995
658 57 11 10.5925 16.6452 6.23912 0.0982999 -0.0337578 0.00954362
500 42 11 10.2469 17.0642 9.0315 0.0900175 0.113658 0.0654029
638 55 11 13.1507 17.0097 6.04084 -0.0638894 -0.0126426 0.036928
637 55 11 13.3634 17.0695 7.45596 0.0738305 0.0771041 0.0422192
552 47 20 11.2787 18.7958 6.13335 -0.0145877 -0.0305796 0.0170228
497 42 1 10.7066 15.8951 8.93251 -0.0215754 0.00827673 -0.0182768
499 42 11 10.843 16.0317 7.96366 -0.123626 0.051615 0.0731147
501 42 11 10.2366 15.0457 8.30423 -0.0127954 0.060598 -0.045884
703 62 19 12.8683 18.6138 10.3563 0.00526328 -0.00882247 0.0135928
284 24 11 18.4107 0.681988 5.5645 -0.0412298 0.00521719 0.0370491
281 24 1 18.6357 0.637684 6.57452 -0.0139361 0.011796 0.00270766
283 24 11 19.3895 19.8511 6.55862 -0.0262998 0.0293738 -0.0289548
302 26 20 19.381 0.0305204 9.34544 0.0112489 0.00965719 -0.0140775
683 60 19 16.734 15.2204 7.9201 0.0178449 -0.00620867 -0.000629638
681 60 9 18.0176 15.3457 7.48753 0.00832935 -0.0350244 -0.00861344
686 60 2 16.6511 16.1354 8.93617 0.00395752 -0.0217479 -0.00662455
685 60 2 17.4241 17.4426 8.5905 0.0061165 -0.00188841 0.0293464
690 60 11 16.8352 17.6462 7.56536 -0.100994 0.0398486 -0.00674855
688 60 11 15.5208 16.254 9.12005 -0.0614718 0.0253158 0.00930308
687 60 11 16.8603 15.605 9.9421 0.0325452 -0.0365904 0.0284789
684 60 19 17.7677 16.6951 7.4869 -0.00918974 -0.00416254 -0.000181776
689 60 11 18.4964 17.504 9.02246 0.0266356 0.01421 0.0166582
525 44 11 0.447138 18.2813 9.51181 0.084969 0.0691879 -0.0346973
303 26 19 0.94726 0.635889 10.8403 0.0131051 0.0117044 -0.000859754
308 26 11 2.26662 2.28269 10.4714 -0.0425736 -0.0129727 -0.012559
305 26 1 2.24446 1.27368 10.405 0.0214453 0.00890729 0.00798905
309 26 11 2.84091 0.842409 11.3357 0.0449787 -0.0176088 -0.0241219
307 26 11 2.70657 0.890795 9.41394 0.0578401 -0.0181623 -0.0963033
226 19 11 0.509565 5.39517 11.4405 -0.125651 0.0762707 -0.0211277
224 19 11 4.62468 2.64381 9.98054 0.0137512 0.0315733 -0.0224251
622 54 20 0.916294 1.12071 13.873 -0.00664502 0.0239783 -0.0160064
624 54 19 0.429143 3.2621 14.282 0.000592418 -0.01333 -0.0198938
219 19 19 4.68 3.50191 12.2446 0.00207867 0.00752189 -0.00361939
221 19 1 4.87349 3.3006 10.7984 -0.00155624 0.0067394 0.00365737
225 19 11 4.52615 4.02909 10.0601 -0.00355169 -0.00434263 -0.0344877
223 19 11 4.24595 2.36372 11.3331 0.0145734 0.00121683 -0.0209204
621 54 9 19.9837 1.85954 14.1388 -0.00216087 -0.00356835 -0.0173217
220 19 19 2.46062 4.16862 12.2535 -0.00256206 0.00194293 0.00825982
217 19 9 3.83969 4.49818 12.5451 -0.00577134 -0.00376149 -0.0049292
276 23 11 2.4114 5.03464 16.0064 -0.00923681 -0.059531 -0.01768
89 8 1 7.2426 0.192037 10.0248 -0.00378247 -0.0096733 -0.00194598
561 48 9 9.55744 3.02701 10.9664 0.00235405 0.0177494 0.0455082
563 48 19 9.10077 4.24494 10.8334 -0.0257118 0.00554203 -0.0217226
93 8 11 7.93951 19.8956 10.5478 0.0328096 -0.0104522 0.0302153
416 35 11 4.83697 0.976917 13.3549 -0.0155885 -0.0351255 -0.0164518
413 35 1 5.77896 0.793908 13.8694 -0.00506086 -0.00989826 0.00460511
415 35 11 6.7042 0.321052 13.2087 0.0292908 0.00953411 0.00220537
417 35 11 5.91813 1.55219 14.5307 -0.0419549 0.0507164 0.0762721
562 48 20 9.08792 1.906 11.0403 -0.00285249 -0.000754529 0.0121959
735 69 31 5.99917 4.87824 15.0133 -0.00930049 0.0262388 0.0247763
564 48 19 10.8821 3.1892 10.0051 -0.0262547 0.0289128 -0.0100647
539 45 11 14.0951 4.518 13.1747 -0.139442 -0.0143917 -0.0919318
705 62 2 11.1809 19.3932 11.9736 0.0221452 -0.0107937 0.0199228
709 62 11 10.514 18.7475 12.5309 0.0370805 0.0241535 0.0301095
168 14 11 11.0704 0.107663 15.6101 0.0514542 0.0373715 -0.0221103
293 25 1 11.3618 4.51812 13.7394 -0.00557624 0.00586349 0.00966228
295 25 11 12.1929 5.21459 13.2195 -0.0148762 0.0202368 -0.00505693
297 25 11 11.8268 3.57035 14.0809 0.0697309 0.0114209 -0.020231
704 62 19 12.3944 0.390024 12.1649 -0.0169629 -0.0138596 -0.00975058
566 48 2 9.89928 5.37418 10.3176 0.0177851 0.0204965 -0.0242035
702 62 20 13.4934 0.666251 10.3583 -0.0395219 -0.0172438 0.00650343
701 62 9 13.2532 19.8636 10.9176 0.016107 -0.0121194 0.0316344
167 14 11 11.2465 1.12897 14.0028 -0.0211387 -0.0574839 -0.0275056
311 26 11 18.4731 2.87426 9.91433 -0.00278654 -0.0300792 0.00533405
534 45 1 14.699 3.71587 13.6339 -0.0127398 0.00650242 -0.0152734
540 45 11 13.7529 3.89551 13.8646 0.0390592 0.052324 0.00973989
538 45 11 15.1944 4.26983 14.487 0.00526813 -0.0568784 0.00852588
529 45 9 16.0939 2.47844 12.1425 0.0110015 0.0126241 0.0167652
530 45 20 15.5993 1.27068 12.031 -0.0271869 -0.0028273 -0.00293544
532 45 19 15.3941 3.37029 12.4786 -0.00390099 0.00816216 -0.0147968
531 45 19 17.4084 2.45331 12.2833 -0.00801338 0.00448468 0.0176257
533 45 1 18.0712 1.15549 12.1994 0.0275561 -0.0150272 -0.0015204
627 54 11 17.5783 3.778 15.0733 -0.000904947 0.0575084 -0.0180554
536 45 11 19.0874 1.5557 11.9901 0.104733 -0.0194241 -0.0231324
549 46 11 16.1422 4.85056 10.6057 0.0107699 -0.0306105 0.0242972
630 54 11 0.03844 4.48465 14.1873 0.0125605 -0.0560301 -0.0104243
537 45 11 17.6553 -0.021185 12.4751 -0.101161 -0.0335236 0.0124981
535 45 11 18.0053 0.657418 11.1157 -0.0481527 0.0366376 -0.0243495
625 54 2 19.6459 3.86772 15.1346 -0.000412242 -0.00581503 0.0190403
629 54 11 19.4178 4.46373 15.8819 -0.0536872 0.0876385 0.0211117
349 30 9 4.42483 9.35694 9.96042 -0.0388473 -0.0581713 -0.00390411
351 30 19 5.02964 8.1817 10.3846 0.0126481 0.00013554 -0.0180615
228 19 11 0.929724 4.55047 11.6853 -0.0279667 -0.134056 0.0243519
222 19 1 1.48015 5.23447 11.6352 0.02136 -0.00512056 -0.00624483
352 30 19 3.22422 9.42659 10.2179 0.023241 0.00867252 -0.00627256
227 19 11 2.29843 5.60834 11.0324 -0.029769 0.0126181 -0.101767
218 19 20 4.35487 5.59309 12.5098 0.00905831 0.000827617 -0.00854084
427 36 11 2.09857 8.2282 12.3635 0.0732182 -0.0575463 -0.0238181
429 36 11 0.581827 8.79513 12.1196 0.0507726 0.0363843 -0.00309639
428 36 11 1.05403 8.04215 11.7702 0.0966732 0.0283841 -0.0112339
425 36 1 1.07633 8.23877 12.8283 -0.0191821 -0.0179874 -0.0101871
347 29 11 4.49222 8.79959 13.5654 0.0296388 0.0357142 -0.0387482
423 36 19 0.809035 7.29583 13.6786 0.0233966 0.0166899 0.0027168
290 25 20 8.89518 5.78244 13.3147 -0.0211918 0.00622238 -0.0252054
289 25 9 9.11068 5.24208 14.549 0.0233401 -0.0194602 0.0161164
342 29 1 5.76944 8.97791 13.1136 -0.00799361 0.0315902 0.0285722
348 29 11 5.69551 8.37724 12.5934 0.0734471 -0.0551851 -0.126793
346 29 11 5.7733 9.91509 12.5643 -0.0347868 -0.0122326 -0.105766
337 29 9 7.66339 9.36947 13.9106 -0.0104417 0.0071994 -0.000431394
338 29 20 8.13789 8.53986 14.5366 0.00733238 -0.0032213 -0.00362388
340 29 19 6.27989 9.79644 14.2599 0.00449031 0.0146181 -0.00278733
567 48 11 9.34926 5.18814 11.2756 -0.00559104 0.00518802 -0.026314
296 25 11 10.887 4.45716 12.8187 -0.0224204 -0.0278235 -0.0857574
291 25 19 10.481 5.18303 14.9303 -4.67608e-07 -0.000908259 -0.00973677
603 52 19 11.7018 7.79384 12.9405 -0.00961425 -0.0152509 -0.0209302
601 52 9 13.0998 7.8527 12.3429 0.00219269 0.0257562 0.00350375
605 52 2 11.5142 8.55733 10.8123 -0.0095871 0.0152003 -0.0363722
604 52 19 12.8866 8.22663 11.116 -0.00282097 -0.00486137 0.00543487
608 52 11 10.1445 7.60657 11.6828 0.026822 -0.0421594 0.0083344
606 52 2 10.6622 8.48934 12.2623 0.0146985 4.10363e-05 -0.00277555
607 52 11 9.98408 7.79666 12.7596 0.0353341 0.0191093 0.0372378
610 52 11 12.0756 9.303 10.7202 -0.0678904 -0.0410404 0.0337771
602 52 20 13.6464 6.96074 12.8334 -0.00703264 0.00281101 0.0463224
550 46 11 15.4356 5.99112 11.8636 -0.0483777 0.0427042 -0.00528937
545 46 2 15.92 5.90888 10.7992 0.0159543 -0.00862243 0.00269358
544 46 19 17.1297 6.61445 10.2657 -0.0155012 0.0120694 -0.0120797
422 36 20 18.7923 6.83287 12.3428 -0.0182825 0.00334729 -0.0070716
421 36 9 19.4727 6.83672 13.5236 0.0108742 -0.0320941 0.000286983
426 36 1 17.0618 7.01549 14.4684 -0.0130533 0.0351188 -0.00382915
430 36 11 16.7131 7.68573 13.6796 -0.0487109 -0.0124212 0.018272
424 36 19 18.4528 6.44131 14.5236 -0.00405251 0.0245813 -0.00252184
431 36 11 17.1052 7.89347 14.9676 -0.00535194 -0.0391464 0.00972818
359 30 11 1.41048 9.74785 9.91785 -0.0362785 0.0282036 -0.0495974
590 50 11 3.85881 12.4067 10.2934 0.056876 0.0593073 -0.148704
589 50 11 2.60818 12.288 11.5156 -0.0203569 0.00393185 0.0187428
350 30 20 5.35024 10.2122 10.0077 0.00812099 0.0193706 -0.00521507
583 50 19 1.45589 14.5379 10.7818 -0.00288882 -0.00272081 -0.0418405
585 50 2 2.87756 13.0588 10.659 0.0190326 0.0277042 0.0219093
588 50 11 3.26514 15.0021 9.95108 0.055534 -0.0151151 -0.0322073
586 50 2 2.94121 14.5444 10.6825 0.0227289 -0.0121017 -0.00918619
587 50 11 3.0987 15.2272 11.6474 0.0840413 0.0640339 0.10009
318 27 1 1.66402 13.2588 14.4673 0.0157869 -0.0158336 -0.0021504
323 27 11 1.43584 14.0839 13.8388 -0.0694462 -0.0345397 0.0984731
316 27 19 2.95447 13.3185 14.8709 0.0173125 -0.00860928 -0.00781856
322 27 11 0.903771 12.6639 14.5253 -0.106596 -0.0644135 -0.00477943
314 27 20 4.33248 11.7196 13.527 0.0098571 -0.0131158 -0.0125875
313 27 9 3.94008 12.9761 13.9797 0.017445 0.00410141 -0.00862254
315 27 19 4.45542 14.0405 13.3507 -0.00313137 -0.00209155 -0.00231541
154 13 11 7.18586 11.1788 11.5547 -0.0110935 -0.0164981 -0.0521655
339 29 19 8.46907 9.95553 13.1862 0.0320087 -0.0200785 0.00342636
150 13 1 7.23 12.2792 11.6935 0.00512825 -0.0181292 -0.0245093
148 13 19 8.29666 12.2695 10.6747 -0.0136259 -0.00981136 -0.00711004
146 13 20 10.2004 11.0035 11.078 -0.0269999 -0.00549496 0.00414293
156 13 11 7.96743 12.8321 12.5093 0.0346294 -0.0525241 0.0548821
155 13 11 6.4352 12.5467 11.4612 -0.0163229 0.00293296 -0.0414589
341 29 1 9.59693 10.6016 13.8337 -0.00994902 0.00550132 -0.0102265
456 38 11 6.95989 12.6151 14.6892 -0.0572336 0.0427199 -0.0622173
445 38 9 7.81427 14.5977 15.1763 0.0163285 0.000414265 -0.011961
345 29 11 9.50839 10.7721 14.7175 -0.0230648 0.00579627 0.030733
452 38 11 10.7669 14.7344 13.4627 0.017015 -0.0277223 0.0191726
454 38 11 6.36406 13.1295 16.1255 0.0711858 0.0155823 0.103587
450 38 1 7.18085 12.8708 15.8052 -0.00556749 -0.00310928 0.00825488
147 13 19 10.3899 13.274 11.4481 0.00528452 0.00300771 -6.52228e-05
145 13 9 9.68624 12.1284 11.0592 -0.011556 0.0104647 -0.0156467
343 29 11 9.64993 11.8466 13.8342 -0.0413794 0.085611 0.0601662
36 3 11 15.8276 12.9573 11.9171 0.0222553 -0.00820452 0.0626456
149 13 1 11.611 13.571 10.7005 -0.000408378 -0.00875958 0.0197725
153 13 11 12.7746 13.6354 10.5742 0.0873421 0.235537 0.0420094
151 13 11 12.5105 13.2776 11.3128 0.041393 0.0130963 -0.0298551
35 3 11 14.5744 12.5559 13.1803 -0.0414475 0.00088714 0.114695
30 3 1 14.9615 12.1164 12.2543 -0.00945241 -0.00152566 0.00441948
34 3 11 14.0044 12.4878 11.8382 0.00244441 0.126177 -0.090088
26 3 20 15.369 9.71126 13.4241 -0.00210736 -0.0247043 -0.0056903
9 1 11 18.3552 12.6328 8.17372 0.0586067 -0.0542542 0.00862726
5 1 1 18.5167 12.3433 9.41763 -0.00600451 0.0117327 -0.0177904
7 1 11 17.8492 13.0985 9.81977 -0.107489 0.0500786 -0.123246
25 3 9 15.9875 10.3801 12.5794 -0.00349325 -0.0195013 -0.00685247
32 3 11 18.6493 11.3372 13.7606 0.055754 0.0328619 -0.111417
31 3 11 18.0979 9.49812 13.6204 0.0232629 -0.0511254 0.0143919
27 3 19 17.6508 10.6112 12.6665 -0.00377531 -0.00335055 -0.021408
29 3 1 17.9743 10.5248 13.8662 -0.00252711 -0.0203575 0.0375832
33 3 11 17.3267 10.9276 14.4668 -0.0809911 0.0596798 -0.012516
28 3 19 15.3179 11.1042 11.8292 -0.0199502 -0.0104462 -0.0027936
526 44 11 19.5946 13.6162 12.4016 -0.031097 -0.0163264 0.00533178
522 44 1 19.0952 14.5469 12.692 -0.00282499 -0.00262693 0.00163544
262 22 11 16.6557 15.7507 13.4588 0.129791 0.0517344 -0.0902862
527 44 11 18.0675 13.826 12.943 -0.0492556 0.0220326 -0.0465754
434 37 20 4.58564 18.421 11.0085 0.00707879 -0.0101079 0.00776453
317 27 1 4.37317 15.3332 13.7141 0.00130594 0.0406539 0.00142129
321 27 11 5.07765 15.5313 12.5522 0.0600122 0.0603842 -0.0190245
443 37 11 2.43822 19.666 12.6246 0.0790288 -0.0429192 0.024624
444 37 11 1.30005 18.4436 12.5275 -0.0627077 -0.0169087 0.0222398
438 37 1 2.40303 18.6291 12.8289 0.00113432 -0.00104993 -0.0186999
442 37 11 2.22118 18.8818 13.9197 -0.0102038 0.0169906 0.00735062
436 37 19 3.45536 17.5687 12.8597 0.00274606 0.000221808 -0.00750929
433 37 9 4.67881 18.2112 12.1157 -0.00680651 -0.0119722 -0.0161898
319 27 11 3.26463 15.5817 14.0086 0.0665442 -0.0322858 -0.0166351
519 44 19 0.588361 16.9173 11.5622 -0.00820923 0.00701769 0.00823029
92 8 11 6.69857 19.2054 10.5171 -0.0100469 0.0127429 0.0308974
494 42 20 7.47068 14.8356 10.7201 0.00326902 -0.00406467 -0.00725759
447 38 19 8.46994 14.662 14.177 -0.0181906 -0.0151667 -0.0111753
435 37 19 5.75112 18.1495 12.7062 -0.00141524 0.018553 0.00912496
441 37 11 7.85743 17.7269 13.1936 0.00230398 0.146643 -0.0265215
437 37 1 6.85232 17.1826 12.728 0.000147993 -0.0264567 -0.00164477
439 37 11 7.06061 16.5304 13.4081 0.00942465 -0.0220288 0.0348631
440 37 11 7.03394 17.2267 11.6168 0.00658724 -0.0348299 -0.0109471
453 38 11 10.0789 15.9925 14.377 0.0234221 0.0511116 0.00816269
710 62 11 10.2912 19.7494 11.6355 0.0589599 0.0665387 -0.0239973
449 38 1 9.86866 14.9739 14.1739 0.0390667 -0.00439876 0.00644957
451 38 11 9.9245 15.2429 13.0698 -0.0824447 0.0224616 -0.0473633
708 62 11 12.6548 17.6427 10.4591 0.0831612 -0.0871558 0.0495566
707 62 11 12.2635 17.9009 12.1448 0.0645343 0.0296111 0.0569909
706 62 2 11.8147 18.1274 11.2235 0.0184341 -0.000849056 -0.0136677
157 14 9 13.7769 19.55 14.6449 -0.0086482 0.00585157 0.0211167
158 14 20 13.2461 18.6704 13.8491 0.0130836 -0.0111102 0.00881702
165 14 11 16.5496 18.3868 14.2392 -0.103838 -0.0164457 0.0460876
164 14 11 16.3108 18.5721 12.9669 0.0152317 0.0143869 -0.0330519
263 22 11 15.3714 14.4261 13.6213 0.0345833 0.0976511 -0.000697565
528 44 11 19.7266 15.1519 13.5102 -0.00626632 -0.0126129 -0.0103802
408 34 11 0.335636 18.9794 14.3514 0.0149543 -0.00804994 0.0409522
256 22 19 15.065 16.4146 14.4604 -0.0151103 0.0205067 0.00282121
264 22 11 14.9363 16.0491 12.4014 -0.0364972 0.0318995 0.0463483
258 22 1 15.3634 15.5542 13.2855 -0.0184781 -0.0181655 0.00256365
517 44 9 19.0322 16.7756 11.8286 0.00422384 -0.0168567 0.00194691
520 44 19 18.3655 15.3591 11.7043 -0.0354104 0.00618785 0.00736815
518 44 20 18.5496 17.6834 12.5436 0.00142993 3.46424e-05 -0.0119175
159 14 19 14.9474 0.0991574 14.3389 -0.00908262 -0.00975113 -0.000858059
161 14 1 15.9133 19.2516 13.7123 -0.00707594 0.0148665 0.00200495
163 14 11 16.6523 19.6266 14.3102 0.0168653 0.0172233 -0.0195572
420 35 11 2.08483 0.543907 15.3714 0.0368437 -0.0939721 -0.00359119
144 12 11 2.12351 0.60822 19.7633 0.0120501 -0.0447043 0.0773537
138 12 1 3.06438 0.839671 0.168273 0.00885849 0.0264009 0.0349329
419 35 11 2.12951 2.35211 16.0833 -0.0435689 0.0218967 -0.0197454
414 35 1 2.73543 1.36597 15.9485 0.00576393 0.00934721 -0.0234884
418 35 11 2.75211 1.15105 16.978 0.062717 -0.068152 0.0256115
412 35 19 3.94593 1.3684 15.4572 0.0192789 0.0120441 -0.00175498
647 56 11 4.73996 3.10377 18.8337 0.0346163 0.0562701 0.0955074
646 56 2 4.8034 4.20964 18.5727 0.025546 0.0254684 -0.00571321
643 56 19 4.74458 3.13177 17.7205 0.000896416 0.00790723 -0.0192948
749 71 26 1.51373 3.38309 17.9877 -0.0126928 -0.00230991 -0.00843981
409 35 9 4.88448 0.180581 15.8709 0.0107937 0.00104821 0.00236516
731 65 31 19.6204 1.16425 0.271829 -0.0285902 0.00884685 0.0160166
747 71 26 0.423299 2.28376 19.0526 -0.0209938 -0.00395437 0.0121526
743 71 27 0.332159 3.86458 18.657 0.00426704 0.000424966 -0.000572292
648 56 11 3.92038 4.85567 18.9092 0.0193489 -0.0694222 -0.108799
744 71 26 1.48413 4.22921 19.5324 -0.00287083 -0.00788689 0.0118755
410 35 20 5.20278 0.176751 17.1268 0.00101618 -0.0071314 -0.028362
300 25 11 8.62374 3.34465 16.5234 -0.0222191 0.0033132 -0.0148151
294 25 1 9.37355 3.14331 15.6984 0.00755172 -0.00140671 0.0126809
292 25 19 8.50692 4.17877 14.9934 -0.00462447 0.00482313 -0.00809813
642 56 20 5.96728 3.64019 15.9526 -0.0137692 -0.0189441 0.00143461
298 25 11 9.36478 2.27234 16.3289 -0.0431979 0.0456388 -0.0501556
760 73 26 8.93651 3.52805 19.3799 0.0164315 -0.00902335 -0.00174841
763 73 26 9.43992 1.33536 18.6461 0.0197285 -0.00413743 0.0039051
757 73 27 9.43914 2.15978 19.8715 -0.00641279 0.0258163 -0.010575
641 56 9 5.96354 3.4605 17.0302 0.00395339 0.0107401 -0.022624
299 25 11 8.88421 2.51875 15.0332 -0.101919 -0.013461 0.0252397
650 56 11 6.91919 4.3077 19.2961 -0.0294706 0.08327 -0.0732304
645 56 2 6.32922 4.89313 18.7437 0.00997502 0.0145374 0.0215683
644 56 19 6.75914 4.33623 17.6143 0.00494824 0.00516858 0.0128005
466 39 11 8.87993 0.33641 15.9364 0.083056 -0.0582188 -0.0405046
468 39 11 7.74744 19.5386 17.4913 0.00413531 -0.0246878 -0.0543979
162 14 1 11.7647 0.839873 15.0179 -0.00815825 0.0231479 0.00605102
166 14 11 12.0228 1.49867 15.8718 0.114218 0.0623954 0.0552581
160 14 19 12.8459 0.0734464 15.5454 0.0104447 0.000351549 -0.00303056
758 73 26 10.9596 2.11377 19.7955 0.00431784 -0.00532244 0.00630972
194 17 20 13.1704 4.5419 18.1543 -0.0122628 0.00285403 -0.0167315
196 17 19 13.5084 5.18795 16.0368 0.00988725 0.0117824 -0.0123103
195 17 19 13.6092 2.81444 17.0062 0.00770503 0.00676843 0.0149215
193 17 9 13.107 4.13816 16.9653 -0.0118101 -0.00594156 -0.0212427
732 66 31 12.6608 1.87862 19.7641 0.0170487 0.0348822 0.0439294
201 17 11 15.9752 3.40914 17.4053 0.0162738 -0.00701743 -0.0226663
171 15 19 15.7058 3.30192 0.205286 -0.00852174 0.00109241 0.0077282
173 15 1 16.7577 2.68571 0.534348 -0.00952504 0.00381859 0.00438555
177 15 11 17.1376 3.2223 1.20286 0.0436936 0.0344748 -0.0173036
176 15 11 17.4035 2.9212 19.8308 0.0135854 -0.0435903 0.0194365
623 54 19 18.8125 1.66396 14.8808 -0.0192152 0.0258359 -0.00463925
626 54 2 18.3529 3.04765 14.9126 0.00489691 -0.0101137 0.00919143
628 54 11 18.0771 2.16288 15.7261 -0.0256676 0.0291872 -0.0598439
748 71 26 19.2619 4.10158 19.6471 -0.00717182 0.00219939 0.0214747
200 17 11 15.3867 1.58985 16.7196 -0.0887783 -0.000739217 -0.0196793
199 17 11 15.2971 3.14325 15.8893 0.0526761 -0.0295963 -0.125568
753 72 26 16.5778 0.370816 18.3567 0.00694499 0.0122319 0.00981583
197 17 1 15.1315 2.91294 16.8934 -0.00382024 0.00237326 0.0182231
745 71 26 19.1356 3.21852 17.817 0.00189066 0.0174807 0.0116079
672 59 20 2.2226 6.64463 0.451814 -0.0133046 0.0285984 0.00566411
671 59 9 2.67569 7.63066 19.9949 0.0188513 -0.0176606 -0.00350856
673 59 19 3.55653 7.95042 19.1704 -0.0206735 0.00759094 0.00307833
676 59 2 4.55002 7.46942 19.9683 -0.00536003 0.0130806 0.0290059
678 59 11 5.21168 7.90787 19.2553 0.0285488 0.00902748 0.0423722
275 23 11 1.95949 6.24437 16.9441 0.0193186 0.0506948 0.0362699
270 23 1 2.27044 5.91916 16.1182 -0.0594889 0.0185178 0.00170318
274 23 11 1.54496 6.06361 15.5642 0.0142816 -0.0602046 -0.0277229
268 23 19 3.32927 6.38324 15.3413 -0.00377808 -0.0200176 0.0146293
265 23 9 3.62544 7.56092 16.1305 -0.00840143 -0.00205317 0.00297208
266 23 20 3.99816 8.69948 15.6902 0.0151793 0.014358 -0.00737373
768 74 26 1.81907 9.45021 17.4552 -0.0173099 -0.0244412 0.0300186
766 74 26 0.324455 9.24632 16.0387 -0.00804789 0.0344354 0.00642145
267 23 19 5.00141 6.85149 16.4591 0.00583265 -0.0234251 0.000274271
746 71 26 0.211086 5.38738 18.2793 -0.0042234 0.00194341 0.00480572
649 56 11 6.24396 5.91004 18.8708 0.0441705 0.0241527 -0.0510275
713 63 19 9.7721 7.08976 19.5214 0.0128523 0.00233312 -0.00753501
716 63 2 8.91921 8.05904 18.9949 -0.0233272 0.015513 0.00961482
717 63 11 8.14078 7.85954 19.5288 -0.0477208 -0.0104806 0.0103407
677 59 11 5.01648 6.801 0.384853 -0.0525072 -0.0625153 0.0806311
269 23 1 6.28531 6.96187 16.1797 0.00932133 -0.00194684 0.0139942
271 23 11 6.99183 6.81436 15.271 0.173411 -0.0432578 -0.0294901
272 23 11 6.61517 6.57526 17.0815 0.00880619 0.041775 -0.00290173
273 23 11 6.43366 7.99964 16.0462 -0.00917958 -0.0505943 -0.0145427
714 63 19 9.5194 6.62582 17.2814 -0.0122453 -0.0123015 0.0408557
715 63 2 8.8097 7.65352 17.5079 0.0116875 -0.037969 -0.0256115
720 63 11 8.29584 7.48797 17.029 -0.0751086 -0.0962738 0.0625979
719 63 11 8.76574 8.54453 17.4129 0.00195549 -0.00307317 -0.0265165
711 63 9 10.4543 6.33855 18.5711 0.00807272 -0.0264427 0.00291575
386 33 20 6.75704 9.77641 18.6615 -0.00285298 -0.0158206 -0.000404079
599 51 11 15.928 7.48704 18.0682 0.0167603 0.0915623 -0.00250533
712 63 20 10.6228 5.18074 19.0647 0.018111 -0.00210018 -0.0129315
202 17 11 12.5884 7.17281 16.0214 -0.0353154 -0.00343633 -0.00794228
204 17 11 13.8809 6.55123 16.9102 0.0302167 -0.0793362 -0.088077
203 17 11 12.1071 6.14062 16.9457 -0.0776549 0.0300348 0.0381256
198 17 1 12.9906 6.44283 16.4787 0.00717615 0.00588702 -0.0165792
598 51 11 12.9949 7.66823 19.8738 0.0872956 0.117692 -0.0676099
596 51 2 14.0385 7.48303 19.609 0.0162392 0.0110886 0.00512476
22 2 11 15.1991 9.83261 15.7545 -0.0633952 0.020627 0.0296414
741 70 26 12.8979 9.68195 17.6303 -0.0263307 -0.0010783 -0.00319921
591 51 9 15.9382 6.73453 0.0139732 -0.0347693 0.024734 -0.0301551
432 36 11 16.623 6.48804 14.8719 -0.0771957 -0.0367099 0.0242174
594 51 19 16.4676 7.41936 19.5553 0.00154233 -0.00581644 0.0159323
595 51 2 15.2526 7.91724 18.6896 -0.0171661 0.0248542 -0.0189886
600 51 11 15.2215 8.86084 19.3314 -0.0206717 0.0234118 -0.00630188
24 2 11 15.1148 10.4411 17.4978 -0.0359001 -0.135831 0.0565821
324 27 11 1.43801 13.7177 15.3509 0.00905594 -0.0424164 0.0213588
770 74 26 1.958 10.3951 16.0009 -0.0244401 0.00666871 -0.000115716
395 33 11 3.72508 12.1905 18.9828 0.00992946 -0.0114789 0.0352351
396 33 11 3.97906 11.0418 18.0577 0.0295482 -0.0523222 0.0130244
765 74 26 1.48517 11.7379 17.7156 -0.0129699 0.00413301 0.00517295
764 74 27 0.90541 10.4922 16.8409 0.000620618 0.00370342 -0.00332115
390 33 1 4.51179 11.7901 18.6115 0.0113714 0.00329442 -0.00369413
663 58 19 4.88576 14.6367 19.7986 0.00398325 -0.00372342 -0.00491163
394 33 11 4.96764 11.7462 17.425 -0.0215305 0.00995962 0.0526932
769 74 26 19.6782 10.9021 17.7132 -0.0399183 -0.0275842 0.000901306
767 74 26 19.9655 11.6806 16.6304 0.0150264 -0.0147938 0.0188492
99 9 19 1.55176 14.3919 19.4408 0.0178255 -0.0161649 -0.00714481
455 38 11 7.53548 11.9158 16.0279 0.0248204 -0.0350599 0.0278249
388 33 19 5.26086 11.1386 19.6338 -0.00562617 0.0118584 0.0130843
448 38 19 8.13087 13.7945 15.9839 0.002043 0.0242973 0.00755936
385 33 9 6.45288 10.8787 19.1769 0.0129957 0.0115697 0.00557169
387 33 19 7.72435 11.3531 19.4347 0.00206554 0.000766145 0.000988737
389 33 1 8.34095 12.298 18.5578 0.0101933 -0.00202715 0.0175434
391 33 11 9.26791 12.9189 19.1022 -0.0467328 0.0942546 -0.0107556
392 33 11 7.68685 13.2672 18.1984 0.0294184 0.00537265 0.0985371
393 33 11 8.96604 11.8652 17.7386 0.0267877 0.129104 -0.00932196
80 7 11 12.7938 14.569 17.5155 0.0456681 -0.00474771 -0.0445467
344 29 11 10.5483 10.1835 14.0683 0.0133646 0.0349355 -0.0284885
738 70 26 11.1557 10.9952 18.6448 0.0284204 -0.00427323 -0.00427343
739 70 26 10.9863 10.3856 16.6429 -0.0110167 0.00350398 -0.00203577
742 70 26 11.2242 12.4236 17.5187 -0.00298545 -0.0189665 -0.00615051
736 70 27 12.0214 11.0556 17.5704 0.00927988 0.00827485 0.0279987
740 70 26 13.1347 11.2917 18.3082 0.0118373 0.0144942 0.00543297
737 70 26 12.2605 10.9435 16.0396 0.0325642 0.0176528 -0.0272051
20 2 11 14.7986 13.6276 17.6434 -0.0186619 0.0713397 0.0457319
77 7 1 11.7761 14.9475 17.9325 0.00436686 0.0119024 -0.00552219
81 7 11 11.359 15.9666 17.8296 -0.144166 0.0519101 0.0760872
69 6 11 0.127923 13.0247 0.135391 0.00911335 0.0458819 0.0428902
108 9 11 18.0777 13.4003 18.8647 -0.00175595 -0.0194875 0.0237085
23 2 11 16.5344 9.76606 16.3163 -0.0217036 0.000905705 0.0849585
18 2 1 15.6158 10.3133 16.4515 0.00638598 0.00278926 -0.00860314
13 2 9 15.9493 12.5918 16.2458 -0.0179462 -0.019587 0.0148055
16 2 19 15.3283 11.6073 15.8969 0.00995801 -0.00258478 -0.00170142
15 2 19 16.2961 12.5661 17.6181 0.00187913 -0.018397 -0.000755976
17 2 1 15.4588 13.0453 18.2909 -0.0115365 -0.0128773 0.022365
19 2 11 14.7866 12.4289 18.6972 -0.0774685 0.0571632 -0.0154737
14 2 20 16.7503 13.1653 15.3149 0.00352133 0.0131331 -0.0136271
107 9 11 17.8613 14.7677 17.618 -0.0435118 0.0948916 -0.0962935
102 9 1 18.2969 14.4292 18.6038 -0.00217861 -0.00960859 0.00311102
100 9 19 19.5327 14.4024 17.8484 -0.0231628 0.0046138 -0.000993934
143 12 11 2.90622 0.0112144 0.770697 0.034433 -0.000781481 0.00757202
400 34 19 0.288133 17.6737 16.1846 -0.000651618 0.00471596 -0.0114211
320 27 11 5.24108 14.9219 14.2613 -0.0226693 -0.0791308 -0.0777294
142 12 11 4.13955 0.445375 19.5627 0.0303938 -0.0871663 0.0579536
668 58 11 4.22496 14.1868 19.5176 0.0113234 0.044905 -0.0317938
666 58 2 4.27563 14.6976 18.5537 -0.00493039 -0.0164387 -0.00533778
398 34 20 1.73741 15.9982 15.4197 0.018526 -0.00754752 -0.0159066
397 34 9 1.57511 17.1731 15.6254 -0.00316914 0.0208947 0.0240373
399 34 19 2.58772 17.8581 16.2172 -0.00545517 -0.0256973 0.00300273
401 34 1 3.12588 17.9282 17.5567 -0.00314698 -0.00298989 0.00801979
405 34 11 4.13193 18.4104 17.8027 -0.0461477 -0.105188 -0.087526
403 34 11 2.44764 18.3972 18.1859 -0.000108859 -0.0706792 0.0852019
667 58 11 4.12412 15.5333 19.2244 0.0173908 0.0383899 -0.0628225
404 34 11 3.11811 17.0845 18.1528 -0.0531618 0.0564929 -0.0329899
670 58 11 5.08163 16.2856 17.7018 0.00272857 -0.0500437 0.0295689
406 34 11 19.3877 19.4791 15.0597 0.072636 -0.00430403 0.0673534
97 9 9 0.709045 14.9575 18.4589 0.0158287 0.000341752 0.0100174
98 9 20 0.433864 16.2247 18.6345 -0.0010875 0.00943812 0.0179662
236 20 11 7.72566 17.4536 19.7286 0.0193032 -0.0719864 0.0012274
411 35 19 5.36976 19.8565 14.8239 0.028427 -0.00536728 0.0112925
446 38 20 7.39971 15.8359 15.5318 0.00722387 0.0139809 0.0254012
669 58 11 5.63378 14.7507 16.5761 0.00277543 0.0200372 -0.0398439
661 58 9 6.38651 14.9765 19.6422 0.0193153 -0.0104245 -0.00842062
664 58 19 6.61787 15.2399 18.3021 -0.00192111 -0.031789 -0.00881267
665 58 2 5.31714 15.1905 17.6849 0.0289513 -0.030446 0.0166972
467 39 11 7.065 19.5056 16.4152 0.0184176 -0.0535921 0.0152135
458 39 20 9.06884 16.5716 17.3336 -0.0146191 0.00881986 0.0118488
237 20 11 8.09991 18.7329 19.3393 0.12993 0.0919615 0.0512396
235 20 11 8.06224 18.4281 0.767775 0.00743528 -0.0167348 0.0264518
233 20 1 7.48745 18.4217 19.919 0.030314 0.0184019 -0.00900216
460 39 19 8.86317 18.4116 15.7089 -0.00376935 -0.0116576 -0.00970352
462 39 1 8.15226 19.5077 16.3846 -0.0198772 -0.00640403 -0.00770307
457 39 9 9.43669 17.6709 16.7771 0.0137133 0.00444851 -0.00463556
75 7 19 12.3512 15.4381 19.1047 0.0120997 0.00201817 -0.00814304
752 72 26 14.5086 19.7185 18.8107 -0.000852315 -0.00587779 -0.0180768
79 7 11 10.9803 14.3381 17.8634 0.0177639 -0.0533705 -0.058097
459 39 19 10.7409 18.0936 16.8898 0.010504 0.00951024 -0.00384919
465 39 11 11.1802 19.1313 18.5605 -0.0707819 0.0138728 -0.00410898
254 22 20 14.0742 15.1469 16.1495 -0.0177688 -0.0132423 -0.00523187
464 39 11 12.2441 17.9025 17.8912 -0.00152539 -0.0359987 -0.0406915
461 39 1 11.1224 18.1939 18.2843 -0.0100196 -0.0106788 0.0396907
463 39 11 11.0053 17.5798 19.071 -0.0619376 0.11298 0.0400394
754 72 26 15.1251 17.6553 18.819 -0.00406451 -0.00761473 -0.00991738
402 34 1 19.9174 18.4673 15.2801 -0.0191509 -0.0104198 -0.0220894
261 22 11 18.0569 16.6097 17.157 -0.038698 0.0611984 -0.0196555
259 22 11 17.9025 16.3052 15.4671 -0.068644 -0.0264823 -0.0760319
21 2 11 16.0452 13.6262 18.8701 -0.00463823 0.00674463 -0.0397284
407 34 11 19.437 17.4967 14.6628 0.0297626 0.0370839 0.0602511
253 22 9 15.0601 15.8175 15.7421 -0.0207605 -0.00505832 0.00484597
255 22 19 16.1822 16.18 16.5955 0.00260448 -0.0104731 -0.0092994
257 22 1 17.3506 16.6849 16.2439 0.0127237 -0.0106967 0.00249523
260 22 11 17.1694 17.6119 16.0173 0.0408508 0.0235976 -0.0693563
750 72 27 15.7617 18.9977 18.638 0.00826727 -0.012053 -0.00347719
106 9 11 18.0933 14.9812 19.1459 -0.0107313 -0.127028 0.0363128
756 72 26 15.5436 18.9293 17.1024 0.000368418 0.00108404 -0.00601106
751 72 26 16.9977 18.4111 18.44 0.00441047 -0.0105618 -0.00428216
ITEM: TIMESTEP
1650
ITEM: NUMBER OF ATOMS
770
ITEM: BOX BOUNDS pp pp pp
0.0000000000000000e+00 2.0000000000000000e+01
0.0000000000000000e+00 2.0000000000000000e+01
0.0000000000000000e+00 2.0000000000000000e+01
ITEM: ATOMS id mol type x y z vx vy vz
136 12 19 3.81279 1.98428 1.07798 -0.00373961 0.016227 -0.0195816
59 5 11 2.54953 19.1035 4.51355 -0.0185307 0.0162066 0.011612
52 5 19 2.02887 1.32422 3.87258 -0.000782618 0.00989551 -0.000365251
49 5 9 2.71542 2.68335 3.78807 0.00130375 -0.000133062 0.00322783
51 5 19 4.24087 2.78861 4.07028 7.39711e-05 -0.00426659 0.00104879
50 5 20 2.1611 3.33259 2.93869 -0.0125785 0.0219078 0.00694431
133 12 9 5.20731 1.99725 1.31245 0.00924256 -0.0124106 -0.00115285
135 12 19 5.87743 3.28171 1.05736 0.0126448 0.0239985 0.00195314
116 10 11 19.7943 0.996871 3.54565 0.0154261 -0.044814 -0.00108101
134 12 20 5.44507 1.1941 2.27558 0.0125663 0.0027443 0.0238501
508 43 19 7.70796 0.39816 2.93048 0.0126033 -0.00825317 0.000283695
505 43 9 8.47765 1.16985 4.03121 -0.0173865 -0.0099288 0.0160081
137 12 1 5.60388 4.0884 2.17162 -0.0134888 -0.0219533 -0.00436001
140 12 11 6.13214 4.8647 1.44028 0.0140263 0.00649977 -0.0250136
56 5 11 5.47359 2.66774 5.41254 -0.00577098 -0.011349 0.0142305
762 73 26 9.65277 2.53623 1.19841 0.00294565 -0.00506603 0.00557416
141 12 11 4.71895 4.59053 2.53828 -0.0726757 0.0361258 -0.02307
139 12 11 6.33041 4.05084 3.01895 -0.0347221 0.0320184 0.0607738
734 68 31 7.14955 3.63137 4.21176 0.0113375 -0.00609738 -0.00198761
759 73 26 8.08692 1.50803 0.132425 0.011751 -0.0054578 -0.00924266
761 73 26 9.6951 0.749608 0.675598 -0.000978332 -0.0299807 0.0323048
507 43 19 9.86541 1.99344 3.93101 0.00727369 -0.0100947 -0.00384424
132 11 11 11.2528 0.164208 3.39241 0.0163212 -0.0689682 -0.0866619
170 15 20 14.272 1.99548 0.814021 -0.00979964 0.00315553 0.00136696
169 15 9 14.857 2.8822 1.28488 0.0018516 0.0185517 -0.0140949
174 15 1 13.208 4.63877 2.13971 -0.0151167 0.0122396 0.00200058
172 15 19 14.4628 3.81623 2.06227 -0.0105844 0.0139428 -0.00416601
130 11 11 12.3974 -0.210062 2.33181 -0.120389 -0.027125 0.03852
124 11 19 12.8021 1.74121 3.05507 -0.0160744 -0.0205238 0.0212426
513 43 11 10.8918 3.30421 3.33635 0.021375 0.0799966 0.0407925
178 15 11 12.4735 3.81161 1.58753 0.0117412 0.0083807 0.0880593
126 11 1 12.1327 0.644521 3.281 0.0371829 0.00114724 0.00932556
121 11 9 13.8694 1.69383 4.0055 -0.00366612 0.000680922 -0.00617453
179 15 11 12.8102 5.07242 1.50695 0.032326 0.0581476 0.028244
131 11 11 12.4879 0.0142871 4.217 0.11658 0.00743399 0.0796751
180 15 11 12.5538 4.56503 3.13009 -0.00736629 0.0174778 0.011686
113 10 1 19.2988 1.5908 2.84249 -0.00312336 -0.012816 -0.0128669
115 10 11 18.383 0.84084 2.93914 0.0319739 -0.0515125 0.0444507
117 10 11 19.7879 1.40694 1.96627 -0.00491574 0.0118121 -0.0530478
175 15 11 17.0298 2.00613 1.21694 -0.000600607 -0.0510741 0.0093948
109 10 9 18.613 3.55313 4.3492 -0.0150143 0.0158976 0.013943
111 10 19 18.835 2.85173 3.16374 0.00365907 0.012864 -0.00931819
123 11 19 15.3247 1.26583 3.43752 -0.0266798 0.00522412 -0.0119487
128 11 11 15.6615 19.3697 2.64918 0.00257352 -0.0438323 -0.0881401
38 4 20 0.949364 8.88739 5.29434 0.000624651 -0.00503612 -0.00318307
674 59 19 3.22725 8.75294 1.50966 0.00125528 0.0205928 0.0145304
680 59 11 4.00775 9.48002 0.895588 0.0246529 -0.0556375 -0.00970162
675 59 2 4.68575 8.60173 1.1664 -0.00878257 -0.00596149 -0.0072686
37 4 9 1.81364 7.72289 5.24162 -0.00164556 0.00998016 -0.00313567
39 4 19 3.03574 8.0076 5.49621 0.00424383 0.0173365 -0.00233573
44 4 11 4.40325 9.53601 6.00513 -0.0398994 0.0507601 0.0625143
41 4 1 3.43004 9.3184 5.55188 0.00203442 0.0122274 0.0148392
333 28 11 19.6743 6.29004 3.0069 -0.0463646 0.116679 0.0782017
45 4 11 3.69434 9.90118 4.54112 -0.0794152 -0.092179 -0.0212501
679 59 11 4.85005 8.6017 2.28737 -0.00896611 -0.000651166 -0.0658192
205 18 9 9.06832 6.43183 2.83951 -0.00525766 -0.00940208 0.01192
206 18 20 8.16648 5.68916 2.75416 -0.0160959 0.00300974 0.0149127
210 18 1 9.16783 8.55578 2.34311 0.016405 -0.00731312 -0.00789598
215 18 11 8.10925 9.02413 2.03293 0.0267903 -0.0028542 0.00558857
208 18 19 8.77766 7.53546 3.24264 0.000907839 0.00401851 -0.00278756
216 18 11 9.98422 9.23264 2.78089 -0.00201294 0.094608 -0.0320366
214 18 11 9.82175 8.58963 1.4961 0.0261404 0.00120226 0.0574843
718 63 11 8.91539 8.89942 19.0031 -0.000605796 0.00195316 -0.0172441
491 41 11 6.00507 6.89911 5.67598 -0.0803342 0.059399 0.0653268
490 41 11 4.38386 6.00022 5.38113 0.00775954 -0.0368023 0.0946797
207 18 19 10.461 6.07707 2.79246 0.0108969 0.00843647 0.00751216
209 18 1 11.4226 7.02857 3.37646 -0.0208397 -0.00914599 -0.0126385
213 18 11 11.3995 7.94826 2.85965 -0.0401429 0.126088 -0.0407201
212 18 11 11.1199 7.29218 4.31322 -0.00788978 0.0536881 0.0393459
593 51 19 14.7091 6.61952 0.482529 0.00067819 -0.00151226 -0.0231418
211 18 11 12.1463 6.77946 4.20755 0.0570188 -0.115044 0.0326241
597 51 11 13.7521 7.41637 18.8381 0.131627 0.0273165 -0.000962196
335 28 11 15.3631 7.13596 4.14397 -0.0317382 0.0752216 0.0300263
336 28 11 14.6313 7.11413 3.69341 -0.0542054 -0.090382 -0.0511002
334 28 11 15.6726 6.34993 3.91927 -0.0308228 0.0484705 -0.0759943
592 51 20 16.875 5.78642 0.749627 -0.010675 0.0133651 -0.03411
332 28 11 17.9894 6.09448 3.01896 0.0349157 0.125283 0.0766716
331 28 11 19.1555 6.00206 1.30103 0.0163765 0.00802573 -0.0319182
329 28 1 18.8469 6.40606 2.48703 -0.00594901 0.0137228 0.000190158
328 28 19 16.1411 8.36902 2.71524 -0.0198173 -0.00361634 -0.023349
326 28 20 17.7358 7.44315 4.25348 0.00217593 -0.0025112 0.0108346
325 28 9 17.5068 7.97347 3.09207 0.0243508 0.0152488 -0.0362681
327 28 19 18.3599 7.71964 2.02012 0.0077414 -0.0227162 0.000130647
330 28 1 15.4819 7.09732 3.0188 -0.0125125 -0.00475801 0.0168423
733 67 31 19.5104 9.54146 1.64122 0.0467307 -0.0126981 -0.0178119
63 6 19 0.102057 11.5183 1.95644 0.00200957 -0.0170536 0.0139767
577 49 11 3.71344 10.9704 2.95611 -0.0153034 0.0689025 0.0189045
576 49 2 4.19131 11.6743 2.22199 0.0110692 0.03396 0.00752995
579 49 11 5.45298 13.9368 2.2784 0.0905363 0.0306181 0.0222426
61 6 9 19.4881 12.2542 2.86629 -0.0213189 -0.012382 0.00660126
580 49 11 4.75741 13.565 3.4392 0.0173493 0.0346937 0.0383184
578 49 11 3.05894 11.6346 1.97578 0.0651318 0.011735 0.0447373
573 49 19 4.97778 10.7618 2.89568 -0.0032466 -0.00358445 0.011815
575 49 2 4.89865 13.001 2.55659 0.00576173 0.0228947 -0.00836102
62 6 20 0.0990909 13.4177 3.29247 -0.00778891 -0.0129013 -0.0248916
572 49 20 6.72236 10.789 4.30569 0.00546208 0.00865349 0.014877
571 49 9 6.07693 11.3173 3.40336 -0.00789424 0.00452474 -0.0170271
574 49 19 5.8442 12.8757 3.55031 -0.00940046 -0.00322599 0.00312818
84 7 11 8.8219 13.238 1.07164 0.0326249 0.0854718 -0.0138597
78 7 1 9.85942 13.4592 1.22178 0.00627817 0.00306297 -0.00124806
83 7 11 9.94483 13.5091 2.17184 0.00549807 0.0638217 -0.015517
654 57 19 8.25759 15.152 4.29981 -0.0356999 0.0123891 -0.00628511
722 64 20 12.7205 9.61017 1.35944 -0.00288286 0.000501601 0.0429342
82 7 11 10.5292 12.6184 1.13426 0.00444856 -0.0180864 -0.0322707
727 64 11 12.2592 12.1392 4.65317 -0.0124176 0.0360611 0.05957
726 64 2 12.4705 12.0133 3.45092 -0.0353326 -0.0352274 0.0257291
723 64 19 11.868 10.9256 3.00936 -0.00723013 0.00708636 -0.0201428
721 64 9 12.7942 10.5435 1.76749 0.0353106 0.00706134 -0.0224473
728 64 11 12.1428 12.6582 2.87058 -0.0218991 -0.041459 -0.0214357
724 64 19 13.8838 10.4864 2.7872 0.0179756 0.014013 -0.00790946
725 64 2 13.9832 11.9795 3.27408 -0.00153146 -0.0275809 -0.0414562
76 7 19 10.2326 14.5744 0.584025 0.0044648 0.00341752 0.00616464
74 7 20 12.2766 14.3672 1.50431 0.0117926 -0.0220225 -0.00109732
659 57 11 9.48374 14.1582 5.59563 -0.0573501 -0.0395922 0.104757
655 57 2 9.53527 14.906 4.80272 -0.0147806 0.000411484 0.0106544
660 57 11 10.3493 14.658 3.89356 0.0230838 -0.00969174 -0.0659685
639 55 11 14.6768 16.9785 5.39008 -0.0120409 0.0162215 -0.00106251
68 6 11 0.860647 11.8613 20.0995 0.0714093 -0.0073437 0.0597159
65 6 1 19.8483 11.9334 0.560482 0.00239053 -0.00730916 0.0126773
67 6 11 19.1935 11.2071 0.16151 -0.0031348 0.0026348 -0.0422208
729 64 11 14.6069 12.0989 2.23377 -0.143806 -0.120369 0.119176
383 32 11 18.1375 14.4522 1.80954 0.00415357 -0.112905 -0.0551454
382 32 11 17.4057 13.5006 2.3925 0.0172579 0.0139857 -0.0174979
378 32 1 17.1481 14.7242 2.28117 0.025285 0.009103 0.00623493
384 32 11 16.3462 14.9414 1.81736 0.0444707 0.0535015 -0.0918325
70 6 11 0.386144 10.7414 4.56782 0.0130978 -0.0822744 0.0759281
64 6 19 19.0847 11.4528 3.65354 -0.00247495 -0.01469 0.018765
66 6 1 19.4502 11.3075 5.05124 0.00166674 -0.00207212 -0.00515434
54 5 1 2.73838 0.154477 4.01869 -0.0171044 0.001773 0.00899017
104 9 11 2.15423 14.5164 1.28889 0.0627346 -0.10102 0.0137233
240 20 11 2.92519 17.3791 2.62867 -0.0168206 0.0352201 0.0323244
239 20 11 4.70303 17.1538 3.0481 0.0790651 -0.058511 0.0303662
238 20 11 3.91601 15.6827 2.29627 0.0276987 0.033782 0.03534
234 20 1 3.88574 16.799 2.20859 0.0310758 -0.0167337 0.0166746
232 20 19 4.34689 17.4494 1.03103 0.0191629 0.00471214 -0.0238662
105 9 11 1.34107 15.8052 0.967741 0.0790006 0.0263007 -0.0373787
103 9 11 2.64443 15.8849 0.0183729 -0.0230548 -0.0554775 0.0119067
380 32 11 19.7854 16.3437 3.26029 -0.0579973 0.00141999 -0.0109126
377 32 1 19.4282 17.4909 3.1715 -0.001658 0.00289515 -0.0031234
379 32 11 19.6844 17.8435 4.20134 0.029537 0.024952 0.0104341
60 5 11 3.10125 0.215655 2.92366 -0.0778188 0.0137196 -0.0172265
58 5 11 3.44348 0.578255 4.82128 -0.0250655 -0.0656752 -0.0136298
242 21 20 2.62064 16.006 4.59306 -0.00730861 -0.0194565 -0.00175477
101 9 1 1.85674 15.1242 0.414253 0.00845503 -0.0048159 0.00721583
516 43 11 7.22553 18.4773 2.90278 -0.00931907 0.025048 0.0435336
652 57 20 6.54265 16.4079 5.24207 0.000851672 -0.00396617 -0.00909131
515 43 11 5.83807 19.007 4.06002 0.0260592 -0.0468783 0.013994
230 20 20 6.53557 16.9602 1.70423 -0.00976782 -0.0134829 0.00417588
229 20 9 5.80882 17.6505 0.811097 0.0269969 -0.0204214 -0.00994018
514 43 11 7.84576 18.8806 4.38004 0.0242955 -0.0138205 0.117834
510 43 1 6.87374 19.3648 3.75952 -0.000737536 -0.0205685 -0.0259093
191 16 11 9.40379 17.3907 2.29075 -0.0166421 -0.0891528 -0.010333
662 58 20 7.31955 14.5031 0.393199 0.00107028 -0.0146947 0.00765206
231 20 19 6.55526 18.5104 19.9086 -0.00127847 -0.0132576 0.000535056
73 7 9 11.4903 14.577 0.448772 0.00558127 -0.0232797 0.00248874
182 16 20 12.5135 17.3151 4.2157 0.00406622 -0.0235359 0.00203073
186 16 1 10.2242 17.8062 1.86656 -0.0126335 0.0171384 -0.0129569
192 16 11 9.75425 17.0963 1.22337 -0.0664094 0.0433994 0.000339695
190 16 11 10.4928 18.913 1.40569 -0.0871529 0.0174067 0.0727269
184 16 19 11.1097 16.6032 2.30572 0.00471657 -0.0203329 0.0133019
181 16 9 12.5194 16.9743 2.98544 -0.00116479 0.00900349 -0.0224831
183 16 19 13.3918 17.3831 1.90884 0.0149169 -5.32983e-05 -0.0069696
185 16 1 14.0714 16.2609 1.84352 -0.0114101 -0.0150287 0.00432612
187 16 11 14.4825 16.0938 0.891165 0.0292863 0.0184564 0.0489293
188 16 11 14.5176 15.9947 2.83659 -0.0023749 -0.000773983 -0.0201765
640 55 11 13.8331 15.2348 4.82954 -0.0925746 0.0417463 -0.0393971
376 32 19 17.2175 15.2601 3.31873 -0.0246371 -0.0408188 -0.0147199
189 16 11 14.3329 15.5379 1.48333 -0.026083 -0.055702 0.0167353
755 72 26 16.1774 18.9358 -0.0022838 0.00362357 -0.00974727 -0.001912
373 32 9 17.56 16.8223 3.18293 0.0105475 0.0207734 0.0107104
375 32 19 18.2214 17.581 2.35679 0.0032232 -0.00172905 0.00462932
125 11 1 15.5336 19.7836 3.66031 -0.00928649 -0.00440954 -0.00882343
127 11 11 14.816 19.5681 4.4946 0.0166697 0.0301148 0.0169748
381 32 11 -0.171612 18.1058 2.2328 -0.0717879 0.0326874 -0.0332991
129 11 11 16.352 19.3651 3.90227 -0.0438419 0.0298315 0.00726145
374 32 20 17.0786 17.3233 4.11239 -0.0126247 0.0282274 0.0124267
57 5 11 3.92505 3.55823 5.63781 -0.00738319 -0.154889 0.00300356
691 61 9 2.14362 2.38217 7.36906 -0.00130623 -0.00676775 0.0136449
693 61 19 1.1427 3.2218 7.09353 -0.00256904 -0.00555198 0.0029391
692 61 20 2.05222 1.13327 7.54136 -0.00471126 0.00478965 -0.00602444
694 61 19 3.34555 3.18909 7.89333 0.00520099 -0.00942167 -0.00229392
698 61 11 0.430539 3.85726 7.0958 0.0268428 0.0405573 -0.0112515
696 61 2 1.32405 4.3948 7.76583 -0.000717351 0.00134995 0.00130218
695 61 2 2.92195 4.45177 7.54697 0.00601673 0.00770672 -0.00934331
53 5 1 4.47424 2.73826 5.32812 0.00925498 0.0137997 0.000986424
699 61 11 3.26117 4.86803 6.54356 -0.0022145 0.0549928 -0.0679441
506 43 20 7.70355 1.73221 5.10891 0.00691986 0.00550139 -0.0203061
511 43 11 10.6016 4.01549 4.70772 0.0165021 0.0948168 0.0554209
512 43 11 9.04789 3.81458 3.40971 -0.0176711 0.0054771 -0.00427572
55 5 11 4.26246 1.95635 6.05613 0.0278558 0.0403679 0.0244852
86 8 20 5.97431 1.90112 7.79331 -0.000121241 -0.00152203 -0.0100059
85 8 9 5.89381 0.807861 8.33227 0.00531059 -0.00707321 -0.0066917
87 8 19 6.46647 0.860419 9.77574 0.00984466 0.00112426 -0.000400744
481 41 9 7.5525 5.26948 6.38942 0.0341243 0.0156286 0.0166858
482 41 20 7.61711 4.11917 6.22604 0.00363701 0.0230583 0.00656647
483 41 19 8.30414 6.40559 5.89549 0.00904664 0.0201647 -0.00013899
91 8 11 8.00723 19.5739 10.7058 -0.00256521 -0.0112146 0.0621605
509 43 1 10.0104 3.26781 4.01751 0.00947184 0.0133321 0.023521
122 11 20 13.7699 1.90365 5.16358 0.00609431 -0.017586 -0.0205683
556 47 2 11.1769 1.18491 7.90022 -0.00907021 -0.0256864 0.00131457
553 47 19 10.9814 0.816459 6.55591 0.00776393 -0.0107861 -0.0232478
558 47 11 10.6249 2.08851 7.76482 -0.0579586 -0.0671115 -0.151869
557 47 11 12.2684 1.41821 8.07259 0.000772416 -0.0106275 -0.0844502
364 31 19 14.1461 4.55698 7.88676 0.0201053 0.00825889 0.00147034
361 31 9 12.9823 5.24926 7.52129 -0.0138506 -0.00229523 -0.00554181
362 31 20 12.0633 4.63531 7.43058 -0.0134683 0.00889605 0.00456905
370 31 11 15.2622 2.98078 7.72441 -0.00839663 0.0611667 -0.045291
570 48 11 11.4574 5.49674 10.7812 -0.0455156 0.0297468 -0.0161233
565 48 2 10.8792 4.81006 10.1455 -0.0317531 0.0149731 0.0415221
560 47 11 11.0501 19.4698 8.91401 -0.0373971 0.00866706 0.0335601
282 24 1 14.7344 19.0129 7.29043 -0.0185112 -0.0183626 -0.00800796
551 47 9 10.7108 19.3398 6.13719 -8.68542e-06 -0.00906273 0.0216513
286 24 11 14.0344 18.221 7.71315 -0.016516 0.039993 0.0874403
569 48 11 11.0652 5.35855 9.13984 0.00882901 0.0311411 0.0656007
119 10 11 15.9688 4.53823 4.5493 -0.0819078 -0.0418673 -0.00496603
118 10 11 16.6011 3.16435 5.3571 -0.0943942 -0.000130643 0.141233
114 10 1 16.6607 4.17839 5.23175 -0.0131654 0.0242984 -0.00695162
112 10 19 17.8653 4.72801 4.66254 -0.0113369 0.0243549 -0.0108517
120 10 11 16.1904 5.05635 5.65569 0.043831 -0.00690629 -0.0426913
110 10 20 19.7783 3.71369 4.9905 0.00565834 0.000701082 -0.019808
301 26 9 0.289882 1.11709 9.78044 0.00889419 0.0120422 0.00765699
372 31 11 13.707 2.34739 7.45284 0.018839 0.0380538 -0.0560729
366 31 1 14.3056 3.11025 8.03274 -0.0349471 -0.00759682 0.00812366
371 31 11 14.3695 2.34828 8.92336 0.13499 0.0131813 0.00125085
280 24 19 15.6597 19.4644 8.36496 0.0236332 0.0169945 -0.00405989
277 24 9 16.5811 0.419112 7.92788 0.00245771 -0.00743071 -0.00898261
279 24 19 16.9915 0.130776 6.73086 0.000717633 -0.00218029 0.00643753
285 24 11 18.3802 1.74713 6.7966 -0.0569575 -0.0463582 -0.0259623
278 24 20 16.7558 1.55269 8.38015 -0.0213774 -0.00735244 0.00365198
310 26 11 19.1377 4.03277 9.81739 -0.0178637 0.0207464 0.0444847
304 26 19 0.0493935 2.45011 9.68651 -0.00546303 0.0125941 0.0145346
312 26 11 18.448 3.11576 8.42182 -0.067071 0.0618023 -0.0175677
306 26 1 18.7833 3.02574 9.48339 0.00206275 -0.00324327 0.00613569
43 4 11 2.71268 9.69574 6.30585 0.0928885 0.0805396 -0.00446595
700 61 11 3.54285 4.68083 8.41823 -0.0114557 0.0113933 0.0413897
697 61 11 1.01162 3.88495 8.59065 0.0135349 0.0625729 0.0191609
354 30 1 2.40795 9.23461 9.5544 0.00733572 -0.0118037 0.0123015
492 41 11 4.42445 6.59801 6.84754 0.0473457 0.0155624 -0.0498103
357 30 11 6.53061 6.9517 8.92831 -0.0206401 0.0816875 0.0376037
40 4 19 0.981066 6.69318 5.82526 -0.00201518 0.00439695 0.0149907
358 30 11 1.84196 8.20711 9.79455 0.00472444 0.00339404 -0.0623645
356 30 11 6.02963 6.72549 10.1963 -0.0407496 -0.101515 -0.0883642
355 30 11 4.34085 6.37904 9.22215 0.0951014 -0.0584711 -0.0676671
484 41 19 6.25603 5.77965 7.13985 -0.00136369 0.00665541 -0.0120463
486 41 1 5.19951 6.31605 6.25185 0.00482447 0.0130298 -0.00419755
485 41 1 8.83659 6.76963 7.20365 -0.0143601 -0.00457525 -0.000101247
353 30 1 5.36548 6.91069 9.46483 0.0100172 -0.0189797 0.0307717
487 41 11 9.85545 6.52148 7.16278 -0.00334507 0.0266836 -0.0556108
489 41 11 9.50735 7.55354 6.3023 -0.0157984 -0.050948 -0.023987
488 41 11 8.6325 7.6729 7.72997 0.0176533 -0.00866024 0.0347199
479 40 11 7.42434 9.84038 6.89615 0.0436056 0.0171871 -0.015905
472 40 19 9.16261 9.79113 8.1659 0.00103627 -0.000761897 0.00502546
568 48 11 9.78731 6.52305 9.82955 -0.078274 0.00432366 -0.0617862
363 31 19 13.0961 6.08109 6.68522 0.0127577 0.0110182 -0.0107225
473 40 1 12.7377 10.1169 7.82253 0.0112941 -0.00229082 0.0122925
476 40 11 13.3566 10.1548 7.0187 -0.026136 0.0331803 0.0867013
475 40 11 12.5186 8.86694 7.59754 -0.0301951 0.061958 0.0196651
365 31 1 14.1232 6.74126 6.56275 -0.0416624 -0.0177038 0.00102607
368 31 11 14.0657 7.35812 5.64844 0.000315448 0.129198 0.0200128
369 31 11 13.9856 7.61609 7.1431 0.0884629 0.00921994 0.0143458
367 31 11 15.1829 6.35408 6.82662 -0.0863991 -0.0588326 -0.00114407
548 46 11 14.8613 7.54591 10.6173 0.0362351 0.0298608 0.0316636
547 46 11 14.0367 5.62281 10.4732 -0.0622283 -0.048244 0.0210114
546 46 2 14.8961 6.47651 10.1163 -0.00576901 0.00359643 0.0161903
609 52 11 10.8573 8.20393 10.0495 -0.0523032 -0.0769366 -0.0697108
542 46 20 17.2547 6.49112 7.71708 0.0154491 0.00052137 -0.00362584
46 4 11 1.88547 7.00523 7.80756 0.0387375 0.0542772 0.0539107
48 4 11 0.27891 8.01181 7.45905 -0.0120163 -0.0113796 -0.0182874
42 4 1 1.03244 7.11701 7.20334 0.00306522 -0.0124402 -0.00576351
543 46 19 15.3453 7.19928 8.95222 -0.00276432 -0.00202256 -0.0234101
47 4 11 0.21698 6.5678 7.81845 0.00368419 0.00188054 -0.0309193
541 46 9 16.7134 6.64465 8.72533 0.017178 -0.000439236 -0.00454568
6 1 1 16.7122 10.1983 7.16912 0.0133025 0.0024256 -0.011909
12 1 11 16.0539 9.51186 6.75981 0.0468863 -0.00886865 0.0452398
1 1 9 18.962 10.2675 8.60833 0.000298753 0.0285843 0.0193092
2 1 20 19.341 8.8928 9.09024 0.00456441 -0.00816707 -0.0122626
11 1 11 16.0736 10.1336 8.25357 -0.0130702 -0.0168346 0.0122989
248 21 11 2.73611 13.6776 6.07613 -0.0428421 -0.0393889 -0.0190789
360 30 11 2.4505 9.19856 8.4438 -0.00108722 0.00885108 0.00519543
245 21 1 1.69682 14.0688 6.1964 0.00980155 0.000703289 -0.00236148
247 21 11 0.742314 13.9061 6.49981 -0.0262089 -0.0228333 -0.0618731
612 53 20 3.92324 11.4 7.80461 -0.00533282 0.0058231 -0.00448042
249 21 11 1.16533 14.4534 5.51075 0.0410645 0.00836808 -0.0201668
613 53 19 4.34575 13.4449 8.0262 -0.0182494 -0.00467495 0.00383633
582 50 20 0.798638 14.042 8.77546 0.00490818 -0.0217156 0.00445232
581 50 9 1.03558 13.7781 9.91888 0.0285886 0.0177859 0.0124698
584 50 19 1.97569 12.6873 10.1679 -0.00155817 0.00661678 -0.00781091
616 53 2 5.344 14.2814 7.63993 0.00672163 -0.0176063 -0.00137935
478 40 11 7.92383 11.465 7.73334 -0.119681 -0.100465 0.00820123
474 40 1 7.83077 10.4767 7.6879 -0.0155195 0.00115417 -0.00731228
480 40 11 7.62366 9.93939 8.67773 -0.18084 -0.00430158 -0.0478992
611 53 9 4.61556 12.2218 7.22639 0.0101168 -0.007132 0.00218084
615 53 2 6.23279 13.6303 6.46492 0.0009297 -0.0116833 0.000298927
614 53 19 5.77013 12.1121 6.5129 -0.0066321 0.00932526 0.00954627
620 53 11 7.23033 13.6398 6.64895 0.0357066 0.0135519 0.0472292
619 53 11 6.26792 14.1575 5.3485 0.0300834 -0.00582522 -0.0820472
730 64 11 14.3759 11.1584 4.01611 -0.0216411 -0.0447464 -0.124328
469 40 9 10.2763 10.1656 7.36506 0.00598032 0.0250075 -0.00564239
471 40 19 11.4603 10.7364 8.06863 0.00914141 0.00138299 0.00808799
477 40 11 12.882 10.54 8.75411 0.0241647 0.0338627 0.00307442
470 40 20 10.2934 10.8034 6.21994 -0.00466322 -0.0105819 -0.012575
631 55 9 14.1154 14.175 7.0478 0.0277917 -6.8103e-05 0.00791423
634 55 19 14.5021 14.5962 5.77901 0.0115741 -0.00115279 0.000804188
632 55 20 13.8958 13.0336 7.51491 -0.00498978 0.0119487 -0.00874184
633 55 19 13.5273 15.2581 7.89566 -0.00624668 0.0121492 0.00298622
152 13 11 11.9444 13.9994 9.90973 -0.0419067 0.0664249 0.0450582
4 1 19 18.2367 10.1873 7.31402 -0.0105612 -0.00330972 -0.0084696
10 1 11 16.2846 11.1892 7.32823 0.0148916 0.0487423 -0.0014983
71 6 11 18.5941 12.0399 5.55498 -0.112273 0.15266 0.0286748
72 6 11 19.2959 10.2003 5.59268 -0.0529184 -0.0544899 0.000142873
3 1 19 18.6812 11.2004 9.8303 -0.00247375 0.020211 -0.00293958
8 1 11 17.5523 13.0434 9.49992 0.0781836 -0.211948 0.0533504
682 60 20 18.2626 14.5478 6.38248 0.00219136 -0.00843258 -0.0123887
243 21 19 1.92027 15.2622 6.66883 -0.00267155 -0.000181532 0.0109676
241 21 9 2.24975 16.1647 5.72546 0.00105349 0.0141996 -0.0090282
244 21 19 1.94455 17.2289 5.84664 0.0146308 0.0109732 0.00891796
251 21 11 0.677354 18.3285 7.47354 -0.108866 -0.0408191 0.0525813
246 21 1 1.83896 17.9111 7.24817 -0.00231503 0.0124025 -0.000623564
252 21 11 2.39016 18.6627 6.61649 -0.0243512 -0.0405707 -0.0241073
250 21 11 2.28738 17.4541 8.20076 -0.0348689 0.0361974 -0.00205906
524 44 11 1.73075 17.1625 10.1451 0.0201398 0.0889491 -0.0203232
88 8 19 5.54635 19.6233 7.86763 0.00104354 0.00156279 -0.0198375
523 44 11 0.20762 17.2401 9.66791 0.0121398 0.0329945 0.0769611
521 44 1 0.614627 17.318 10.5157 0.00564772 0.0214178 -0.00547071
651 57 9 7.68641 16.3114 5.1855 0.0135169 -0.0135166 -0.00808757
653 57 19 8.69231 16.5861 6.03825 0.0207465 -0.00189894 -0.00537765
94 8 11 5.59287 20.0364 5.89628 -0.010739 0.0941652 0.0523103
617 53 11 5.36403 13.7399 8.70785 0.0398181 -0.014381 -0.0170478
656 57 2 9.90864 16.0001 5.6056 -0.00893955 0.00627715 0.0188624
95 8 11 6.90438 19.3928 6.12526 0.0275905 -0.0123193 0.065351
96 8 11 5.49393 18.4114 6.10693 0.00849163 -0.0120174 0.00668133
90 8 1 5.9446 19.3387 6.57548 -0.00235324 -0.00741434 0.0113845
618 53 11 5.95361 15.2154 7.71638 0.0432587 -0.0683193 -0.135219
503 42 11 6.7274 17.3379 7.54322 -0.0425269 -0.0529563 0.0593039
498 42 1 7.41977 17.0166 8.5029 -0.0113802 -0.0167289 0.00822811
502 42 11 6.90404 17.212 9.45041 0.00727822 -0.0401303 0.0263108
554 47 19 9.81434 18.9834 7.24887 -0.00517895 0.0198326 0.0130186
493 42 9 8.38543 15.5102 9.58767 -0.0238368 -0.00467709 -0.00150013
504 42 11 8.03968 17.7519 8.1632 0.0986697 -0.0262311 -0.0387483
496 42 19 7.88713 15.6834 8.39242 -0.00113809 0.014153 -0.0228389
495 42 19 9.6115 15.6768 9.90831 0.0170771 0.0216612 0.00414781
555 47 2 10.3097 19.8379 8.34809 0.0210345 6.77109e-06 -0.00569711
559 47 11 9.55864 19.8834 8.99648 -0.0082077 0.0319499 0.00745446
288 24 11 13.889 -0.266008 7.47025 -0.00267424 -0.154105 -0.0207748
287 24 11 15.0229 18.3772 6.54819 -0.0287647 0.0720552 -0.056126
636 55 2 13.3969 16.218 6.93107 0.00930689 -0.0134307 0.033521
635 55 2 14.3252 16.0281 5.77281 0.011129 -0.0019428 0.0147197
657 57 11 10.0113 16.8659 4.98532 -0.0357324 0.00552902 0.0324066
658 57 11 10.4871 16.1932 6.30906 0.0192484 0.0566953 0.00432921
500 42 11 10.8693 15.5388 9.22601 -0.0545115 0.0962204 0.00845439
638 55 11 12.4896 15.4215 6.84368 -0.0133029 0.0263612 -0.0469392
637 55 11 13.7979 16.4526 8.02017 -0.0477709 0.018848 -0.0360036
552 47 20 11.3976 18.2645 6.19062 0.0209492 0.000660342 -0.00795982
497 42 1 10.1558 16.2298 8.85241 -0.00549276 -0.00715089 0.0145837
499 42 11 10.8997 16.9764 8.97502 0.198441 0.0161787 -0.0229808
501 42 11 10.1635 15.5005 8.09589 -0.0643106 0.0275681 -0.0160154
703 62 19 13.2333 18.4721 10.83 0.0123672 -0.0175795 0.0238288
284 24 11 18.7435 0.913231 5.39654 0.0200802 -0.0049383 -0.0175219
281 24 1 18.3197 0.806372 6.36795 -0.0224121 -0.00455117 -0.0100772
283 24 11 19.0629 0.297227 6.93728 -0.0570647 0.00428742 0.00891902
302 26 20 19.7097 0.234293 9.08805 0.0132682 0.000981367 -0.00651409
683 60 19 16.8431 14.7457 8.11982 0.0105799 -0.0086782 0.00628183
681 60 9 17.9001 15.3057 7.14245 -0.0435402 0.00129202 0.000161411
686 60 2 16.5183 15.7294 9.04995 -0.0119259 -0.0208722 0.00818934
685 60 2 17.5422 16.9224 8.8255 0.00187708 -0.0212673 -0.00164731
690 60 11 17.1141 17.5111 7.94387 0.0723047 -0.102453 0.00876856
688 60 11 15.4855 16.0582 9.58152 0.000864505 -0.00249997 -0.0044202
687 60 11 16.8056 15.1262 9.98298 0.00438951 -0.0113635 -0.0307185
684 60 19 17.9907 16.8383 7.49858 0.0214205 0.000819465 -0.00635955
689 60 11 18.4698 16.5861 9.01101 0.00881079 -0.0356378 0.0275887
525 44 11 0.919438 18.4347 10.5508 -0.0983321 -0.0687973 0.0973329
303 26 19 1.37939 0.671484 10.6857 0.00544326 -0.00716795 -0.0041349
308 26 11 2.62185 2.17619 10.0062 -0.0168119 0.0166329 -0.0644203
305 26 1 2.70814 1.2562 10.5976 0.0109922 0.00442327 -0.00165222
309 26 11 3.00923 1.70166 11.5675 0.0486729 -0.00435822 -0.0720293
307 26 11 3.17731 0.395836 9.90193 0.08494 0.0175516 0.101683
226 19 11 1.04195 5.55339 12.0402 0.00891729 0.0383066 -0.127332
224 19 11 5.2229 2.98319 9.88365 0.0798776 -0.0176173 0.0214117
622 54 20 0.648505 1.21313 13.5334 -0.0131701 -0.00709256 -0.00843618
624 54 19 0.32591 3.45432 14.138 -0.00157481 0.0189854 -0.00442736
219 19 19 4.69304 3.48709 12.1479 -0.00583417 0.00230381 -0.00626732
221 19 1 5.06653 3.63715 10.7318 0.0157142 0.014296 -0.00332473
225 19 11 4.31209 4.20836 10.15 -0.015214 -0.0116765 0.0502439
223 19 11 4.82989 2.72166 10.9734 0.0219579 0.00171718 -0.0674144
621 54 9 19.983 2.05437 14.0735 0.00933211 0.0102166 0.0068677
220 19 19 2.4918 4.37176 12.47 0.0192316 0.0049194 0.00656649
217 19 9 3.85277 4.54951 12.483 0.00740984 -0.000846656 0.00121726
276 23 11 1.86136 5.36824 16.9699 -0.0326606 0.0252114 -0.00105217
89 8 1 7.0453 19.694 10.4154 -0.000497783 -0.0223402 0.0283071
561 48 9 9.3898 3.60675 10.8531 -0.0162149 0.0260214 -0.0207368
563 48 19 8.81307 4.53565 10.5769 -0.0211515 0.0101305 0.00445951
93 8 11 7.46861 0.809043 10.6581 -0.017963 0.0448988 0.0448658
416 35 11 5.13522 0.646816 13.0196 -0.00397078 0.0332442 -0.00221912
413 35 1 6.00981 0.69974 13.7119 0.0227995 -0.0138404 -0.0104684
415 35 11 6.93475 0.203624 13.3689 4.69975e-05 0.0493035 -0.0240108
417 35 11 5.97054 1.75273 14.201 0.0074206 -0.0413593 -0.0147479
562 48 20 9.31754 2.46076 11.3914 0.0100375 0.0321342 0.0138181
735 69 31 5.56355 5.13806 15.4276 -0.0242594 -0.0117399 0.00912568
564 48 19 10.4468 3.64949 9.99049 0.00845408 -0.00714396 -0.0127411
539 45 11 13.7413 4.50621 12.9738 0.0446401 -0.0197814 -0.0192013
705 62 2 11.4424 18.9066 12.2256 -0.00543121 -0.0185876 0.0196888
709 62 11 11.4634 18.5469 13.2571 0.0127526 -0.0937068 -0.0049263
168 14 11 11.0752 1.19408 16.0063 0.025038 -0.0464616 -0.00135574
293 25 1 11.3771 4.69722 13.6599 0.0270234 -0.00501187 -0.0197927
295 25 11 12.1352 5.26088 13.4149 -0.0707502 0.0238288 0.0102875
297 25 11 11.7693 3.95473 14.3052 -0.00061317 0.0109703 -0.0425293
704 62 19 12.1616 0.150273 11.9486 -0.00174614 0.000689212 0.00380018
566 48 2 9.6144 5.54845 10.2277 -0.00992089 0.00866403 0.0129434
702 62 20 13.0076 0.533311 10.3393 -0.00653646 0.0186397 -0.0286952
701 62 9 13.1976 19.8152 11.0617 -0.0119402 -0.0162725 0.00678559
167 14 11 11.5039 0.895182 14.1907 -0.0712064 0.00963748 0.0337162
311 26 11 17.9596 2.90725 10.1867 0.00302141 -0.039547 0.0747499
534 45 1 14.6441 3.99707 13.2213 -0.00870607 0.0218391 -0.0157743
540 45 11 14.1882 2.98116 13.5226 0.0684543 -0.0273914 0.012845
538 45 11 14.5342 4.8784 13.7827 -0.0111464 -0.0568222 0.0142077
529 45 9 15.9628 2.4703 12.4531 0.000572893 -0.0118414 -0.0076045
530 45 20 15.2486 1.46883 11.9074 0.00770436 0.0205195 0.00387652
532 45 19 15.2749 3.56612 12.0684 0.0105705 -0.00372239 -0.0129393
531 45 19 17.4774 2.17253 12.5751 -0.0292184 -0.00744483 -0.00498682
533 45 1 18.0255 1.18919 11.6774 -0.0150554 -0.0131285 -0.0126298
627 54 11 17.375 3.81739 14.565 0.0135512 0.00900856 0.0135334
536 45 11 19.0918 1.38284 11.8486 -0.039833 0.0336724 -0.139732
549 46 11 16.309 5.09352 10.2251 0.00569254 -0.00490514 0.0104406
630 54 11 0.314843 4.36925 14.4163 -0.0361798 -0.0198576 -0.0208154
537 45 11 17.4978 0.262617 12.0749 -0.019205 0.0483387 -0.0722161
535 45 11 17.8887 1.0107 10.5749 -0.0437054 0.0308983 -0.0137558
625 54 2 19.7331 3.7344 15.1621 -0.00570771 0.0129525 0.00276798
629 54 11 19.258 4.39723 16.0075 0.0482017 0.00500913 0.0468461
349 30 9 4.43689 9.18281 9.65504 -0.032074 -0.0096601 0.0150728
351 30 19 5.26734 8.16723 10.2923 0.00850449 0.00982167 -0.0040274
228 19 11 0.920864 3.91146 11.3392 -0.0757116 -0.0697329 -0.0248471
222 19 1 1.83141 4.84579 11.2851 0.00182115 -0.0125026 -0.00303387
352 30 19 3.38589 9.61299 10.2968 0.0166805 0.000353951 -0.00767282
227 19 11 2.30209 5.57809 10.4176 0.0861662 0.027904 0.0691428
218 19 20 4.29037 5.72195 12.3998 -0.00915575 0.0108693 -0.000566829
427 36 11 2.16675 8.76141 12.4097 -0.054945 -0.119759 0.0370446
429 36 11 0.595024 8.74041 12.2546 0.0317443 -0.0362891 -0.0137162
428 36 11 1.03732 8.09448 11.6797 0.0073517 -0.0139826 0.00570062
425 36 1 1.27992 8.11677 12.6584 -0.00579591 0.011515 0.00324126
347 29 11 4.71278 9.77584 13.6736 0.0689069 -0.0399653 -0.0594431
423 36 19 0.470784 7.24338 13.4664 -0.0108465 -0.00559654 -0.0106508
290 25 20 8.58688 5.72675 13.4264 -0.0059291 -0.0036461 0.00928295
289 25 9 9.20458 4.90497 14.3553 -0.00730053 -0.00497889 -0.00500149
342 29 1 5.39907 9.43363 13.1911 -1.56872e-05 0.0273314 0.0235363
348 29 11 4.64985 8.30139 12.9927 -0.0503678 -0.0808875 0.00414991
346 29 11 5.28226 10.0595 12.1934 -0.0415585 0.0101967 -0.0419917
337 29 9 8.03722 9.44509 14.1283 -0.0128619 -0.00884135 0.00552898
338 29 20 8.08278 8.2525 14.6356 -0.00433857 -0.00787494 0.00173819
340 29 19 6.60796 9.98766 13.9936 0.021042 -0.00958942 -0.0187707
567 48 11 9.48857 5.8985 11.2806 -0.0075216 0.0533963 -0.0405302
296 25 11 11.0494 4.37607 12.5137 0.0348821 0.00648238 0.0152903
291 25 19 10.517 5.33461 14.6257 -0.0195543 0.0168805 -0.00189743
603 52 19 11.5036 7.48325 12.7385 -0.0161057 -0.00206691 -4.18768e-05
601 52 9 12.8483 7.93379 12.4957 -0.0291006 0.000381538 -0.0226233
605 52 2 11.6443 8.64298 10.6624 0.02195 0.00267571 0.00830662
604 52 19 12.7496 8.2371 11.264 0.0144787 -0.000818316 0.0207905
608 52 11 10.239 7.56178 11.7323 -0.0280426 0.053426 0.00283389
606 52 2 10.6835 8.51961 11.9685 -0.0279624 -0.0107877 -0.00377129
607 52 11 10.6666 8.53352 13.0523 0.0909851 0.0429342 0.0211255
610 52 11 11.9498 9.51553 10.6646 0.0433687 0.0692892 0.0160331
602 52 20 13.6366 7.35109 13.3528 0.0131454 0.0178302 -0.00271216
550 46 11 16.296 6.19883 11.8595 0.0103406 0.005327 -0.0268422
545 46 2 15.981 5.99891 10.7762 0.0173138 -0.00109629 0.00687945
544 46 19 16.9945 6.58767 10.0622 0.0210886 -0.00916673 -0.00686067
422 36 20 18.8108 6.87294 12.3532 0.00573421 -0.00325694 -0.00370267
421 36 9 19.2303 6.90665 13.5203 -0.0248545 0.0288168 -0.0137072
426 36 1 17.0928 7.33346 14.425 0.0151455 -0.00309028 -0.0190791
430 36 11 17.0161 7.6779 13.5466 -0.002799 -0.0200655 -0.00970001
424 36 19 18.423 6.97979 14.6019 0.00473782 0.0157265 0.0216465
431 36 11 16.9672 8.05079 15.1074 0.00421095 0.012497 0.108829
359 30 11 1.37697 9.68683 9.64064 0.0429679 0.0889915 -0.0159809
590 50 11 3.14237 11.9197 10.064 0.0238683 0.0869153 -0.0361826
589 50 11 2.57711 12.6061 11.609 0.0442512 0.0372224 -0.00624989
350 30 20 5.21125 10.3767 9.80424 0.00998655 0.0202227 -0.0125054
583 50 19 1.71054 14.8043 10.2517 0.00277431 0.0142739 -0.00512028
585 50 2 3.07359 12.9194 10.6364 -0.0061742 -0.0141163 0.00371684
588 50 11 3.25147 14.9029 9.47324 -0.046987 0.000295017 -0.0941653
586 50 2 3.05136 14.4998 10.5504 0.0155714 -0.00438713 -0.00713146
587 50 11 3.32341 15.4248 11.3321 -0.0507004 -0.116624 -0.0196078
318 27 1 1.99789 12.8512 14.5512 0.0246522 -0.0132091 -0.0121258
323 27 11 1.71856 13.6823 14.0162 0.0768677 0.0752075 -0.00704899
316 27 19 3.24996 12.924 14.8634 0.0109122 -0.00636876 0.00703692
322 27 11 1.51543 12.5167 13.4726 -0.0246784 -0.0142332 0.0151594
314 27 20 4.3938 11.8183 13.3467 0.000306446 0.0237011 -0.00753835
313 27 9 4.1837 12.9894 13.7498 0.00438466 -0.0117023 -0.0157615
315 27 19 4.64171 14.0203 12.9864 0.0116955 -0.00296182 -0.00421362
154 13 11 6.84305 11.0663 10.8743 0.0452257 -0.0275559 0.0186711
339 29 19 8.89525 9.89582 13.1953 0.00721356 0.00896511 0.0142515
150 13 1 7.19385 11.8297 11.3635 0.0116102 -0.000659587 -0.0212575
148 13 19 8.28019 12.3884 10.3969 -0.0042573 0.0131136 -0.00549875
146 13 20 9.72953 11.0397 11.0903 -0.00344432 -0.00342664 -0.00201827
156 13 11 7.57054 11.792 12.287 -0.0229666 -0.051614 -0.0820644
155 13 11 6.27732 12.5293 11.5528 -0.116346 0.019136 0.0294019
341 29 1 9.4719 10.9639 13.8757 -0.000241262 0.0238631 -0.0131535
456 38 11 6.34292 13.3006 15.5864 0.0386682 0.0164033 0.00882316
445 38 9 8.09496 14.8153 15.2214 -0.0114159 0.014351 0.00816983
345 29 11 9.84691 11.0676 15.0521 0.00643075 0.00739576 0.0684562
452 38 11 10.218 14.0303 13.9507 -0.0454477 0.00504547 -0.0549165
454 38 11 6.70393 12.092 16.7415 -0.0303268 -0.114604 0.0757847
450 38 1 7.26602 12.7633 16.0165 0.00539746 0.00482577 -0.00670901
147 13 19 10.4273 13.1175 11.4005 -0.0161302 -0.0189078 -0.00347383
145 13 9 9.60198 12.2108 10.8509 0.00374933 0.000481338 -0.00887879
343 29 11 8.89164 11.9907 13.8872 0.0449652 -0.0504426 0.00187242
36 3 11 15.2495 12.1627 13.4401 -0.0588213 -0.0708155 -0.0247451
149 13 1 11.6036 13.5919 10.9766 -0.00819829 -0.00298495 0.0203775
153 13 11 11.5689 14.7443 11.5148 0.206166 0.00495641 -0.097375
151 13 11 12.2215 12.7867 11.2549 -0.0251561 0.0887278 0.000713843
35 3 11 13.896 12.5385 12.1557 0.0126671 -0.052627 -0.0466072
30 3 1 14.9195 12.1237 12.4465 -0.00186239 -0.0163628 0.0135391
34 3 11 14.7864 13.0983 12.0788 0.0942588 0.00019316 -0.0518861
26 3 20 15.6099 9.18955 13.2503 0.00195498 -0.0152521 -0.00972927
9 1 11 18.8963 12.8292 9.13729 0.00286932 -0.0936769 0.0891688
5 1 1 18.186 12.112 8.98655 -0.0105453 -0.0178065 -0.0211654
7 1 11 17.1231 11.8891 8.72845 -0.0600705 0.088826 0.060698
25 3 9 15.7932 9.99275 12.3414 -0.00587055 -0.00774907 -0.004309
32 3 11 19.3113 10.6151 13.7781 0.0831068 -0.0427592 -0.0696849
31 3 11 17.5399 9.56317 14.3154 -0.00121293 0.0435782 -0.0228203
27 3 19 17.2472 10.3366 12.6877 -0.00887054 -0.00790572 0.00180994
29 3 1 18.0298 10.3409 13.8271 -0.00482904 0.00144934 -0.00886905
33 3 11 17.9417 11.5749 14.1897 -0.017867 0.0540102 -0.050472
28 3 19 14.9909 10.9607 11.7236 -0.00696443 0.00818975 0.00531436
526 44 11 19.067 13.9846 11.8102 -0.0326495 -0.0025172 -0.00933459
522 44 1 18.5661 14.4707 12.6921 -0.00847081 -0.0150236 0.0167169
262 22 11 15.3165 16.3425 12.4647 -0.0401968 -0.0861436 0.121705
527 44 11 17.869 13.624 13.0286 -0.000339317 0.0665427 -0.0717898
434 37 20 4.64848 18.2077 10.7661 0.00856108 -0.00850506 -0.0115419
317 27 1 4.68485 15.0178 14.0129 -0.00214551 -0.0216151 0.0157884
321 27 11 5.66494 15.0653 13.6499 0.0725142 0.0045532 0.0806752
443 37 11 2.69032 19.9517 12.4207 0.0427459 0.0041903 0.0162404
444 37 11 1.86019 18.3388 12.4253 -0.00339627 0.0258261 0.0548319
438 37 1 2.62807 18.8896 12.8995 0.00146861 0.0110966 0.0201492
442 37 11 2.54175 18.9182 14.0464 -0.0535835 0.0205926 -0.0159507
436 37 19 3.32715 17.7179 12.4268 0.0147887 0.000554058 -0.0233154
433 37 9 4.69538 18.0705 11.9658 -0.0231701 0.00179239 -0.00706944
319 27 11 4.15703 15.7398 13.5637 0.0288466 -0.0328815 -0.064114
519 44 19 0.112159 16.6566 11.7167 0.00103887 -0.0214595 0.00795295
92 8 11 6.72354 19.4505 11.3057 0.0129025 0.0389837 -0.0230745
494 42 20 7.55799 14.8463 10.4535 -0.00171837 -0.000699251 0.0015413
447 38 19 8.70917 14.6468 13.8895 -0.00952673 0.0128943 0.00567685
435 37 19 5.7451 18.1304 12.8939 -0.0143229 -0.00438471 -0.00119644
441 37 11 7.99138 17.2582 12.4624 -0.0109292 0.00454492 -0.015704
437 37 1 6.87539 17.448 12.5716 0.0132955 0.00267131 -0.011609
439 37 11 7.14615 17.3743 13.6851 0.0167619 0.00389656 0.0346122
440 37 11 6.32495 16.7202 12.0522 0.019639 -0.0355484 0.0645994
453 38 11 10.1751 15.2659 15.022 0.0794918 0.0189942 -0.0253357
710 62 11 10.4432 19.3655 11.8371 -0.0962498 -0.0860011 -0.0297639
449 38 1 9.93237 15.0083 13.9188 0.0263227 0.00418238 0.00284023
451 38 11 10.98 15.2092 13.4877 0.0237932 -0.0502169 0.00530214
708 62 11 13.0233 17.3882 11.1107 -0.0447866 -0.026339 0.0193955
707 62 11 10.9793 17.1795 11.105 0.0552739 0.0499627 -0.0792535
706 62 2 11.9819 17.6977 11.4668 0.00350148 -0.0243033 0.00998656
157 14 9 13.6949 19.5459 14.7071 -0.0113385 -0.00844153 0.00344908
158 14 20 13.3068 18.3522 14.1875 -0.00645591 0.00144389 0.0164214
165 14 11 15.8658 18.2616 13.7458 -0.0630206 0.0664487 0.00470008
164 14 11 15.9692 19.1104 12.9903 0.0917823 0.0163819 0.0655912
263 22 11 16.0699 15.1787 13.5096 0.0680398 0.137452 -0.0647735
528 44 11 19.4481 14.7718 13.2539 -0.0291256 -0.0484127 -0.0264937
408 34 11 0.0512068 19.3552 14.8188 0.0053911 0.0280998 0.0492552
256 22 19 14.7925 16.4964 14.4682 -0.00146365 0.00348183 0.00601021
264 22 11 14.2314 15.0952 13.4277 -0.0292137 -0.032132 -0.0548332
258 22 1 15.1485 15.6799 13.4924 -0.0146557 -0.0061938 -0.00527749
517 44 9 18.8646 16.6551 11.9334 -0.0061886 0.00619306 -0.000992389
520 44 19 18.1988 15.5881 11.9403 -0.0167732 -0.00195135 0.00176365
518 44 20 18.3972 17.7098 12.1831 -0.0257317 0.0219128 -0.00854327
159 14 19 14.8048 0.21112 14.3917 -0.00142521 0.0132281 0.00677298
161 14 1 15.8448 19.3609 14.0488 -0.00134789 -0.00240575 -0.00225253
163 14 11 16.668 19.9761 14.1482 0.0207651 0.0312139 -0.0188809
420 35 11 2.33547 0.341814 15.2786 0.0241464 -0.00420084 0.0174938
144 12 11 2.46165 0.872962 19.7735 0.0161088 -0.072359 -0.019346
138 12 1 3.32991 0.604879 0.545068 0.0131639 0.00938164 0.0124499
419 35 11 2.69408 1.89325 14.9953 0.0383847 -0.0360085 0.00869246
414 35 1 2.87877 1.20494 15.8326 0.00689487 0.00615581 -0.0101859
418 35 11 2.31649 1.84621 16.7467 -0.0139052 -0.0196904 0.00942976
412 35 19 4.1668 1.62583 15.586 -0.0005211 -0.0113229 0.00439687
647 56 11 3.9536 5.01208 19.1102 -0.0144844 0.0445862 0.00113799
646 56 2 4.84458 4.47236 18.6923 -0.00742604 0.0138173 0.0231547
643 56 19 4.87957 3.60038 17.6068 0.0038034 0.0149784 -0.000989565
749 71 26 1.18716 3.36889 17.5696 -0.0289249 0.00299196 0.00854042
409 35 9 4.9762 0.250031 15.7077 0.00368213 0.00487496 0.0116087
731 65 31 19.0053 1.60657 0.333438 -0.0327012 0.0117904 0.00307589
747 71 26 0.0375214 2.32583 19.4512 -0.00280637 0.00297988 0.0130147
743 71 27 0.273916 3.78699 18.8963 0.00243786 -0.000827939 -0.00461576
648 56 11 4.35953 5.05901 17.9398 -0.0606369 0.011415 -0.0513493
744 71 26 1.43577 4.02511 19.9591 -0.0038219 -0.0117162 0.0150082
410 35 20 5.20201 0.0453332 16.8308 -0.00476833 -0.00436923 -0.000834633
300 25 11 9.35612 3.64447 16.7525 -0.0118394 0.00970749 -0.02436
294 25 1 9.11058 3.26932 15.7606 0.00400958 -0.00193737 0.00250945
292 25 19 8.39851 4.15658 14.8738 -0.011787 -0.00100952 -0.000322748
642 56 20 5.84835 3.52386 15.6546 0.0121486 0.0161813 -0.000859907
298 25 11 8.62543 2.60817 16.3183 -0.0431493 0.0619496 0.0246821
760 73 26 9.2644 3.39861 19.1421 0.0106168 -0.0222822 -0.0034368
763 73 26 9.66694 1.45766 18.3014 0.00256631 0.00305491 -0.0166226
757 73 27 9.59629 1.96458 19.8021 0.00160569 0.0064517 -0.00972411
641 56 9 6.14605 3.53053 16.819 0.00945398 0.0116545 0.00600104
299 25 11 8.22318 2.47624 15.5693 -0.0466667 -0.0129041 0.00998028
650 56 11 6.95239 4.57467 19.449 0.114981 -0.0430209 0.0337335
645 56 2 6.35314 4.99006 18.7724 -0.0128533 -0.0108543 -0.0114623
644 56 19 7.0178 4.39104 17.71 0.00598963 -0.0103078 -0.0207772
466 39 11 7.83548 19.7738 15.4327 0.091875 -0.0292214 -0.0152135
468 39 11 8.10428 19.5031 17.0682 0.0311132 0.0268279 -0.0369316
162 14 1 11.8421 1.08913 15.294 0.000114344 0.0239414 -0.000934557
166 14 11 12.3891 2.12812 15.3787 0.0336266 -0.140496 0.0187569
160 14 19 12.8956 0.252882 15.7783 0.0063276 7.22796e-05 0.0193287
758 73 26 11.174 2.50798 19.7704 0.00488312 0.0148844 -0.00515599
194 17 20 12.9061 4.6101 17.8617 0.00580424 0.00736792 -0.00844979
196 17 19 13.5457 5.10172 15.7908 0.00463526 0.00372316 -0.00996039
195 17 19 13.7456 3.05361 17.0262 -0.00367081 -0.00542818 -0.0153032
193 17 9 13.2859 4.24946 16.8198 0.0134319 0.00420418 0.00858877
732 66 31 12.7424 2.44233 0.552309 -0.026434 0.016658 0.010996
201 17 11 15.8754 3.43278 17.4893 0.0519467 0.0374126 -0.0936356
171 15 19 15.7626 3.30448 0.165931 0.0191633 -0.003444 0.00213334
173 15 1 16.8765 2.84752 0.521568 -0.00910043 0.00826788 -0.0145018
177 15 11 17.4446 3.56586 1.20143 0.00368138 0.0526677 0.0547957
176 15 11 17.5869 2.61423 19.7461 0.0521061 0.0316139 0.0174737
623 54 19 18.7187 1.86663 14.6837 -0.000572698 0.00433983 -0.00128634
626 54 2 18.2585 3.20681 15.116 0.00901322 -0.0161047 0.00238673
628 54 11 17.9138 2.76387 15.9555 -0.0286947 0.0643128 -0.0280727
748 71 26 19.2707 4.13526 19.9984 0.00837711 0.000999185 0.00958358
200 17 11 15.1872 1.79386 17.5754 -0.0383499 0.0451044 -0.0885029
199 17 11 15.4418 2.59729 15.8594 -0.0174322 0.0115381 0.0397875
753 72 26 16.5521 0.324585 18.5688 0.000137476 -0.0106072 0.00179985
197 17 1 15.0954 2.61908 17.0289 0.00775854 -0.0116099 0.0184582
745 71 26 19.0769 3.63467 17.9036 -0.00935719 0.00886472 0.0039603
672 59 20 1.75065 6.91712 0.549969 -0.0146041 0.0161685 0.0102905
671 59 9 2.45276 7.8643 0.244592 -0.00853643 0.00807497 -0.0132069
673 59 19 3.49391 7.74112 19.3773 -0.00750779 -0.0137624 0.0205587
676 59 2 4.66043 7.67768 0.0257752 0.0235869 0.0180379 0.000325371
678 59 11 5.76031 7.9274 19.7564 0.0106155 0.0139707 -0.0267599
275 23 11 1.51053 7.25424 16.4441 0.00371961 0.124973 0.0288996
270 23 1 1.62519 6.24759 16.1346 0.00225384 0.0320381 0.0185997
274 23 11 0.913901 6.26902 15.364 -0.0283078 -0.053971 -0.0698394
268 23 19 2.91749 6.46448 15.5947 -0.018544 0.00853593 -0.0116321
265 23 9 3.99339 7.18272 15.8031 -0.0236011 -0.0182841 -0.0143308
266 23 20 4.1666 8.39875 15.6653 0.00403475 -0.0263994 0.00457107
768 74 26 1.18107 9.25468 18.0438 -0.0266477 0.00605735 0.0121313
766 74 26 19.8898 9.786 16.0705 -0.0220846 -0.00411399 -0.0017321
267 23 19 5.04249 6.46374 16.4008 0.00950939 -0.0107937 -0.003343
746 71 26 0.193257 5.13893 18.3589 0.00372609 -0.0114965 0.00769846
649 56 11 6.17456 5.92142 19.3955 0.0087902 -0.0169786 -0.0084333
713 63 19 9.99679 7.38082 19.6653 0.0127066 0.00686654 0.0148246
716 63 2 8.89952 7.85171 18.99 0.0132711 -0.0115706 0.00126872
717 63 11 7.85792 7.44031 18.8889 -0.0356452 -0.0330777 -0.0262601
677 59 11 4.52104 6.52919 0.465741 -0.00130125 -0.0197339 0.0264888
269 23 1 6.13669 7.06337 16.2928 0.027787 0.0101021 0.0123813
271 23 11 6.93871 6.32879 15.8072 -0.0790905 -0.000277738 -0.0531785
272 23 11 6.42354 7.43862 17.0863 0.00366719 0.00101389 0.0753925
273 23 11 6.19102 8.24801 16.1457 -0.114012 0.104399 -0.0776116
714 63 19 9.34921 6.0179 17.7645 -0.0164999 0.00252515 0.000962724
715 63 2 9.39154 7.34796 17.6438 0.0176134 -0.037822 -0.0116287
720 63 11 8.8452 6.67721 17.2034 0.0861187 -0.0129614 0.0763692
719 63 11 8.86057 8.44102 17.1556 0.0724442 0.0259036 0.0980899
711 63 9 10.2822 6.10997 18.9233 -0.0200603 -0.0021883 0.00835029
386 33 20 6.4942 9.60082 18.6604 -0.00997422 0.0068109 0.0033068
599 51 11 15.57 8.01257 17.7123 0.022116 0.0620791 -0.114702
712 63 20 11.0798 5.31128 18.8626 0.0129997 0.0152357 0.0165842
202 17 11 12.3475 7.10145 15.3354 -0.0375396 -0.0200115 0.0160883
204 17 11 14.1649 7.31338 16.1605 0.119029 -0.0204977 -0.041423
203 17 11 12.2239 6.65945 16.7543 0.0333081 -0.0462865 -0.0466143
198 17 1 13.2517 6.59344 16.0655 -0.00139239 0.0039825 -0.00914385
598 51 11 13.53 8.36722 19.7825 -0.0778987 0.0263045 0.0739906
596 51 2 14.2902 7.76113 19.6268 -0.00898652 0.0126455 0.00586129
22 2 11 15.3496 9.42621 15.5137 -0.0752781 -0.0874863 -0.0849558
741 70 26 12.3838 9.40738 17.576 0.000672871 -0.0236199 -0.00896019
591 51 9 15.9461 6.57035 19.7853 0.0146066 0.0196632 0.0363055
432 36 11 16.6518 6.30484 14.8412 -0.0310976 -0.11498 0.0310532
594 51 19 16.4479 7.69069 19.3172 0.0205461 -0.0223103 -0.000735694
595 51 2 15.4123 8.38828 18.8252 -0.00785864 0.0100043 0.00298146
600 51 11 15.9556 9.28941 19.0445 0.000359561 -0.0211344 0.0188435
24 2 11 14.9497 10.5254 17.2187 0.0273857 -0.0553175 -0.000655091
324 27 11 1.30359 13.2616 15.4138 -0.00465871 0.0402162 -0.0354999
770 74 26 1.80354 10.7106 15.9833 -0.0139582 0.00208347 0.0381051
395 33 11 3.46961 11.802 19.0576 -0.0319658 -0.0145283 0.0670328
396 33 11 4.36806 10.7423 17.8195 0.0365689 -0.00475414 -0.00761387
765 74 26 1.43708 11.5861 17.9861 -0.000101416 -0.0161524 0.0250501
764 74 27 0.628517 10.4529 17.1337 -0.0101989 0.00521345 -0.0206285
390 33 1 4.45535 11.4363 18.6922 0.00704474 -0.0180654 0.000164127
663 58 19 5.13235 14.56 19.8682 0.00896192 -0.00390636 0.013842
394 33 11 4.80838 12.0598 18.0268 -0.116185 -0.0307983 0.00842092
769 74 26 19.2445 9.95195 17.9555 0.00670196 -0.024783 0.0217158
767 74 26 -0.000926137 11.7304 16.3433 -0.0112043 0.000318141 -0.0109121
99 9 19 1.4987 14.4947 19.2268 -0.0196935 0.0110869 -0.0142817
455 38 11 7.64733 12.3205 15.0967 -0.0460997 0.0456141 -0.0172915
388 33 19 5.57577 11.429 19.6761 0.0108525 0.00638213 -0.00966488
448 38 19 8.07365 13.8429 16.2178 -0.00193125 -0.0121714 0.00646227
385 33 9 6.64636 10.7993 19.2426 0.0226813 -0.00628184 0.0126767
387 33 19 7.95447 11.3742 19.7153 0.00161549 -0.0117437 0.0133697
389 33 1 8.43083 12.4371 18.8993 0.00235203 -0.0115623 -0.00476785
391 33 11 9.21261 13.1106 18.8494 -0.0187346 -0.0745959 -0.0196249
392 33 11 7.87578 12.8561 18.3242 0.030828 -0.0443297 -0.0491024
393 33 11 9.11859 11.7812 18.2707 0.0401539 -0.0142941 0.0653019
80 7 11 12.1324 14.4982 17.1985 -0.0202947 0.0636648 0.0777977
344 29 11 10.4099 11.4037 13.5494 0.00816595 0.0121505 -0.0408051
738 70 26 11.5747 10.7019 19.004 0.0140255 -0.0111036 -0.0189594
739 70 26 10.6687 10.4504 16.8332 -0.00489755 -0.00337312 0.00464478
742 70 26 11.3168 12.2596 17.2806 0.00785378 0.0163798 -0.0132657
736 70 27 12.1193 10.9714 17.4573 0.0015027 0.00656087 0.033006
740 70 26 13.2398 11.6693 18.2671 -0.0177142 -0.00138753 -0.0276666
737 70 26 13.029 11.4342 16.1362 0.00212148 0.00812466 0.0180969
20 2 11 14.5474 13.8023 18.3395 -0.00588407 -0.0618623 0.0208334
77 7 1 11.5737 15.1706 17.8754 0.00827843 -0.00618267 0.012667
81 7 11 11.7497 16.1252 17.3682 0.0384308 -0.073774 0.0482833
69 6 11 19.7119 13.0578 0.595883 -0.0469605 -0.0274219 0.056104
108 9 11 18.1519 13.1601 18.6109 -0.0356273 0.0139913 0.00306027
23 2 11 16.3726 9.8739 16.7922 -0.0236702 -0.0272375 0.0428111
18 2 1 15.4962 10.1406 16.2927 -0.00324923 0.0106373 -0.00993037
13 2 9 16.021 12.3361 16.2855 -0.000749416 -0.00319005 -0.000918725
16 2 19 15.3398 11.4078 15.6145 0.0119238 -0.0103334 -0.0138641
15 2 19 16.1902 12.4907 17.7839 -0.0181457 0.0182524 0.0179837
17 2 1 15.5568 13.2426 18.6266 0.0281888 -0.00525742 0.0017084
19 2 11 14.9561 12.5367 19.2623 -0.0113474 0.0247903 -0.0730333
14 2 20 16.6318 13.3238 15.4688 -0.00383239 -0.00294129 0.0180726
107 9 11 17.5358 15.0129 18.2007 0.0935007 -0.0590709 -0.00480935
102 9 1 18.3608 14.2564 18.6018 0.0221752 0.00432508 -0.00624579
100 9 19 19.5378 14.4568 17.877 -0.00117238 -0.00333872 -0.00231039
143 12 11 3.02395 19.5143 1.03307 -0.0245035 -0.055396 -0.0773126
400 34 19 0.298398 17.6014 16.0297 -0.00335226 -0.0145317 -0.000724033
320 27 11 5.51873 15.7339 14.5168 0.0895119 -0.0838408 -0.0300629
142 12 11 3.73833 0.486091 19.5028 0.0179199 0.0382782 0.095058
668 58 11 4.4215 13.8146 19.2432 0.029501 -0.0194237 -0.0289589
666 58 2 4.54295 14.6631 18.6803 0.0234975 0.0100564 0.00534735
398 34 20 1.78776 16.1511 15.0838 -0.00610965 -0.00115801 -0.0174544
397 34 9 1.62437 16.9395 16.1248 0.00326055 0.0153101 -0.00198526
399 34 19 2.76759 17.7678 16.2904 0.00108258 -0.00472829 0.00320353
401 34 1 2.93961 17.5605 17.7219 0.00535792 -0.00774861 0.00988725
405 34 11 3.76799 17.6298 18.0632 0.0215498 0.0172044 0.00729656
403 34 11 2.46085 18.5833 17.6413 -0.0196973 -0.0258171 -0.00523364
667 58 11 3.59069 15.2447 18.3452 -0.0194419 -0.00101058 -0.0524196
404 34 11 2.39142 17.1898 18.477 -0.0570593 0.0734227 0.0463318
670 58 11 6.33286 15.3748 17.3408 -0.00414976 0.00202704 -0.0343792
406 34 11 18.9269 19.0363 15.4344 0.0277512 0.0254571 -0.0344724
97 9 9 0.548637 15.127 18.6022 -0.00454237 0.0215802 0.01334
98 9 20 0.351341 16.344 18.7777 -0.00940226 -0.000363722 -0.00530899
236 20 11 8.72513 17.9936 19.7919 -0.036118 -0.0421749 0.00135789
411 35 19 5.7768 19.8901 14.8342 -0.00140468 0.0213817 -0.0195679
446 38 20 7.45146 15.9952 15.6465 0.0081063 -0.0170637 -0.0288123
669 58 11 4.98338 14.8278 16.505 0.0762084 -0.000309015 0.0289774
661 58 9 6.51489 14.771 19.6202 -0.000326062 -0.00153282 -0.0122482
664 58 19 6.83104 14.6463 18.2868 -0.0137862 -0.00544448 -0.00416236
665 58 2 5.48864 14.7193 17.4547 0.0071721 -0.0208003 -0.00803996
467 39 11 7.35171 18.7968 16.6567 -0.0349776 0.0319903 0.09037
458 39 20 8.94021 17.0934 17.4769 0.00329292 0.018089 0.00882536
237 20 11 8.05057 19.3956 18.8718 0.0451322 0.0652036 -0.0754398
235 20 11 8.50123 19.0286 0.700326 -0.0266796 0.0585821 0.034457
233 20 1 7.89632 18.8145 19.8838 -0.00268205 0.0124468 0.0101717
460 39 19 8.86691 18.0847 15.6407 0.0198832 -0.0115448 -0.0139967
462 39 1 8.22148 19.1976 16.1452 -0.00982698 -0.0017454 -0.00637425
457 39 9 9.65763 17.6104 16.6288 0.0125292 -0.00324964 0.0064535
75 7 19 12.3146 15.3195 19.2593 -0.0219221 -0.0134833 0.00729251
752 72 26 14.3847 19.6918 18.5065 0.0054815 -0.00164999 -0.00455433
79 7 11 10.4499 14.5807 17.8453 -0.105447 0.0430896 -0.106837
459 39 19 10.8588 18.1725 17.0455 -0.00435004 0.000660455 -0.00284057
465 39 11 10.8253 19.4818 18.5858 -0.0663946 0.0529159 0.00206744
254 22 20 14.0318 15.0398 15.8182 0.00376526 -0.0017672 -0.010666
464 39 11 12.2805 18.3426 18.772 -0.0365395 -0.00417021 -0.0688855
461 39 1 11.0609 18.3206 18.5516 0.0174734 0.0165163 0.0240188
463 39 11 10.4518 17.543 18.861 -0.0510318 -0.0390153 -0.051281
754 72 26 15.0834 17.6174 18.6198 0.00528136 0.00899422 -0.010328
402 34 1 19.6076 18.5086 15.0492 -0.00596784 0.0149739 -0.000724326
261 22 11 17.8982 16.1071 16.6917 -0.0658884 -0.030182 0.0404636
259 22 11 17.6975 15.9248 14.8955 -0.0537522 -0.0178462 -0.101422
21 2 11 16.037 13.9724 19.2394 0.0274555 0.0586845 -0.0228187
407 34 11 18.9807 18.1121 14.4909 0.0484449 -0.117333 0.0511913
253 22 9 14.8469 15.9113 15.7385 -0.00086638 0.00138866 0.00823746
255 22 19 16.0811 15.8718 16.502 -0.00307461 -0.00757731 -0.0106895
257 22 1 17.2272 16.3189 15.9058 -0.0105553 -0.0227407 -0.00580684
260 22 11 17.4757 17.5261 15.9734 -0.0195302 -0.0719641 0.0257741
750 72 27 15.8503 18.9176 18.482 0.00412956 -0.0139099 0.000140254
106 9 11 17.9007 14.2988 19.6596 -0.0655976 -0.0317276 0.114841
756 72 26 15.6326 18.9587 16.9378 0.0082569 0.00273498 -0.00975108
751 72 26 17.3443 18.1318 18.4299 -0.00448389 0.00402107 -0.000837111
ITEM: TIMESTEP
1700
ITEM: NUMBER OF ATOMS
770
ITEM: BOX BOUNDS pp pp pp
0.0000000000000000e+00 2.0000000000000000e+01
0.0000000000000000e+00 2.0000000000000000e+01
0.0000000000000000e+00 2.0000000000000000e+01
ITEM: ATOMS id mol type x y z vx vy vz
136 12 19 4.07629 2.04377 0.754846 0.0252001 0.00521726 -0.012991
59 5 11 1.81408 19.8294 4.87503 0.0834323 0.00522701 -0.00980486
52 5 19 2.01719 1.56582 4.08683 -0.00658734 0.000823861 0.0101408
49 5 9 2.71103 2.6533 3.62839 0.00885772 -0.00706763 0.00194709
51 5 19 4.00357 2.62295 4.00898 0.000654764 -0.00572987 -0.00103586
50 5 20 2.15866 3.72765 3.3313 0.00250782 0.0165031 0.0155332
133 12 9 5.2325 2.13897 1.42722 -0.000440031 0.00218974 -5.65579e-05
135 12 19 6.01843 3.11615 1.27632 0.00366422 0.00829085 0.0116973
116 10 11 19.4671 1.33041 3.87841 -0.0678922 0.0220908 0.0213847
134 12 20 5.61287 1.53222 2.36143 0.00241993 0.00847842 -0.00302782
508 43 19 8.16658 0.256575 3.3241 0.0319061 -0.00600639 -0.00773858
505 43 9 8.49857 1.26558 4.16883 -0.0177912 0.015159 0.0297973
137 12 1 5.28836 4.28038 1.93153 -0.0103115 0.0103967 -0.0151967
140 12 11 5.60926 5.39048 2.01854 0.019789 -0.0449726 -0.0491568
56 5 11 5.72426 3.02546 5.27253 0.0243624 -0.0527719 -0.0793523
762 73 26 9.65022 2.64631 1.26315 -0.000603537 0.00586062 -0.00199548
141 12 11 4.09171 4.42686 2.11122 -0.00465703 0.0181331 0.00196472
139 12 11 5.5051 3.98351 3.03926 0.0358796 0.0640502 0.0196832
734 68 31 7.60955 3.41225 4.52313 0.0136042 0.0308213 0.0144687
759 73 26 8.24422 1.67904 19.743 -0.00469652 0.00275138 -0.00748505
761 73 26 10.1497 0.667517 0.672886 0.0280294 0.00317228 -0.0156846
507 43 19 9.78268 1.89916 4.00883 0.0112764 0.00199497 -0.00573244
132 11 11 11.2859 -0.00328343 3.75529 -0.0644974 -0.105847 -0.130394
170 15 20 13.8962 2.23686 0.849246 -0.0193817 0.0185765 0.00103797
169 15 9 14.4411 3.38601 0.875709 0.000267302 0.0216882 -0.0199002
174 15 1 13.0828 4.63686 2.15417 0.00310356 0.00107251 0.011515
172 15 19 14.4116 4.19952 1.89468 0.0025226 0.00157082 -0.0196607
130 11 11 12.7657 19.6997 2.4063 -0.0557536 0.031086 0.0154676
124 11 19 12.6836 1.3953 3.40426 -0.00869444 -0.0277758 0.00561388
513 43 11 11.0621 3.22443 4.43865 -0.00435442 -0.107584 0.0334577
178 15 11 12.2596 4.10413 1.94093 0.0778633 -0.0442362 0.021984
126 11 1 12.4626 0.0531147 3.39771 0.00380202 0.0117008 0.00520898
121 11 9 13.8378 1.82332 3.89419 0.000739572 -0.00461411 -0.000296815
179 15 11 12.9329 5.51539 1.5836 -0.00957414 0.102981 -0.0490826
131 11 11 12.5131 19.2281 4.22223 0.111183 0.00891236 -0.0709713
180 15 11 13.0019 4.76131 3.31329 -0.112172 0.007747 -0.0358813
113 10 1 19.0361 1.76218 2.93007 -0.0156449 0.0135684 0.0183193
115 10 11 18.1128 1.133 2.88875 -0.00965471 0.0664013 0.0205251
117 10 11 19.7242 1.48773 2.0663 0.0383817 0.0377668 -0.01109
175 15 11 17.0269 1.79339 0.990903 -0.0377415 0.00733355 0.00966415
109 10 9 18.6772 3.67423 4.12228 0.0181773 0.00367104 -0.00067217
111 10 19 18.6454 2.98194 2.99403 -0.0147597 -0.00239162 -0.0102908
123 11 19 14.8826 1.21674 3.02116 -0.00967944 0.0122257 -0.0248316
128 11 11 15.4715 19.6142 2.33013 -0.0194207 0.0109689 0.0353133
38 4 20 0.901769 8.86018 5.0179 0.00714788 -0.0136185 -0.0131614
674 59 19 3.01294 8.91079 1.36491 -0.00408075 0.0137798 0.00238836
680 59 11 5.0279 9.52934 0.954859 0.0405965 -0.0813081 -0.0442154
675 59 2 4.42415 8.72892 1.22725 -0.000144494 0.00498845 0.00500988
37 4 9 1.76842 7.9522 5.2692 -0.0194372 0.0440287 -0.00955185
39 4 19 3.02255 8.22187 5.56276 0.00853437 0.00788508 0.00505992
44 4 11 4.49776 9.89906 5.90074 -0.0159158 -0.0289761 0.0938339
41 4 1 3.4267 9.60265 5.62859 -0.0036981 0.00341949 -0.00979082
333 28 11 19.4718 5.39258 3.03516 -0.0961165 -0.0620138 -0.0170956
45 4 11 3.93254 10.1629 4.96292 -0.0259594 -0.011241 -0.0737203
679 59 11 4.73138 8.4831 2.15705 -0.0176242 0.0267166 -0.0357239
205 18 9 8.92101 6.47661 3.02868 -0.000535213 0.0112151 0.00108666
206 18 20 8.08702 5.5434 3.08333 0.00997467 -0.00173225 0.0129911
210 18 1 9.19352 8.86699 2.2879 -0.00408263 0.0121155 0.00123384
215 18 11 9.02961 8.6075 1.31203 0.00742823 0.046756 0.020787
208 18 19 8.74319 7.89642 3.24928 -0.00623762 0.00925398 0.000453795
216 18 11 9.19821 9.9527 2.62005 -0.0578032 0.0226644 -0.0758808
214 18 11 10.2027 9.14459 2.31254 0.0159624 0.0372478 0.0382636
718 63 11 9.74272 8.78356 18.9957 0.0480863 0.0405649 -0.00107914
491 41 11 6.12468 7.24186 5.70704 0.0604612 0.0451876 0.0616403
490 41 11 5.00802 6.19814 5.46264 0.0440622 0.0473356 0.0355316
207 18 19 10.3312 6.01933 2.84825 -0.0179184 0.00402169 0.00884069
209 18 1 11.2847 7.00617 3.53956 0.00521059 -0.0207149 0.00441361
213 18 11 11.8017 7.59609 2.75765 -0.0765471 -0.0879158 0.0441307
212 18 11 11.3481 7.36604 4.62382 -0.034393 0.0440651 0.0564912
593 51 19 14.7511 6.67498 19.9114 0.0038891 0.000813378 -0.0105443
211 18 11 11.9122 6.5411 4.33956 -0.0596797 -0.025523 0.00019424
597 51 11 13.9004 6.89807 20.0112 -0.0212161 -0.0361095 0.0772265
335 28 11 14.7963 7.94067 3.97121 0.00939344 0.0116146 -0.0288751
336 28 11 14.1075 7.64377 2.65033 -0.0157634 -0.0508833 0.0983318
334 28 11 15.2327 6.55835 3.57986 -0.208622 0.0737268 0.0494889
592 51 20 16.7318 5.81267 0.0657664 -0.00940261 0.0170654 -0.00630329
332 28 11 19.0296 5.94096 1.47741 0.0167549 -0.00993347 -0.061187
331 28 11 0.0423345 7.06622 2.45908 -0.0524041 -0.0260537 0.051905
329 28 1 19.2843 6.3347 2.29732 0.0234236 0.0280182 -0.00604774
328 28 19 16.1136 7.99902 2.68762 0.000527806 -0.00243529 0.00911162
326 28 20 17.6035 8.19021 4.15811 -0.00611865 0.0337889 -0.00404086
325 28 9 17.363 8.08363 2.86159 0.00558096 -0.00973154 -0.00712889
327 28 19 18.3622 7.6716 2.09368 0.000982726 -0.00137002 0.014973
330 28 1 15.1334 7.41255 3.15476 -0.00435049 0.0128537 -0.0152018
733 67 31 0.569663 8.9308 1.2374 0.0377557 -0.0355781 -0.015556
63 6 19 0.041617 11.0465 2.01737 0.00335041 -0.0265337 -0.00959548
577 49 11 3.23993 12.1463 2.82721 -0.00960415 0.0506392 -0.0523583
576 49 2 4.24327 12.2195 2.48525 -0.015362 0.00639298 0.00611579
579 49 11 6.02269 13.6383 2.10434 -0.0665478 0.0265605 0.019901
61 6 9 19.4979 11.8129 2.89701 0.0145819 0.00572512 0.00391621
580 49 11 5.55826 13.9416 3.52059 0.0111121 0.00317118 0.004957
578 49 11 4.07846 12.2199 1.4906 0.0480746 -0.0587967 0.0396366
573 49 19 4.91812 11.0472 3.01764 -0.00599977 0.0235882 -0.00119093
575 49 2 5.09825 13.3997 2.64888 0.022019 -0.000328033 0.00748654
62 6 20 19.8566 13.0456 2.9143 -0.0123634 -0.0345162 0.00331274
572 49 20 6.77929 10.9693 4.41196 0.00430788 -0.00521269 0.0071795
571 49 9 5.97241 11.4049 3.46583 -0.00779968 0.0193522 -0.00157468
574 49 19 5.85994 12.8507 3.61828 0.0133322 0.0108255 0.00686048
84 7 11 8.8276 13.3639 1.60327 0.0252876 0.0434787 0.0183267
78 7 1 9.91902 13.4162 1.51649 -0.00490981 -0.00229752 0.0111428
83 7 11 10.4923 13.3554 2.43659 0.0313179 0.00898782 0.0555405
654 57 19 8.04646 15.1016 4.16722 0.00147352 0.00102883 -0.00167066
722 64 20 12.6242 9.17125 1.94846 0.000706648 -0.031733 0.00821553
82 7 11 10.2441 12.4236 1.18486 -0.0924872 -0.0445703 0.0226754
727 64 11 11.9461 12.0714 4.59531 -0.0666506 -0.125457 -0.0234177
726 64 2 12.351 11.4477 3.66184 0.00353375 -0.0205239 -0.00463354
723 64 19 11.7128 11.2584 2.40301 0.00593846 0.0240421 0.00523665
721 64 9 12.9143 10.2364 2.01277 0.0142254 -0.00825002 -0.00362745
728 64 11 11.348 11.1035 3.14248 -0.0195153 -0.0587082 -0.0766205
724 64 19 14.2795 10.7479 2.18512 -0.00771577 0.0141023 -0.0178346
725 64 2 13.7583 11.8994 3.40142 -0.00736075 0.010153 0.0135066
76 7 19 10.4 14.5481 0.67931 -0.00902603 -0.0184239 0.0195314
74 7 20 12.4237 13.7789 1.22653 0.00395952 -0.0177573 -0.0236656
659 57 11 8.75743 13.8667 5.67818 -0.0277759 0.021939 0.0406947
655 57 2 9.0586 14.8486 4.9022 0.00927984 -0.0124231 -0.00228
660 57 11 9.85034 14.31 4.07349 -0.081855 0.0141409 -0.00392349
639 55 11 15.134 16.6447 5.64171 0.00970629 0.00181547 0.0206175
68 6 11 1.0205 12.4225 0.519082 0.0117259 -0.0377292 0.00687232
65 6 1 0.0707294 11.8573 0.784474 0.00761234 -0.000613886 -0.000668605
67 6 11 19.9331 10.8286 0.370352 0.0180468 -0.0141333 -0.0102909
729 64 11 13.9721 12.5788 3.66506 0.0940771 0.0482329 0.0165818
383 32 11 18.4118 14.2924 2.00984 -0.0792572 0.016296 -0.024081
382 32 11 17.1227 13.9617 1.34481 0.0909613 0.0479809 0.0839238
378 32 1 17.3752 14.7366 1.9366 -0.01175 0.0220774 0.0160792
384 32 11 17.7586 15.5204 1.07382 0.0377217 0.0883006 -0.00717921
70 6 11 0.218701 11.0249 5.39163 -0.07006 0.0775736 -0.0922028
64 6 19 18.7541 11.1269 3.87534 -0.0106332 -0.00801935 0.00729989
66 6 1 19.3073 11.356 5.31954 -0.0200789 0.0134971 0.0153016
54 5 1 2.48428 0.206719 4.08415 -0.0114036 -0.00113631 0.0076692
104 9 11 2.01629 13.8978 1.0079 0.0390042 -0.0126112 -0.016136
240 20 11 3.54944 17.6645 2.54696 0.0290669 -0.00710024 -0.0425013
239 20 11 5.14321 16.9655 3.04025 -0.0368186 0.00932149 -0.0434173
238 20 11 4.18948 15.8371 2.09392 0.017796 -0.0170468 0.0658302
234 20 1 4.41226 16.8948 2.16186 -0.00307382 0.00947001 0.00340897
232 20 19 4.73078 17.3136 1.06069 -0.00587708 -0.00333504 0.0102562
105 9 11 1.3651 15.2654 1.06136 -0.0554978 0.0392676 0.00458673
103 9 11 2.83992 15.5137 0.200602 -0.0515393 0.0208796 0.0216054
380 32 11 0.180376 16.7684 3.28372 -0.0443681 0.0278163 -0.00869303
377 32 1 19.6749 17.6644 2.89155 0.00468387 0.00054224 -0.00225071
379 32 11 19.5856 18.027 3.97832 0.0573247 0.0198526 0.000546452
60 5 11 2.3351 19.5872 3.18716 -0.0487196 0.0770506 0.0169148
58 5 11 3.25229 0.143731 4.80147 -0.0654115 0.0336563 0.00312383
242 21 20 2.52735 15.6822 4.62415 -0.0012653 0.00770228 0.0141003
101 9 1 2.09375 14.8919 0.415516 0.00197132 -0.00667837 0.00370178
516 43 11 8.1274 18.5012 3.48367 0.0476652 0.0383291 -0.0244284
652 57 20 6.53959 16.4924 5.18833 -0.0199584 0.0132951 0.00605755
515 43 11 6.91033 18.6466 2.642 0.0859329 -0.0438336 0.100235
230 20 20 6.76257 16.6779 1.54434 0.0246193 -0.00129223 -0.02503
229 20 9 6.02061 17.2664 0.719468 0.0245945 -0.0149316 0.00975082
514 43 11 6.92942 18.8314 4.28049 -0.0235009 -0.0237453 -0.0955698
510 43 1 7.40064 19.1203 3.44679 0.0158155 -0.00724814 -0.00414855
191 16 11 9.04857 16.7167 1.81085 0.0801368 -0.0810584 -0.0599503
662 58 20 7.32427 14.3126 0.458156 0.00960717 -0.00751399 0.00276771
231 20 19 6.34053 18.2826 19.7915 -0.0203715 -0.0115952 -0.00612279
73 7 9 11.5084 14.0924 0.361949 0.00936783 -0.0197917 0.00157509
182 16 20 12.5869 16.8582 3.7292 0.0063839 -0.0144672 -0.00260826
186 16 1 10.0621 17.3431 2.13695 -0.0130955 0.0126281 0.0186416
192 16 11 10.5097 17.8727 1.33835 -0.0417073 -0.0092955 -0.0132995
190 16 11 9.79608 18.2343 2.67844 -0.129224 -0.0452853 -0.0436252
184 16 19 11.0429 16.642 2.43663 0.0024005 -0.0156908 3.77065e-05
181 16 9 12.3377 17.2789 2.63884 -0.00284051 -0.0068985 -0.012121
183 16 19 13.3787 17.1525 1.92073 0.000555138 -0.016446 -0.00989871
185 16 1 14.4968 16.257 1.94356 0.0177003 0.0211982 0.0130871
187 16 11 15.4129 16.6302 1.97454 0.0435514 -0.0104083 0.0277069
188 16 11 14.1861 15.4105 2.53929 -0.0970842 -0.00169486 -0.0738534
640 55 11 14.5823 15.1777 5.15285 0.0861991 0.0456235 -0.00916864
376 32 19 17.0518 15.393 3.23761 -0.00315366 0.00709379 -0.015059
189 16 11 14.5594 15.685 0.87169 0.0171111 -0.0418766 -0.102385
755 72 26 16.0394 18.7202 0.0121149 -0.0120977 -0.004923 -0.00247343
373 32 9 17.343 16.911 3.53564 0.0137581 0.0111911 -0.00873386
375 32 19 18.1359 17.1548 2.61955 0.00287105 -0.018492 0.00933553
125 11 1 15.2559 19.943 3.42858 -0.00457734 -0.00604174 -0.00794949
127 11 11 14.8209 19.5913 4.4191 0.0213646 0.0144731 -0.0236236
381 32 11 0.261007 18.452 2.17683 -0.0781777 -0.00428553 -0.0036648
129 11 11 16.2312 19.7531 3.53767 0.0444994 -0.0527467 0.0125203
374 32 20 16.7491 17.5919 4.36613 -0.0155204 -0.0073798 0.00840255
57 5 11 3.98898 3.40205 5.86702 -0.0379739 -0.0242196 0.0599532
691 61 9 2.07189 2.38678 7.4921 0.00562623 -0.00248975 -0.00627282
693 61 19 1.04773 3.1119 7.25817 -0.0108747 -0.0032598 0.00484055
692 61 20 2.16364 1.20293 7.32642 0.0109452 -0.00057396 -0.0114704
694 61 19 3.25844 3.16538 7.81884 -0.00561415 0.00452958 -0.00413463
698 61 11 1.00068 4.55808 6.8677 0.0101389 -0.0472015 0.0348414
696 61 2 1.43759 4.23857 7.74638 -0.00930189 0.0021656 -8.80743e-05
695 61 2 2.934 4.39086 7.54511 0.0143701 0.00316727 0.00027947
53 5 1 4.62001 2.79639 5.18371 -0.00997648 0.00114795 -0.0132036
699 61 11 3.10357 5.14446 6.67887 0.0125819 -0.0871905 -0.00391905
506 43 20 7.68462 1.90461 4.6056 -0.00434532 -0.00541913 -0.0126339
511 43 11 9.96747 3.01073 5.62654 0.00284105 -0.0429469 -0.0390689
512 43 11 9.26962 3.85803 4.14359 0.0406471 -0.0933455 0.0156199
55 5 11 4.59376 2.00667 5.94387 -0.00686596 0.0904631 0.00902812
86 8 20 6.0144 1.76667 7.75491 0.0052479 -0.00645999 0.00599143
85 8 9 6.14168 0.65431 8.29525 0.0104 -0.00843024 0.0009844
87 8 19 6.71763 0.877494 9.70194 0.00697792 0.0241981 -0.0112728
481 41 9 7.55197 5.58205 6.49677 7.10673e-05 0.0165584 -0.0157525
482 41 20 7.84852 4.61693 6.12051 0.0120427 -0.00824469 -0.0159732
483 41 19 8.24582 6.52735 6.00571 0.00146396 0.0126846 0.00538258
91 8 11 7.08186 19.2014 9.88205 -0.0478375 -0.017335 -0.0191711
509 43 1 9.94068 3.04335 4.39838 -0.0128823 -0.0158125 0.0284853
122 11 20 14.0042 1.62074 5.03761 0.0126557 -0.00509856 0.0154126
556 47 2 11.0531 0.980503 7.29471 0.0118607 -0.00177525 -0.00959797
553 47 19 11.2292 0.319695 6.15255 0.00734152 -0.0103457 -0.0113159
558 47 11 10.3442 1.90311 7.39766 -0.022744 0.0260097 0.0926654
557 47 11 11.9678 1.45094 7.51762 -0.0433783 0.0767535 0.00759138
364 31 19 14.0743 4.63963 8.03896 -0.0328857 0.0256934 -0.00471719
361 31 9 12.7785 5.1115 7.34932 -0.00652092 0.00320435 -0.0203515
362 31 20 11.7695 4.5955 7.62093 -0.00216022 -0.00660402 0.0112162
370 31 11 14.7395 2.89501 7.13099 0.0449319 -0.0536994 -0.0458861
570 48 11 11.1438 5.57861 11.3235 0.0207185 0.0194 -0.0249768
565 48 2 10.6009 5.07144 10.5737 -0.0240579 0.0113211 0.000205788
560 47 11 11.0107 19.7913 9.32005 0.0353399 0.0407359 0.0397065
282 24 1 14.6843 19.0758 7.59364 -0.00530156 0.00943959 -0.00293094
551 47 9 10.7644 19.3021 6.48173 -0.0157724 0.0102375 -0.00373273
286 24 11 14.3512 18.1938 8.16293 -0.0510163 0.0395367 0.0859274
569 48 11 11.3734 4.97105 9.87998 -0.0384238 0.0154678 0.0412336
119 10 11 15.7315 3.87405 5.00972 -0.0148944 -0.0203201 -0.0143163
118 10 11 16.8222 3.94173 6.1034 -0.0192679 -0.00506757 0.0685331
114 10 1 16.4546 4.67381 5.20759 0.0116567 0.00476006 0.0101492
112 10 19 17.6291 4.69044 4.4284 0.00062146 -0.00919187 -0.020789
120 10 11 15.7016 5.36069 5.1255 -0.0485925 0.0221771 -0.0343658
110 10 20 19.8325 3.78868 4.73642 -0.0125784 0.00501314 -0.00588196
301 26 9 0.531985 1.23579 9.79493 -0.00315974 0.00253784 0.00194602
372 31 11 13.0204 2.9689 8.12697 -0.0606764 0.114873 0.0883038
366 31 1 14.0831 3.23498 8.03599 0.00712773 -0.0211367 0.000776988
371 31 11 14.2062 2.77503 9.04564 -0.0578422 0.000431305 0.0310779
280 24 19 15.64 19.3795 8.34894 0.0064942 -0.0117025 0.0215633
277 24 9 16.5501 0.30929 7.8187 -0.0167462 -0.00624143 0.000678259
279 24 19 16.9434 0.0576566 6.4683 -0.00998072 0.00239788 -0.00309034
285 24 11 17.9622 1.76837 6.0229 -0.00882072 0.0183387 -0.0131458
278 24 20 16.3584 1.44542 8.40782 -0.00478299 -0.00334137 -0.0125077
310 26 11 18.9275 4.41947 9.68124 -0.0190269 0.0104265 -0.0220743
304 26 19 0.0520037 2.57056 9.98962 -0.00482849 0.00440991 0.0133818
312 26 11 18.6171 2.80285 8.59216 0.00133006 -0.026925 0.000874831
306 26 1 18.768 3.28573 9.65103 0.0198907 -0.000667946 0.00261961
43 4 11 2.6952 10.4512 5.7586 -0.00897507 0.01877 0.0307
700 61 11 3.38139 4.88149 8.49697 0.0131276 -0.043058 0.0236314
697 61 11 1.40815 4.81541 8.75186 -0.0286575 -0.0431409 0.0395767
354 30 1 2.35006 9.36537 9.52108 -0.00413336 0.00944526 0.00302425
492 41 11 4.58096 6.90023 6.55959 -0.012733 0.100938 -0.0724825
357 30 11 6.53736 6.75708 9.5318 -0.0506231 -0.0196859 0.0382798
40 4 19 1.20929 6.78023 5.93145 0.00609549 -0.00290972 0.00630004
358 30 11 1.77529 8.49704 9.78636 0.0503217 -0.0111864 -0.0443972
356 30 11 5.81219 6.8023 10.7846 -0.0561992 0.0134922 0.134936
355 30 11 4.7678 6.46492 9.77178 0.062263 -0.0133495 0.117842
484 41 19 6.31292 5.84896 6.94852 -0.0107164 0.000586124 0.0120549
486 41 1 5.52152 6.63524 6.13675 0.00468898 0.00231276 -0.0210257
485 41 1 9.2092 7.17028 7.05086 0.0228104 0.0272478 0.00735241
353 30 1 5.70322 7.01721 9.76534 0.011546 0.016703 -0.0203839
487 41 11 9.70725 6.24143 7.46646 0.0501397 0.0111498 -0.004547
489 41 11 9.95305 7.88724 7.15156 0.0123147 -0.114337 -0.0876773
488 41 11 8.58709 7.49703 7.91693 0.0228273 0.0405486 0.0452328
479 40 11 7.52178 11.0019 6.84701 -0.0797574 -0.0146854 0.0149494
472 40 19 9.11053 10.0165 7.95887 0.00157962 0.00488983 -0.00409572
568 48 11 8.30869 5.42148 9.74193 -0.0449527 0.0280459 0.0099411
363 31 19 12.7833 6.13046 6.3609 0.0113121 0.000966552 -0.0045836
473 40 1 12.8189 10.1495 8.08495 -0.00486671 -0.0046008 -0.00704075
476 40 11 13.2497 10.6417 7.32479 0.0798266 0.0820868 0.0114062
475 40 11 12.7623 9.33145 7.56652 -0.0692712 0.0344542 0.0491949
365 31 1 13.9108 7.18355 6.20672 -0.0334047 0.016294 -0.018325
368 31 11 13.2425 8.00534 5.54741 -0.0560935 0.045156 -0.00192032
369 31 11 14.2875 7.80799 7.17246 0.0169046 0.0196603 0.0139233
367 31 11 15.0364 7.52972 6.08249 -0.00256499 -0.0207769 0.0574213
548 46 11 15.3682 7.7665 10.1513 -0.0209499 -0.0197722 -0.0455097
547 46 11 14.1862 6.27537 10.6284 0.098766 0.0184732 -0.017998
546 46 2 15.2471 6.63647 10.1094 0.0321586 0.000529034 0.0141873
609 52 11 11.4436 7.9783 10.1071 0.0093208 0.0315233 0.0499882
542 46 20 17.4443 6.57132 7.72395 -0.000143466 0.00450097 -0.00579767
46 4 11 1.47605 6.7863 8.209 -0.0602872 -0.0105733 0.0425703
48 4 11 0.630577 8.31501 7.23106 0.0760402 0.0474378 -0.0967823
42 4 1 0.763041 7.21367 7.3064 -0.015256 0.0119419 0.00506128
543 46 19 15.4634 6.89063 8.87092 0.0212092 -0.0103568 -0.0100851
47 4 11 19.8738 6.79277 7.61654 0.0175179 -0.00299085 -0.0663919
541 46 9 16.9928 6.78256 8.80063 0.00868693 0.00469271 0.0178198
6 1 1 16.9126 10.1263 7.22352 -0.00488053 -0.00682321 -0.00132951
12 1 11 16.7882 9.27082 6.58643 -0.0367167 -0.0609507 0.00966033
1 1 9 18.4599 10.0433 8.71011 -0.00157643 -0.0308963 0.0374911
2 1 20 19.4384 9.21769 8.93352 -0.00809493 0.0103956 0.000202883
11 1 11 15.9318 10.1748 7.70149 0.0786195 -0.0315168 -0.0485522
248 21 11 2.60829 13.5967 6.21788 0.0474405 -0.0381855 -0.0276964
360 30 11 2.52618 9.09394 8.48363 0.0150877 -0.0119368 0.0278029
245 21 1 1.63112 13.922 6.10828 0.00346313 0.00524457 0.022447
247 21 11 0.736967 13.1693 6.38322 -0.0342041 0.00169045 -0.0176981
612 53 20 3.75772 11.2823 7.51078 -0.0128389 0.000202857 -0.0106823
249 21 11 1.34523 13.636 5.15841 -0.0389491 0.0149389 -0.0444456
613 53 19 4.30739 13.6242 7.82038 0.00298749 0.0145387 -0.010544
582 50 20 0.569597 13.6238 8.82215 -0.0209529 -0.000739517 -0.00528064
581 50 9 1.34554 13.8858 9.84351 0.012305 0.000767677 0.00480324
584 50 19 1.90153 12.5743 10.2029 0.00569418 0.000241326 0.0145916
616 53 2 5.47663 14.1386 7.51144 0.00327184 0.0140796 0.00856591
478 40 11 6.98733 10.431 8.38171 -0.0560205 -0.0945065 -0.0566714
474 40 1 7.87884 10.2531 7.58082 0.0201198 0.012437 -0.0115772
480 40 11 7.56211 9.23276 7.68077 0.0593264 -0.0364904 0.0294798
611 53 9 4.54257 12.2009 7.42986 0.00187282 -0.0147487 -0.00265752
615 53 2 6.36899 13.3035 6.60027 -1.61e-05 0.00191704 -0.0073136
614 53 19 5.50726 12.0838 6.64516 -0.0133829 -0.0214483 3.36481e-05
620 53 11 7.4656 12.9686 6.71449 0.0454799 -0.0119428 0.0210597
619 53 11 6.21208 13.8147 5.56535 0.0467588 -0.0261579 0.0663665
730 64 11 14.4443 11.8505 4.09866 -0.0753103 0.0715543 0.020799
469 40 9 10.1628 10.6548 7.3496 -0.00214851 0.0092177 -0.00607919
471 40 19 11.4637 10.9022 8.27061 -0.0121286 0.00912334 0.00755242
477 40 11 13.4034 10.4093 9.04696 -0.0327474 0.0416013 -0.0170047
470 40 20 10.235 10.4755 6.13571 0.00709992 -0.00978453 0.00878072
631 55 9 14.3635 14.1355 7.2588 -0.000657672 -0.0143628 0.00268615
634 55 19 14.7428 14.5377 6.08441 0.00869239 0.00188926 0.01975
632 55 20 13.8552 13.1664 7.29227 -0.0042298 -0.0136009 -0.0039134
633 55 19 13.6423 15.1082 8.02492 0.00605113 0.0055817 -9.43861e-05
152 13 11 12.0949 13.8084 10.2488 -0.0415781 0.0578081 0.112821
4 1 19 18.2966 10.1806 7.56274 0.000152297 0.00401543 -0.00669596
10 1 11 16.6424 11.1408 6.73632 0.062501 0.00664759 0.0234641
71 6 11 18.5987 12.3082 5.09567 0.0762772 -0.021266 0.0212367
72 6 11 18.8773 11.9289 6.24316 0.0839588 0.0907734 -0.0211706
3 1 19 18.8392 11.0177 9.47754 -0.00457797 0.00148777 -0.0195122
8 1 11 16.9538 12.4753 8.65358 0.0325656 0.0582578 -0.116847
682 60 20 18.166 14.631 6.24235 0.00283851 -0.00473203 -0.0163245
243 21 19 1.96226 15.157 6.63387 -0.00284219 -0.0113114 -0.0209039
241 21 9 2.38184 16.3002 5.66977 -0.00362687 0.0142505 -0.0146611
244 21 19 2.14665 17.8352 5.83414 0.0103276 0.000413011 -0.0100878
251 21 11 0.754071 17.2232 7.28902 0.0665059 0.0203999 0.0277133
246 21 1 1.65464 18.1075 7.35248 -0.00788925 -0.0104346 0.00645578
252 21 11 1.14267 18.894 7.73858 0.00105524 -0.00537121 -0.0340199
250 21 11 2.35026 17.6241 8.03753 -0.0395242 0.0446968 0.0738189
524 44 11 1.54313 17.5379 10.8459 -0.0561454 -0.00929738 -0.0420914
88 8 19 5.40497 19.6685 7.94174 -0.00393308 0.00366375 0.00718725
523 44 11 0.389516 17.3844 10.023 -0.00228195 -0.00551171 -0.00638952
521 44 1 0.567085 17.7777 10.9595 0.00187896 0.0125097 0.0137623
651 57 9 7.7262 16.2458 5.10581 0.00763266 -0.00787428 -0.0100687
653 57 19 8.60809 16.8209 5.88096 -0.00012864 0.00964246 -0.00973258
94 8 11 6.14875 0.183711 5.85536 -0.0308455 0.0891227 0.0261978
617 53 11 5.99563 14.3517 8.37568 -0.0728875 -0.0125012 0.0649052
656 57 2 9.88379 15.9187 5.54102 -0.0224325 -0.012368 -0.0103703
95 8 11 7.03716 19.1132 6.29092 -0.00973024 0.00245703 -0.00548415
96 8 11 5.53747 18.4312 6.14975 0.00277993 0.0240781 -0.0125443
90 8 1 6.02624 19.2785 6.59089 0.0011257 -0.0106772 0.00571933
618 53 11 4.48803 14.6089 7.24245 -0.0433915 -0.0688211 -0.0336828
503 42 11 6.0307 17.1132 8.16309 -0.0205079 -0.0525931 0.0618955
498 42 1 6.93565 17.0221 8.57781 -0.021291 0.000686275 -0.00224682
502 42 11 6.82445 17.1555 9.65823 -0.0605566 0.0155063 0.000589709
554 47 19 9.70461 19.2086 7.58449 0.00260576 -0.0138168 0.00571724
493 42 9 8.37922 15.3287 9.62092 -0.0144196 -0.0102177 0.0197038
504 42 11 7.34889 17.992 7.95205 0.0289643 0.0204272 -0.00371873
496 42 19 7.78249 15.7362 8.40333 0.00541232 0.00854426 0.017464
495 42 19 9.53384 16.096 10.0681 0.000663079 0.018111 -0.0202904
555 47 2 10.4369 19.8593 8.46669 -0.00829891 0.0258133 -0.00939102
559 47 11 9.45006 -0.00980626 9.09695 -0.0267509 -0.0401976 0.0388019
288 24 11 14.2849 19.8613 7.7906 0.00369268 0.0206205 0.0368613
287 24 11 15.3324 18.5931 6.91234 0.0469385 0.0228325 -0.0426306
636 55 2 13.4642 16.1873 7.05848 0.00229552 -0.0175915 0.00582742
635 55 2 14.4733 15.8687 6.04278 0.00810188 -0.00934721 -0.00354185
657 57 11 10.2272 16.6966 4.91388 -0.0105771 -0.0359944 -0.0443776
658 57 11 10.9723 15.4741 5.53556 0.0560643 -0.0232978 -0.0101146
500 42 11 11.3406 15.728 9.25589 0.00986329 -0.0221031 0.00576731
638 55 11 13.37 17.1189 6.51998 0.101818 0.00834718 0.0482589
637 55 11 13.7047 16.305 8.00479 -0.0233784 0.0252254 -0.0432766
552 47 20 11.7079 18.544 6.19138 0.00282793 -0.00523854 0.0118707
497 42 1 10.5775 16.2302 8.98245 0.00563181 -0.00129724 0.0337566
499 42 11 10.7083 17.3854 9.18001 -0.121749 -0.0821686 -0.0154781
501 42 11 10.7361 15.7221 7.91493 0.0535679 0.0611305 -0.0322124
703 62 19 13.3236 18.3644 11.1887 0.00971858 0.0351127 -0.00763287
284 24 11 18.1771 0.331063 5.12943 0.0652385 0.0172042 -0.0326732
281 24 1 18.1714 0.788075 6.16748 0.00700657 0.00104984 -0.0173459
283 24 11 19.1209 0.619404 6.61449 0.00831486 0.0143898 -0.0137887
302 26 20 19.9833 0.37226 9.05067 0.00496128 0.00972517 0.00138453
683 60 19 17.0052 14.5929 8.13728 0.000662368 0.00158649 -0.0158222
681 60 9 17.477 15.2856 7.02597 -0.016087 -0.00679482 0.0294732
686 60 2 16.5248 15.626 8.99431 0.00183302 0.0028123 -0.00163225
685 60 2 17.7291 16.5233 8.76354 0.0119114 -0.00541267 -0.000709212
690 60 11 17.3021 17.3357 9.09116 -0.0284787 -0.0698676 0.0839631
688 60 11 15.7641 16.0752 9.63942 0.0617363 0.0220647 -0.03859
687 60 11 16.7167 14.792 9.61321 0.029899 0.0162666 -0.0356217
684 60 19 18.0891 16.1885 7.48243 0.00124154 -0.0206527 -0.000775065
689 60 11 18.7722 16.4413 9.27517 0.0148577 0.0271101 0.0172425
525 44 11 0.0874248 18.5497 11.4529 -0.0709252 0.0221766 0.0771119
303 26 19 1.59931 0.626063 10.5639 0.00611799 0.00121331 -0.0113193
308 26 11 3.14649 1.92113 9.8005 -0.0268526 -0.0344353 0.0121277
305 26 1 2.79175 1.23803 10.5991 0.00347485 -0.00339614 0.00571424
309 26 11 2.40633 1.70958 11.4163 0.0469655 -0.00283922 0.107501
307 26 11 3.34536 0.462742 10.7916 -0.0245795 -0.0154654 0.0449257
226 19 11 1.48242 5.48303 11.1992 -0.0657236 -0.0702764 -0.0219552
224 19 11 5.99042 4.24767 11.2992 0.0541262 -0.052864 -0.0362005
622 54 20 0.429602 1.30544 13.3937 0.00125829 0.0051563 -0.00973564
624 54 19 0.31338 3.50756 14.065 -0.00373434 -0.00918425 0.00548297
219 19 19 4.74701 3.61293 11.98 -2.29458e-05 0.00486386 -0.00184912
221 19 1 5.33243 3.67781 10.6387 0.00721874 0.0128195 -0.0014808
225 19 11 5.30489 4.57497 10.0842 0.0234925 0.00832214 0.0215259
223 19 11 5.97286 2.72943 10.3314 0.120604 0.030384 0.0574921
621 54 9 19.9785 2.16142 14.1039 -0.00879086 0.00972796 -0.00323089
220 19 19 2.55714 4.43244 12.6125 -0.003341 0.00353725 0.00575595
217 19 9 3.94877 4.70108 12.5396 -0.00946229 0.00869866 -0.00775274
276 23 11 2.05417 7.17888 17.3682 -0.0632712 0.0955171 -0.0442205
89 8 1 7.20044 0.0512729 10.5666 0.0225073 0.0106411 -0.0108229
561 48 9 9.0824 3.61191 10.5294 -0.00692282 0.0106731 0.0163233
563 48 19 8.28262 4.727 10.5653 0.00203625 -0.0125133 -0.0125524
93 8 11 8.07431 0.280669 11.2504 0.00798929 -0.0150486 -0.0727129
416 35 11 5.92429 1.01745 12.5253 0.0308639 0.0425031 0.0443981
413 35 1 6.31826 1.0281 13.5448 -0.00153651 0.0146389 0.0208114
415 35 11 7.07793 0.49861 13.2244 0.0207545 0.0217856 -0.0379095
417 35 11 6.34782 2.05182 13.8002 -0.00546628 -0.0212403 -0.0245204
562 48 20 9.34081 3.16972 11.7164 -0.00569181 0.0195183 -0.00447149
735 69 31 4.85301 4.92 15.3002 -0.0249802 -0.0119684 -0.0141241
564 48 19 10.6251 3.94539 9.93243 -0.0179552 0.0270271 0.0157605
539 45 11 13.8377 4.42503 12.2696 -0.000875266 -0.0354154 -0.0204725
705 62 2 11.3155 18.4767 12.3843 -0.0134193 -0.00834496 -0.00801841
709 62 11 11.4092 18.5574 13.4047 0.0173908 0.00988631 -0.0277362
168 14 11 11.6041 1.76695 16.3048 -0.0105433 0.0104086 0.0300261
293 25 1 11.4174 4.75485 13.8051 -0.0017773 -0.0181943 0.00359485
295 25 11 12.0657 5.65721 13.6 -0.0129717 0.0418532 0.00229383
297 25 11 11.5536 4.12713 14.646 -0.0299155 0.0491188 0.0581186
704 62 19 11.8838 19.7995 12.186 -0.010881 -0.0126563 -0.0066022
566 48 2 9.06402 5.90358 10.4095 -0.00349413 -0.000376876 -0.000485451
702 62 20 13.0075 0.39578 9.94812 0.000402708 -0.0229077 -0.000504526
701 62 9 12.8182 19.6297 11.0277 -0.0131488 -0.0302176 0.0279288
167 14 11 11.3397 0.396851 15.0356 -0.0404236 0.0205129 0.113096
311 26 11 17.7085 2.92851 9.99293 0.0300405 0.0266937 -0.0316276
534 45 1 14.6363 4.1204 12.76 0.00515454 0.0112613 -0.0185005
540 45 11 14.526 3.56703 13.7095 0.0413849 0.0092981 -0.0609096
538 45 11 14.8215 5.16532 13.1529 -0.0925243 0.0323875 0.0880913
529 45 9 15.7715 2.37436 12.1649 -0.0182658 -0.0380677 -0.00862021
530 45 20 15.0101 1.45308 11.8545 -0.0261048 0.00380301 -0.00503391
532 45 19 15.6219 3.72459 12.0988 0.0109407 0.0175606 0.00096833
531 45 19 17.1555 2.01305 12.3923 0.00126123 -0.00130318 -0.00245473
533 45 1 17.3832 0.95281 11.4749 -0.0031557 -0.0118035 -0.0062099
627 54 11 17.5423 3.1365 14.5042 0.0387536 -0.0592119 0.047659
536 45 11 18.3818 1.53962 11.4293 -0.0293733 0.0011227 -0.048638
549 46 11 16.7183 5.14814 10.2379 -0.0124943 0.0222008 -0.0130726
630 54 11 19.467 5.06389 14.5192 0.0145857 0.0156019 -0.00508814
537 45 11 17.6054 0.225016 12.0983 -0.0422834 0.0192609 0.0150229
535 45 11 17.4987 0.862875 10.4152 0.0251046 -0.0314415 0.0108491
625 54 2 19.563 4.17354 15.0249 -0.0078263 0.0139448 -0.0185989
629 54 11 19.1204 4.5232 15.7998 0.00183499 0.0381288 -0.00161287
349 30 9 4.64219 9.26826 9.9565 -0.0105821 0.0129679 -0.0103681
351 30 19 5.41246 8.16196 10.4757 0.0183589 0.00188668 0.0288597
228 19 11 1.58154 3.75377 10.9763 -0.108482 0.069795 0.000259965
222 19 1 1.9903 4.67431 11.3902 0.0301762 -0.00955578 0.00586781
352 30 19 3.39648 9.47252 10.5066 -0.00133479 -0.00943619 0.00940366
227 19 11 2.54134 4.80214 10.3827 0.00868713 0.0311587 0.0426133
218 19 20 4.26868 5.93193 12.4079 0.00739262 0.00150048 0.000757725
427 36 11 1.50286 8.2728 13.3162 0.0436206 -0.0135266 0.0248028
429 36 11 1.20853 9.10495 12.6759 -0.0610752 0.0500083 -0.00771147
428 36 11 1.76943 8.04096 12.0187 0.0394529 -0.0112617 0.017952
425 36 1 1.01264 8.13692 12.6495 0.00721652 0.00913057 0.00264161
347 29 11 5.10885 9.86354 14.1752 -0.00997007 0.065694 0.0508393
423 36 19 0.495042 7.1985 13.4406 -0.00146949 -0.000975555 -0.000324245
290 25 20 8.29185 5.76865 13.4468 -0.00519662 -0.0100003 0.00378187
289 25 9 9.01181 4.90433 14.1238 -0.0196438 0.0229964 -0.0247822
342 29 1 5.60304 9.31489 13.5664 -0.00999419 -0.0408046 -0.000530044
348 29 11 5.32413 8.20235 13.3361 0.067983 0.102414 0.0446529
346 29 11 5.30197 9.84596 12.5638 0.00994078 -0.0244547 0.0740322
337 29 9 7.95608 9.32108 13.9024 -0.00238878 0.00292367 -0.00439355
338 29 20 8.16658 8.20067 14.4897 0.001341 0.00773974 -0.0127878
340 29 19 6.75753 10.0973 13.7166 0.0113075 0.0152655 0.000188831
567 48 11 8.23464 5.98785 11.1254 0.00836173 -0.0267244 0.0297327
296 25 11 11.0876 4.2462 13.0466 0.0582248 -0.00679792 0.055279
291 25 19 10.4321 5.34517 14.3858 -0.00779016 0.000152434 0.00212368
603 52 19 11.1728 7.53955 12.9043 0.00988239 0.000807023 0.0108996
601 52 9 12.5769 7.72056 12.3039 -0.00445504 -0.00499597 -0.0113237
605 52 2 11.7995 8.72775 10.9383 0.00077718 -0.0018084 -0.00744345
604 52 19 12.9649 8.39199 11.3275 -0.0132909 0.0103713 -0.00242011
608 52 11 9.79048 8.57188 11.1635 0.0925112 0.0225117 -0.0775462
606 52 2 10.5969 8.4189 11.8899 -0.00523512 0.0112766 -0.00621325
607 52 11 10.5593 9.22298 12.6466 -0.0460901 -0.0558851 0.101384
610 52 11 12.1944 9.81296 10.6468 0.0649975 0.0511381 -0.0685597
602 52 20 13.5383 7.60068 13.1761 -0.0207286 -0.0108964 0.00557853
550 46 11 16.4612 6.20151 11.7049 0.0392191 -0.00313955 -0.021223
545 46 2 16.4294 6.06108 10.6639 0.0137987 0.010884 -0.0111353
544 46 19 17.5846 6.28655 9.87181 0.0111826 -0.0112525 -0.0100558
422 36 20 18.6509 6.79178 12.3914 -0.00281472 0.00928573 0.0242301
421 36 9 19.1826 7.37354 13.2668 -0.00189781 -0.0155747 -0.0102945
426 36 1 17.0914 6.92304 14.5672 0.0166596 -0.0231477 0.0129992
430 36 11 16.9255 7.30563 13.6294 -0.0675049 -0.00867498 -0.0492672
424 36 19 18.6086 7.254 14.5973 -0.00676414 0.0107101 -0.0230602
431 36 11 16.3834 7.5356 15.4213 -0.00948767 -0.0197241 0.0583477
359 30 11 1.42667 9.77504 9.53341 -0.00127334 0.0694392 -0.0287409
590 50 11 3.31016 12.2355 9.70711 0.0256516 0.0113426 -0.064991
589 50 11 2.37279 12.8054 11.3294 0.0420353 0.0319045 -0.0265011
350 30 20 5.35337 10.4119 9.32583 0.00930857 -0.01539 -0.00541338
583 50 19 2.18195 15.0872 10.2859 0.00469439 -0.00997236 -0.0108667
585 50 2 3.09768 12.8905 10.5308 -0.00600245 -0.00258018 -0.00296569
588 50 11 3.66796 14.8701 9.45179 -0.00847565 0.0334392 0.118394
586 50 2 3.38174 14.6277 10.4697 0.0274775 0.00818554 0.00748833
587 50 11 2.92124 15.3716 10.9198 0.036583 0.00917874 -0.0518466
318 27 1 2.27196 13.1112 14.3578 0.00666686 -0.00399186 0.0119401
323 27 11 1.72202 13.2331 13.3189 0.0375454 -0.0207084 -0.0537278
316 27 19 3.556 12.8684 14.8867 -0.00524721 0.000782245 -0.0109857
322 27 11 2.09173 12.1634 13.8877 0.00314107 0.0653336 0.0302092
314 27 20 4.51653 11.8757 12.913 0.00135642 -0.00398008 -0.0129796
313 27 9 4.34126 12.7792 13.6335 0.0167098 -0.0335895 -0.0118024
315 27 19 4.73128 13.9313 13.158 -0.0026908 0.00395501 -0.000739077
154 13 11 7.27363 10.7699 10.6704 -0.00619792 -0.0925033 0.0373422
339 29 19 8.97387 10.0569 13.6606 0.0206729 0.00419929 0.00491563
150 13 1 7.31421 11.7561 10.9042 -0.000743974 0.00709241 -0.0248005
148 13 19 8.24444 12.587 10.2539 0.00729132 -0.00713664 -0.00943479
146 13 20 9.78306 10.9054 10.8114 -0.00276583 0.00552646 -0.0227642
156 13 11 7.10132 12.099 11.8581 -0.0778094 -0.00268548 0.0501285
155 13 11 6.34162 12.2104 10.2934 0.0248312 -0.0139559 -0.0115325
341 29 1 9.54748 11.3359 13.8986 0.00136271 0.0208435 0.026786
456 38 11 6.21617 12.479 16.0287 0.0482771 -0.00589002 -0.00959107
445 38 9 8.19671 14.8767 15.2222 -0.00493072 0.0312103 0.00210153
345 29 11 9.74407 11.8199 14.8741 -0.059432 -0.0293464 -0.0687322
452 38 11 10.8666 14.0815 14.2322 0.0354927 -0.0625332 -0.0100695
454 38 11 7.75 11.6395 15.9983 0.0164025 -0.00225066 -0.045123
450 38 1 7.1421 12.7049 15.5253 0.0152568 -0.000121596 -0.0150428
147 13 19 10.2193 13.1023 11.5425 -0.00604272 7.21576e-06 -0.0124143
145 13 9 9.55573 12.1677 10.6782 0.00429348 0.00949316 0.025265
343 29 11 9.19236 12.0804 13.4249 -0.0136723 -0.0562618 -0.00775804
36 3 11 14.4795 11.9984 13.5593 -0.05177 -0.00241542 0.0108637
149 13 1 11.3701 13.4351 10.9955 -0.0126538 -0.0235345 -0.0102539
153 13 11 11.8336 13.7947 11.9261 -0.0440522 0.010017 0.0219261
151 13 11 11.7841 12.5866 10.6207 0.0954819 -0.065918 -0.00651076
35 3 11 14.6732 12.7634 11.976 0.0748244 -0.0113749 0.0409482
30 3 1 14.7868 11.9443 12.5597 -0.0032653 -0.000254786 -0.0104924
34 3 11 15.4408 12.8464 12.5642 -0.0541695 -0.000618779 0.0520949
26 3 20 15.431 9.04302 12.9679 0.0044002 -0.00127619 -0.00732374
9 1 11 17.8943 12.4762 8.16794 -0.0291546 -0.0618606 0.0178092
5 1 1 17.7244 12.205 9.3146 -0.0146298 0.00651397 0.0367548
7 1 11 18.1281 12.504 10.3066 0.0659399 -0.0458673 0.00218961
25 3 9 15.8386 10.0447 12.5137 0.00426026 0.00810047 0.00629518
32 3 11 18.845 10.1289 13.6423 -0.0985132 -0.0250691 0.0582906
31 3 11 17.2904 10.21 14.3047 -0.0374501 -0.0117244 -0.0690137
27 3 19 17.2904 10.3119 12.242 0.00259441 -0.00252403 -0.0184304
29 3 1 17.8625 10.6173 13.481 0.0183935 0.0166383 -0.0193388
33 3 11 18.7602 11.2397 13.3537 -0.0743582 -0.00406775 0.00207364
28 3 19 15.044 10.6861 11.8387 -0.000133751 -0.00716171 0.00302435
526 44 11 18.9257 13.5027 12.1604 -0.0178137 0.0545423 0.010029
522 44 1 18.3392 14.294 12.6682 -0.0143612 0.00329331 0.00660029
262 22 11 14.0674 15.589 12.9744 0.0353063 -0.0889716 -0.00781748
527 44 11 17.668 13.7626 13.1557 -0.00574125 -0.0343573 -0.0382162
434 37 20 4.86461 17.9562 10.5045 0.0055294 -0.0130692 -0.00916719
317 27 1 5.08326 15.005 13.9766 0.0267807 0.0166739 0.00266445
321 27 11 6.1762 15.2719 13.8723 -0.0222454 0.0437676 -0.00655418
443 37 11 3.54123 19.5675 13.3242 -0.00545276 -0.0344697 -0.0137625
444 37 11 1.86939 19.2292 12.8665 -0.0196925 -0.0287372 0.0798625
438 37 1 2.81298 18.8282 13.1337 0.0263763 0.0058684 0.008608
442 37 11 2.98649 18.2759 13.9659 -0.0666638 -0.0128772 0.0190334
436 37 19 3.16281 17.8609 12.2725 2.83784e-05 0.00440981 -0.00809022
433 37 9 4.58942 18.0438 11.7455 -0.0171348 -0.0139895 -0.004802
319 27 11 4.67738 16.0755 13.8272 -0.0482134 0.0411641 -0.0117658
519 44 19 0.0759353 16.6151 11.6014 -0.0359761 0.0168661 0.00136008
92 8 11 6.30129 19.7495 11.2607 -0.00963739 0.0278965 0.0386676
494 42 20 7.50343 15.0559 10.4073 0.0122825 0.0181461 -0.0154911
447 38 19 8.9466 14.9582 14.0979 0.0286684 -0.00212996 -0.00191617
435 37 19 5.5491 17.8434 12.7004 -0.000621084 -0.0199751 -0.00262401
441 37 11 7.34772 17.7646 11.916 0.00348288 -0.0771792 -0.00658899
437 37 1 6.78217 17.3361 12.6691 -0.00118914 0.0136591 0.00691658
439 37 11 7.45484 17.7148 13.5287 -0.019025 -0.00654742 -0.019296
440 37 11 6.81182 16.4001 12.0716 -0.106364 0.00482904 -0.0180062
453 38 11 10.4076 15.6828 14.5961 -0.1003 -0.00658399 -0.0162849
710 62 11 10.3328 18.8644 11.869 0.0260187 0.0425134 0.0104305
449 38 1 10.1172 14.8088 14.0069 0.000955298 0.00297114 0.00532444
451 38 11 10.4197 15.4432 13.3143 0.0357406 -0.0371404 0.0103575
708 62 11 12.9069 17.6999 12.2714 -0.0046609 -0.0401869 0.00720909
707 62 11 12.4823 17.3314 10.5736 0.0045841 -0.0761306 0.0513295
706 62 2 12.1735 17.5498 11.5941 0.00505872 -0.0106247 0.0181496
157 14 9 13.6356 19.641 14.9541 0.000887522 -0.0146455 0.00625701
158 14 20 13.1166 18.6695 14.6073 -0.000693198 0.0151328 0.0119911
165 14 11 15.7483 18.6675 13.8681 -0.0583693 -0.0125026 -0.00678228
164 14 11 16.3815 19.4898 13.1104 0.0574233 -0.0184615 0.0213872
263 22 11 15.6137 16.0374 12.5242 -0.043058 0.0326967 -0.0493851
528 44 11 18.9536 14.8318 13.2702 0.0398646 0.00998779 -0.0568056
408 34 11 0.325048 19.4231 15.3654 -0.0458359 0.03542 0.0904094
256 22 19 14.8613 16.4466 14.4751 0.00336628 0.000988008 -0.0146157
264 22 11 15.1628 14.8057 13.8822 0.0543887 0.0271768 -0.0322689
258 22 1 14.8166 15.7039 13.3233 -0.0248127 0.00563004 0.00549584
517 44 9 18.678 16.7187 12.0113 -0.000910429 -0.00431479 -0.00100458
520 44 19 17.8267 15.5212 12.0444 -0.000585698 0.00050665 0.0028448
518 44 20 18.0253 17.823 11.9799 0.00438711 -0.024209 -0.00747928
159 14 19 14.6938 0.307607 14.4477 0.000562658 0.00788256 -0.000763311
161 14 1 15.8765 19.6329 14.0885 -0.0117062 0.00628761 0.00921674
163 14 11 16.7655 19.7803 14.8978 0.0468278 0.07 -0.0180891
420 35 11 2.35521 0.257861 15.5434 0.0130236 0.0490995 0.00770344
144 12 11 2.60201 0.930545 0.0474569 0.0433619 -0.0206822 -0.00453644
138 12 1 3.65613 0.745339 0.398533 0.000404222 0.000382658 0.00546559
419 35 11 2.32825 1.96839 15.0907 0.0515652 0.0100095 -0.012397
414 35 1 2.81738 1.23245 15.6832 -0.00232223 -0.00185988 0.0115834
418 35 11 2.65984 1.7418 16.6285 -0.0158399 -0.0594433 -0.0632159
412 35 19 4.23308 1.54856 15.6198 0.00190275 0.00788749 -0.00547595
647 56 11 4.49422 4.61537 19.7037 0.0466418 -0.0216149 -0.00435206
646 56 2 4.88721 4.60918 18.7415 0.00785994 0.00862542 0.00491386
643 56 19 4.64065 3.852 17.5999 -0.020627 0.000974363 -0.0118704
749 71 26 0.867641 3.25387 17.7918 -0.000128609 -0.0107118 0.00609117
409 35 9 5.23531 0.346245 15.8458 0.00734701 0.0150629 0.000838854
731 65 31 18.5091 1.81227 0.139235 0.0115235 -9.86205e-05 -0.027075
747 71 26 0.0315468 2.23104 19.5381 -0.00958339 -0.0102885 0.000945697
743 71 27 0.10617 3.77955 19.0716 0.000951778 0.00376455 -0.000643206
648 56 11 4.07274 3.86232 18.3215 0.068891 -0.0513459 -0.0288278
744 71 26 1.36524 3.73056 19.8773 0.00388895 -0.00843256 -0.0109564
410 35 20 5.09119 19.8979 16.9639 -0.000476982 -0.010375 0.00120908
300 25 11 10.2074 3.39972 15.845 0.0423907 -0.0365387 -0.061089
294 25 1 9.1259 3.14969 15.7691 0.0238663 -0.00924784 0.0154275
292 25 19 8.36602 4.0857 14.9347 0.00633696 -0.0049835 -0.00392224
642 56 20 6.08743 3.84826 15.7917 -0.0108612 0.00888591 -0.0107457
298 25 11 8.34287 3.25617 16.5485 -0.0313607 0.0147139 -0.0091568
760 73 26 9.35414 3.1233 19.0419 0.000865018 -0.00504563 0.00209117
763 73 26 9.74528 1.36411 18.4658 0.00884755 -0.0161681 0.0244319
757 73 27 9.73419 1.85693 19.8748 -0.00450493 0.0100262 -0.00673612
641 56 9 5.98415 3.63105 16.971 -0.00957872 -0.000748951 0.0220566
299 25 11 9.33021 2.01115 15.7004 0.000660689 0.0237106 -0.0913758
650 56 11 6.73416 3.8001 19.3493 0.0167664 -0.00754763 0.042594
645 56 2 6.42435 4.75925 18.5425 0.00598429 -0.00822338 0.0102702
644 56 19 6.93788 4.3662 17.5047 -0.00803916 0.00109184 -0.000302825
466 39 11 8.05489 19.5111 14.8774 -0.00159597 -0.00220249 -0.143242
468 39 11 8.61395 19.7897 16.4884 -0.0507648 0.0174986 0.0408879
162 14 1 11.9976 1.15368 15.5218 -0.0138952 -0.0005452 0.00244349
166 14 11 12.3546 1.81207 14.8087 0.117802 -0.0180857 -0.0564427
160 14 19 12.7885 0.130548 15.9589 0.00114364 0.00139706 0.0149838
758 73 26 11.0828 2.44406 19.6874 0.00729898 -0.0160911 0.00391076
194 17 20 13.2669 4.80366 17.8989 0.0208178 0.00316876 -0.00248898
196 17 19 13.6808 5.10357 15.6175 0.00734001 -0.0118553 0.000881411
195 17 19 13.8079 2.90012 16.6365 0.00236449 0.0116652 -0.0105391
193 17 9 13.6748 4.34872 16.8409 0.00122341 -0.000784231 0.0077014
732 66 31 12.3769 2.57929 0.644535 -0.00489618 -0.00636475 -0.00108014
201 17 11 15.6607 3.56183 17.3003 -0.00115086 -0.0730145 0.00785916
171 15 19 15.7865 3.38856 0.0506288 -0.0170897 0.00214885 0.00231337
173 15 1 16.9554 2.89598 0.601951 -0.0210086 0.0045729 0.000152852
177 15 11 17.6307 3.48216 1.24271 -0.0559673 0.0482036 -0.035267
176 15 11 17.5884 3.0255 19.7548 -0.00304798 -0.0406334 0.0430535
623 54 19 18.8604 1.83192 14.6938 6.84512e-05 0.00433512 0.00847309
626 54 2 18.3723 3.17334 15.1784 4.5043e-05 -0.00242644 -0.00928001
628 54 11 17.9232 2.93654 16.0645 -0.0107183 -0.0243631 0.0447465
748 71 26 19.4498 4.20172 0.287583 -0.00287935 0.00306467 0.0208278
200 17 11 15.296 2.0124 17.8622 -0.0595215 -0.0137186 0.108803
199 17 11 15.4554 2.25133 15.994 0.0656313 0.0293249 0.0542465
753 72 26 16.7621 0.18143 18.5195 0.0154325 0.00475544 -0.00146928
197 17 1 15.1592 2.61661 16.9514 0.00977557 0.00321567 -0.0259443
745 71 26 18.8366 3.62744 18.2047 -0.0104838 -0.00365197 0.016236
672 59 20 1.50348 7.64076 0.881417 -0.0143072 0.0330448 0.0140575
671 59 9 2.64903 7.86575 0.465249 0.013031 -0.0153167 -0.00990632
673 59 19 3.48408 7.42031 19.6671 -0.00138867 -0.0152054 0.00507341
676 59 2 4.73164 7.79543 19.9752 -0.00123583 0.00650148 0.017199
678 59 11 5.66125 8.12515 19.7775 -0.0459139 0.0135489 -0.00758555
275 23 11 1.4974 8.08267 15.842 0.111417 -0.00784741 -0.0334796
270 23 1 1.77447 6.98696 16.3619 0.00589577 0.0144403 -0.00957435
274 23 11 0.647756 6.65091 16.6534 -0.0257789 -0.0149886 0.101765
268 23 19 2.62664 6.44325 15.2123 0.00388779 -0.00171814 0.0112899
265 23 9 3.80878 6.95484 15.7991 -0.00887031 0.0079739 -0.00910026
266 23 20 3.83734 8.11807 15.6657 -0.00960086 0.00311877 0.000164757
768 74 26 0.834343 9.41241 17.943 0.00530845 -0.0184213 -0.000822884
766 74 26 19.5606 9.50523 16.0497 0.00300977 -0.000899037 0.0163445
267 23 19 5.18073 6.36352 16.2519 -0.0021225 -0.00806833 -0.00921566
746 71 26 0.37009 5.28077 18.5545 0.00546897 0.00541986 0.0121165
649 56 11 6.936 5.49268 19.0779 -0.00730552 -0.0135286 0.0119173
713 63 19 10.0763 7.1915 19.7118 -0.00868499 -0.00431888 0.00217126
716 63 2 9.26242 7.81475 18.8439 0.0140358 0.0168224 -0.0230239
717 63 11 8.18494 7.53931 19.2572 0.043264 0.0587884 -0.0245864
677 59 11 5.09767 6.79021 0.432649 -0.0281209 0.0242434 -0.0635369
269 23 1 6.20026 7.19752 16.5777 -0.0177299 -0.00625052 0.00925271
271 23 11 7.00707 7.07979 15.9338 -0.00524398 0.0660234 -0.00908873
272 23 11 6.53139 6.98884 17.7693 -0.0575687 -0.0242943 0.0633462
273 23 11 5.87833 7.92558 17.2712 -0.0226485 0.01294 0.0838708
714 63 19 9.28506 5.91928 18.0575 0.0161299 0.00289615 0.012373
715 63 2 9.60675 7.2121 17.3879 0.00936936 -0.0173318 -0.00587103
720 63 11 9.06782 7.82028 16.6598 -0.0119054 0.10743 -0.00587421
719 63 11 10.7261 7.29305 17.2391 -0.0777259 -0.0331602 0.155376
711 63 9 9.98412 5.97916 19.3129 -0.0160218 -0.00840228 0.0147314
386 33 20 6.7478 9.75855 18.741 0.0183056 0.00472273 0.00454795
599 51 11 15.4859 8.35163 17.9235 0.0348049 -0.0184767 0.0544897
712 63 20 11.1142 5.70727 19.5197 0.0134081 -0.00211536 0.0243336
202 17 11 12.4511 6.91926 15.2163 0.00878015 -0.0257223 0.104553
204 17 11 14.3047 6.88587 15.1701 -0.0261701 -0.0114849 -0.0211088
203 17 11 13.4386 7.03698 16.8488 -0.00793021 -0.0684508 -0.0217569
198 17 1 13.3077 6.54691 15.8791 0.00840001 0.0159707 -0.0134178
598 51 11 13.5287 8.72385 19.1733 0.00249503 -0.0147692 0.0323625
596 51 2 14.1717 7.83265 19.542 0.00600648 0.00929134 -0.0119117
22 2 11 15.0212 9.41597 15.1352 -0.0259955 0.0288016 -0.000392087
741 70 26 12.6572 9.60826 17.4617 0.0119527 0.0238727 -0.00636603
591 51 9 16.194 6.82926 0.0367307 0.0185645 -0.0574003 -0.0459455
432 36 11 17.2569 5.7644 14.7996 -0.0187567 0.0449683 0.0243573
594 51 19 16.6343 7.63561 19.2072 0.00252313 0.0128453 -0.00431275
595 51 2 15.6225 8.36003 19.152 -0.00170697 0.00661236 0.00768357
600 51 11 15.7223 9.4219 19.217 -0.0271989 0.0320495 -0.0156404
24 2 11 15.1824 9.99002 17.1582 -0.0130851 -0.122352 0.0117194
324 27 11 1.57728 12.8725 15.2037 0.0483304 0.0225057 -0.0137065
770 74 26 1.72242 10.7051 16.5888 -0.00464894 -0.000764175 0.00437754
395 33 11 3.79035 10.714 19.7127 -0.000525459 0.0282702 0.00214783
396 33 11 4.50381 10.2053 18.0564 0.0547612 0.0420457 -0.0348338
765 74 26 1.03267 11.0435 18.3356 -0.0236739 -0.00779528 0.0104909
764 74 27 0.277209 10.4239 17.2063 -0.00213548 -0.00455026 -0.0107727
390 33 1 4.44755 11.042 18.7955 -0.00336274 -0.0225523 0.0148997
663 58 19 5.15628 14.5303 19.8822 -0.0115674 -0.000134013 -0.0120042
394 33 11 3.88439 11.7885 18.4173 -0.0390012 0.0327549 -0.0207243
769 74 26 19.3533 10.0876 18.1987 -0.0347634 0.0196983 0.0132376
767 74 26 19.6615 11.6554 16.3446 -0.0136952 -0.007427 0.0181105
99 9 19 1.40126 14.6239 19.2495 0.00356738 0.00134177 0.000337095
455 38 11 7.13847 12.6994 14.4751 -0.0431576 0.0378706 -0.0247775
388 33 19 5.66267 11.674 19.3909 -0.00757652 0.0153546 -0.0134295
448 38 19 8.12679 13.6238 16.0596 -0.00993615 -0.0185663 -0.0228684
385 33 9 6.68581 10.7443 19.5408 0.00727775 -0.0151931 0.00609174
387 33 19 8.04264 11.0518 19.9701 -0.00236808 -0.0137248 0.011652
389 33 1 8.71867 11.6762 18.9143 0.00483543 -0.0255906 -0.00193809
391 33 11 8.95736 12.5894 19.2024 0.0730857 0.0104258 0.0277463
392 33 11 7.91686 12.1864 18.1889 -0.0170097 -0.0229924 -0.0217113
393 33 11 9.22991 11.3216 18.1172 0.000341506 -0.00947397 -0.00114552
80 7 11 12.3153 14.6675 17.4226 0.00138272 0.0301767 -0.00210903
344 29 11 10.6514 11.2501 13.6246 -0.0030954 -0.0188214 -0.0136385
738 70 26 11.4124 10.5286 18.9795 -0.0173598 -2.61273e-05 0.00415874
739 70 26 10.7681 10.3163 16.9504 -0.0120235 -0.0141644 -0.0136846
742 70 26 11.5051 12.3954 17.3999 -0.00299147 -0.0172305 0.0171791
736 70 27 12.0262 10.9425 17.4954 0.0105677 0.00555027 0.0212619
740 70 26 13.3309 11.5925 18.1057 0.00669853 -0.0100448 0.00546767
737 70 26 12.5455 11.2946 16.3318 -0.0135672 -0.00783511 -0.0411164
20 2 11 14.3291 13.8348 18.5795 0.0244042 -0.0896231 0.0190248
77 7 1 11.8126 15.006 18.2176 0.0115371 0.00325941 0.00311558
81 7 11 12.6092 15.577 18.1578 0.00694811 0.0225426 -0.0118301
69 6 11 19.2329 12.5023 0.740021 -0.0259303 -0.0591807 -0.0192881
108 9 11 18.514 12.9644 18.6758 -0.028066 -0.00917402 -0.0398716
23 2 11 16.1162 9.25876 16.4023 -0.0163117 -0.02239 0.0035967
18 2 1 15.4071 10.0826 16.069 0.00295375 0.00468768 -0.00801578
13 2 9 15.8352 12.4422 16.326 0.00489844 0.0210969 -0.0143291
16 2 19 15.7997 11.345 15.5222 0.015581 -0.00618903 0.00443029
15 2 19 16.2071 12.3226 17.797 -0.00595513 -0.00274139 0.0189552
17 2 1 15.3768 13.4116 18.6163 -0.0081675 0.00166902 -0.0177681
19 2 11 15.3841 13.3922 19.663 -0.0346127 -0.0259248 -0.0252217
14 2 20 16.6623 13.2641 15.8494 -0.00226278 -0.00707644 0.0130615
107 9 11 17.8878 14.7788 18.3666 0.0304707 -0.0266062 -0.0441004
102 9 1 18.5965 14.0808 18.6445 -0.00904856 -0.0157075 0.00484302
100 9 19 19.6548 14.4847 17.8137 0.00417387 0.008204 -0.005826
143 12 11 3.17334 0.493536 1.47849 -0.0463612 -0.0909075 -0.103409
400 34 19 0.24879 17.443 16.146 0.00570731 -0.00905201 0.00712048
320 27 11 4.75075 14.6748 14.8712 0.033665 0.0803664 -0.0227967
142 12 11 4.08766 20.0395 19.8524 0.0132926 0.0212841 0.00659174
668 58 11 4.33129 13.9806 19.4034 -0.0231461 -0.0278005 0.0290075
666 58 2 4.60669 14.8413 18.7111 -0.0198308 0.00580611 0.00910061
398 34 20 1.67961 16.1556 14.8462 -0.00637554 0.00913763 -0.00521524
397 34 9 1.51831 17.2541 15.6204 0.00495788 -0.00870189 -0.00353035
399 34 19 2.6888 17.5533 16.4083 -0.00273748 -0.00561 -0.00317128
401 34 1 3.00355 17.8854 17.8542 -0.00191742 0.0176069 -0.00646903
405 34 11 3.68932 17.0434 17.9879 0.00846368 -0.0444966 -0.023027
403 34 11 3.29924 18.9043 18.0466 -0.0144429 0.00844114 0.0265518
667 58 11 3.69081 15.3587 18.3138 0.0384244 -0.00644975 0.0448569
404 34 11 2.468 17.1869 18.5451 -0.00517134 0.00756036 0.0413638
670 58 11 6.02755 15.1766 17.0288 -0.0413162 -0.0423342 -0.035927
406 34 11 18.9741 18.7994 15.6387 -0.0290432 0.0366587 0.0642842
97 9 9 0.434839 15.4495 18.6135 0.0131367 0.0201922 0.00531075
98 9 20 0.0258819 16.6145 18.7679 -0.0120964 0.00290447 0.00233758
236 20 11 8.39125 17.8821 0.415622 -0.0345094 0.0806338 0.0432763
411 35 19 5.75284 0.00507904 14.5844 0.00189583 -0.00161116 -0.014978
446 38 20 7.43212 15.7617 15.1789 0.000694762 -0.0155937 0.00568574
669 58 11 4.93964 13.7533 17.0637 0.00801914 -0.0975132 0.0242056
661 58 9 6.51223 14.5744 19.5751 0.00490804 -0.0126994 -0.0110752
664 58 19 6.86332 14.6331 18.2872 0.0179645 0.000708443 0.0118109
665 58 2 5.47169 14.4696 17.6092 -0.00882498 -0.000784611 0.00461247
467 39 11 7.71373 18.5921 16.5379 0.0577647 -0.005364 -0.030115
458 39 20 8.92892 17.2796 17.7372 0.00169684 0.00153606 0.00538044
237 20 11 7.75447 19.1773 19.0328 -0.0351109 -0.0384092 0.0515543
235 20 11 8.13179 19.3165 0.734059 0.0608137 0.0110157 -0.0594432
233 20 1 7.61709 18.5787 0.0603697 0.00473328 -0.0185524 0.00337005
460 39 19 9.26108 18.1024 15.523 0.0150078 -0.00318978 0.00382737
462 39 1 8.4672 19.1022 15.7716 0.018151 0.00217674 -0.00793084
457 39 9 9.71992 17.6601 16.8388 0.000131193 0.0107895 0.0155375
75 7 19 11.9317 15.1801 19.559 0.00787933 0.00780096 0.0167709
752 72 26 14.6539 19.5777 18.6014 -0.0040514 0.0058655 0.0085357
79 7 11 10.8146 15.3419 17.8273 0.079224 -0.0760604 0.0140809
459 39 19 10.9209 18.2715 17.1603 0.0027344 -0.000332216 -0.00664523
465 39 11 10.5401 19.2571 18.9873 -0.00355621 -0.132405 0.020436
254 22 20 13.967 14.8497 15.7925 -0.0140939 -0.0142453 0.00391295
464 39 11 11.8467 19.3902 18.3204 -0.0288339 -0.0189016 -0.0300693
461 39 1 11.3103 18.5516 18.5121 0.0213385 0.0154782 0.00166852
463 39 11 11.8598 17.5795 18.7528 -0.0205364 0.0635897 -0.00956678
754 72 26 15.1207 17.4598 18.3819 0.00242965 -0.00547524 -0.00782061
402 34 1 19.8194 18.4111 15.2641 0.011674 0.00796047 -0.0023369
261 22 11 18.2086 15.4168 15.9247 -0.00361236 -0.0192716 0.0472967
259 22 11 16.913 15.4908 14.5937 -0.000640728 0.00175195 0.0237182
21 2 11 15.9136 14.4213 18.5764 0.0140424 -0.0166066 -0.0829153
407 34 11 19.3425 17.9935 14.3037 -0.0437505 -0.0837448 -0.0576828
253 22 9 14.6923 15.8028 15.7624 0.000132353 -0.00915825 0.00509793
255 22 19 15.9103 15.6034 16.4773 0.00231575 -0.0058278 0.00453348
257 22 1 17.1399 16.0341 15.664 -0.0066024 -0.00485248 -0.0186254
260 22 11 17.284 17.036 15.3837 0.0112405 -0.0511948 0.00944895
750 72 27 15.9075 18.8591 18.4478 0.00370814 -0.011322 0.0029497
106 9 11 18.3074 13.9222 19.7779 0.0964952 0.0145925 -0.0654608
756 72 26 15.9128 18.9765 16.9385 0.00928216 0.00149536 0.00345341
751 72 26 17.2164 18.1838 18.3192 0.00801302 -0.00664028 -0.00750624
ITEM: TIMESTEP
1750
ITEM: NUMBER OF ATOMS
770
ITEM: BOX BOUNDS pp pp pp
0.0000000000000000e+00 2.0000000000000000e+01
0.0000000000000000e+00 2.0000000000000000e+01
0.0000000000000000e+00 2.0000000000000000e+01
ITEM: ATOMS id mol type x y z vx vy vz
136 12 19 4.31082 1.9857 0.50886 0.0132135 0.00102513 0.000917303
59 5 11 1.90668 19.5732 4.76981 0.0640051 -0.00678432 0.020526
52 5 19 1.68853 1.75279 4.29066 -0.00741319 0.00805629 0.0065873
49 5 9 2.65039 2.65689 3.85524 0.00276248 0.00359537 0.00991512
51 5 19 3.9865 2.44021 3.76775 -0.0114158 -0.00678857 -0.00682915
50 5 20 2.35501 3.85999 3.71663 0.0050396 0.00437275 0.0138306
133 12 9 5.53201 2.13665 1.39045 -0.0039389 -0.00773709 -0.00138022
135 12 19 6.15361 3.54935 1.5143 0.0161222 0.000119027 0.0123041
116 10 11 19.3631 1.56459 4.09497 -0.0236382 0.0467327 -0.0163127
134 12 20 5.64689 1.28642 2.30328 0.00508842 -0.00870036 -0.0159828
508 43 19 8.64573 0.102832 3.27384 0.00526059 -0.00878615 0.0105462
505 43 9 8.41921 1.21235 4.15724 0.00662594 0.00444222 -0.0165171
137 12 1 5.29466 4.63886 1.92005 -0.0176681 0.0234562 0.00497062
140 12 11 5.60131 5.44885 1.45234 0.0328959 0.0180345 0.0608447
56 5 11 5.64676 2.74195 5.18778 -0.0285768 -0.0475027 -0.00540238
762 73 26 9.62478 2.83873 1.10136 0.00195201 0.00753832 -0.0080069
141 12 11 4.21112 4.35039 1.85189 0.0467829 0.0306836 0.0404731
139 12 11 5.45611 5.02585 3.01259 -0.00267661 -0.0301028 -0.00630175
734 68 31 7.69732 3.88467 4.23001 -0.00107394 0.000651693 -0.0363669
759 73 26 8.1642 1.59721 19.8776 0.0115763 -0.00644361 0.0152288
761 73 26 10.4392 0.806035 0.440642 -0.00550776 0.00141503 0.00936341
507 43 19 9.72799 1.75279 4.05178 0.000252801 0.00816438 0.0175424
132 11 11 11.1087 19.6967 2.72597 -0.0378629 0.0629818 0.0720529
170 15 20 13.7364 2.59462 0.687293 -0.00982136 -0.00116326 -0.00720547
169 15 9 14.3017 3.75363 0.648331 -0.00716251 0.0169831 -0.0132303
174 15 1 13.1027 4.64496 2.08053 0.0100266 -0.00128814 -0.0067684
172 15 19 14.4202 4.44158 1.72178 -0.00357782 0.0158417 -0.000651435
130 11 11 12.8194 19.5411 2.24211 -0.0140244 -0.130899 -0.0298245
124 11 19 12.4372 1.3309 3.62834 -0.00825954 -0.0123492 0.0121065
513 43 11 11.1657 2.89236 5.50727 0.00351304 -0.0953469 -0.00167922
178 15 11 12.228 4.33753 1.64754 -0.0705232 -0.0273123 -0.0119295
126 11 1 12.1289 19.8666 3.14619 -0.00304799 0.0198934 -0.0236647
121 11 9 13.8191 1.34293 4.01156 -0.00798017 -0.0176374 -0.00418025
179 15 11 13.0112 5.89515 1.83542 0.0371747 0.0188235 0.0310615
131 11 11 12.225 19.124 4.02517 -0.0726707 -0.0135216 0.0589054
180 15 11 13.3939 4.80568 3.15761 -0.00997426 0.0620256 0.0455108
113 10 1 18.8926 1.78823 3.11423 0.00769419 -0.00510322 -0.00429812
115 10 11 18.4505 0.860557 2.97694 -0.0456494 0.0231618 0.0108508
117 10 11 19.645 1.61889 2.23031 0.00235208 0.0271757 -0.000550977
175 15 11 16.0874 2.18639 1.47079 -0.0134035 0.0160943 -0.0463656
109 10 9 18.5532 3.78134 4.11277 0.00958877 0.0120181 0.00612048
111 10 19 18.4014 3.15451 2.92934 -0.00187377 -0.00735312 0.00289383
123 11 19 14.8313 1.21194 2.99717 -0.00566473 -0.0094392 0.0144684
128 11 11 15.169 19.3005 2.62744 0.00654707 0.0675541 -0.0277998
38 4 20 0.940669 8.73048 4.58172 0.00848004 -0.0170722 -0.0112632
674 59 19 3.19919 9.18646 1.27898 0.0106457 0.00760355 -0.00238298
680 59 11 5.43362 9.44485 1.54295 0.0570156 -0.0246687 -0.019422
675 59 2 4.55824 8.79111 1.40327 0.00686459 -0.0126312 0.000253207
37 4 9 1.6536 8.16612 5.17091 -0.00406779 0.0227815 -0.0149973
39 4 19 2.97577 8.3763 5.52004 -0.00942994 -0.00910101 -0.00274908
44 4 11 4.24746 10.0447 5.8339 -0.0204358 0.108372 -0.0743897
41 4 1 3.33342 9.66844 5.34078 0.000853704 0.00611003 -0.0123956
333 28 11 19.0105 5.94887 1.80444 0.0244881 0.0418842 0.0727547
45 4 11 3.78125 9.88951 4.30132 0.0192289 0.0842649 -0.00149359
679 59 11 4.41094 8.27368 2.26378 -0.0139729 0.0170956 0.0672165
205 18 9 8.82588 6.68424 2.99336 -0.00483205 0.00305522 -0.000345895
206 18 20 8.16361 5.73476 3.45608 -0.0103518 0.0106889 0.0159863
210 18 1 8.9864 9.06536 2.45412 -0.0125004 0.00714623 0.0131617
215 18 11 9.305 8.89397 1.43009 0.00039264 0.0335099 -0.0345593
208 18 19 8.49213 8.02579 3.20228 -0.00989964 0.000184636 0.00196072
216 18 11 8.36611 9.86895 2.42086 -0.0197365 -0.00551344 -0.0386129
214 18 11 9.61986 9.86152 2.83422 -0.0195412 -0.00305276 0.0665032
718 63 11 10.5773 8.6015 18.338 -0.00943773 -0.0198077 0.0168106
491 41 11 6.49936 7.61762 5.71239 -0.00481174 0.0885813 -0.00110962
490 41 11 5.32245 6.40762 5.34165 -0.0246386 -0.0645202 -0.00727399
207 18 19 10.095 6.07602 3.00962 -0.00802031 -0.00336847 -0.0114902
209 18 1 11.0729 6.60583 3.92169 0.0015799 0.00360336 0.0319596
213 18 11 11.9538 6.26623 3.71382 0.0446479 -0.0691285 0.0918829
212 18 11 11.3363 7.60469 3.99499 -0.0302801 0.00410066 -0.0249846
593 51 19 14.7552 6.53249 19.7563 0.0121507 -0.00723518 -0.0160589
211 18 11 10.4299 6.12506 4.79642 -0.0712209 0.0113972 -0.042367
597 51 11 14.6837 7.66983 0.551887 -0.0355054 -0.00919804 -0.0101776
335 28 11 14.1271 8.15278 3.59075 -0.0086614 -0.0838256 -0.0390512
336 28 11 14.3272 7.02985 2.66922 -0.0200666 0.0279195 0.0742883
334 28 11 15.37 6.78991 3.92874 -0.0150614 -0.0119727 0.0907317
592 51 20 16.8909 5.62991 19.8832 -0.00151158 0.00397082 -0.0235021
332 28 11 19.7216 6.5812 1.20774 0.0293875 -0.0303224 0.100619
331 28 11 19.5504 6.40015 3.15208 -0.0245165 -0.0015531 0.00293331
329 28 1 19.3686 6.76623 2.23759 -0.00413073 -0.0159376 -0.0164641
328 28 19 15.9927 7.95754 2.46257 -0.00490392 -0.0127495 0.0104278
326 28 20 17.6012 8.86182 4.05966 -0.00594844 -0.00765081 -0.0153483
325 28 9 17.3258 7.87001 3.23133 -0.00733854 0.0428077 0.0031548
327 28 19 18.395 7.9373 2.28966 -0.0146692 0.032598 0.0151696
330 28 1 14.9431 7.69363 3.17349 0.0252403 0.0185026 -0.0213103
733 67 31 0.147978 9.2715 1.29175 -0.0255016 -0.0387465 -0.00852404
63 6 19 0.0903477 10.6708 2.01606 -0.00693494 0.00172442 0.0280207
577 49 11 3.33334 12.767 1.95825 -0.00954359 -0.00326335 -0.043353
576 49 2 4.07315 12.5185 2.64085 0.00196014 0.0057421 0.0177462
579 49 11 5.71603 13.8742 2.20763 0.0138477 0.0118215 -0.0412056
61 6 9 19.6176 11.4969 3.07846 0.00758678 0.0132244 0.00964678
580 49 11 4.8743 14.2664 3.48314 -0.0480238 -0.0228874 -0.00679789
578 49 11 4.14908 11.5877 2.19854 0.00543612 -0.0366072 -0.00385033
573 49 19 4.85668 11.3587 3.02649 -0.000670687 0.0166199 0.00223256
575 49 2 5.23705 13.4549 2.9516 0.014854 0.0188938 0.0264008
62 6 20 19.729 12.5693 3.05095 0.00258123 -0.0176669 -0.000340157
572 49 20 6.6327 10.8309 4.25706 -0.00613143 -0.00479415 -0.00950086
571 49 9 5.96585 11.6946 3.60294 0.00118021 0.00429241 0.00586568
574 49 19 6.32221 13.1882 3.84005 0.00113908 -0.000307215 -0.00488327
84 7 11 8.90756 13.8216 2.34627 -0.0265623 -0.0327569 0.0518268
78 7 1 9.68133 13.2731 2.02956 -0.0025202 -0.000267744 0.0146695
83 7 11 10.3856 13.113 2.92533 -0.02392 -0.0120376 0.0177578
654 57 19 7.99475 15.1432 4.27323 -0.00687032 -0.00365883 0.0112059
722 64 20 12.8132 9.18563 2.04558 0.00751552 0.010988 0.00538793
82 7 11 9.5135 12.1869 1.81502 0.00791997 -0.0302121 0.051181
727 64 11 12.5772 10.706 4.52864 0.0119009 -0.0293019 -0.0126407
726 64 2 12.4193 11.2624 3.66754 0.0045718 0.0131431 0.00300307
723 64 19 12.0291 11.0411 2.25871 -0.0210033 -0.0187103 -0.00273551
721 64 9 12.9479 10.3351 1.79511 0.026896 0.0246091 -0.0146661
728 64 11 11.9534 12.1684 4.22398 0.0972836 -0.120162 0.0354081
724 64 19 13.9249 11.1309 2.15094 -0.007442 -0.0104217 -0.0136612
725 64 2 13.5655 11.5781 3.52587 -0.00602241 -0.0106422 0.024686
76 7 19 10.3293 14.0323 0.893745 -0.00171035 -0.0135213 -0.00369432
74 7 20 12.5342 13.3148 0.701096 -0.00624044 -0.0148991 -0.021681
659 57 11 9.14678 13.599 5.55901 0.0406861 0.0962254 -0.0575661
655 57 2 9.03861 14.4921 4.91001 -0.016759 -0.00724155 -0.00400135
660 57 11 8.34444 14.471 4.3394 -0.0245367 -0.0349394 0.0115123
639 55 11 15.3834 16.6594 5.93717 -0.0205948 -0.000550654 0.0262339
68 6 11 1.02334 11.8321 0.624197 -0.0238236 -0.0365005 0.0056429
65 6 1 0.0659136 11.422 0.78993 -0.0045162 -0.0179608 -0.00103629
67 6 11 19.8742 10.6029 0.0425631 -0.00569799 -0.000618147 -0.058993
729 64 11 14.0759 12.8162 3.3108 0.00762404 0.00548359 0.0341083
383 32 11 18.3178 14.7595 1.89469 -0.0649076 -0.0319085 -0.0553056
382 32 11 16.9723 14.0944 1.92192 0.0769982 -0.112892 -0.0297819
378 32 1 17.3339 15.1596 2.07483 -0.0107967 0.00941802 0.00906873
384 32 11 17.0788 15.7062 1.06092 0.109058 -0.014637 0.0562322
70 6 11 19.753 11.1302 5.65881 0.097228 -0.00935625 0.0362961
64 6 19 18.682 11.1241 4.05124 0.0021712 -0.00574952 -0.00284864
66 6 1 18.9182 11.6883 5.41848 -0.0328028 -0.0030768 0.014492
54 5 1 2.29129 0.399052 4.25259 -0.012393 0.0026991 -0.00644812
104 9 11 2.52206 14.4881 0.882014 0.00707219 0.0275631 -0.0197857
240 20 11 3.30428 17.4099 2.69908 0.0532043 0.0150147 -0.0667748
239 20 11 4.79383 17.4648 3.30671 -0.00727992 -0.0125989 -0.0340426
238 20 11 4.47428 15.9486 2.74615 0.0355952 0.0379884 0.00353609
234 20 1 4.26371 17.0362 2.55232 -0.00153865 0.0114869 0.00497145
232 20 19 4.64078 17.1099 1.17109 -0.00290546 -0.0168051 0.0205536
105 9 11 1.02784 14.6398 1.42006 -0.0279555 -0.0151888 -0.0259762
103 9 11 2.01644 16.1545 0.633921 -0.0600092 0.0816942 0.0497784
380 32 11 0.651355 17.1878 2.91335 0.0117509 0.0258187 0.081838
377 32 1 19.7074 17.6348 3.04048 0.015527 0.0118593 -0.00311167
379 32 11 19.6526 18.4933 3.67832 0.0690718 -0.0260943 0.0193429
60 5 11 1.96484 0.151711 3.30817 -0.0420114 0.033123 0.0139712
58 5 11 3.33004 0.175626 4.33344 -0.0137244 0.0279063 0.0703111
242 21 20 2.67021 16.1168 4.42371 0.00388996 0.0137967 -0.00757799
101 9 1 1.78005 15.1216 0.647225 -0.016537 0.0123027 -0.00462196
516 43 11 7.49737 19.0246 4.51241 0.010915 0.0881679 -0.0307992
652 57 20 6.3335 16.6362 5.25651 0.00304535 0.000892506 0.000867003
515 43 11 7.69012 18.3509 3.26211 0.032784 -0.0444546 0.0969577
230 20 20 7.00697 16.5701 1.20442 -0.015219 -0.00656332 -0.000153171
229 20 9 6.15401 17.1484 0.806903 0.0015209 0.00262999 0.00434549
514 43 11 6.8547 19.6388 3.08666 -0.0547019 -0.0374118 -0.059022
510 43 1 7.73392 19.348 3.65812 0.00331449 0.0174649 0.00242837
191 16 11 9.0777 17.1365 1.79588 -0.0138028 0.0156336 0.0128361
662 58 20 7.4422 14.0569 0.352381 -0.0044213 -0.0146077 -0.00923864
231 20 19 6.40042 18.0333 19.7601 0.00714879 -0.00404144 -0.0137219
73 7 9 11.6352 14.0608 0.471094 0.0206204 -0.00262085 0.0156465
182 16 20 12.7894 16.6951 3.93811 0.009478 -7.17309e-05 -0.000900806
186 16 1 10.1988 17.1102 1.79958 0.0212629 -0.0112583 -0.0137935
192 16 11 10.6168 18.0504 1.4189 0.0361154 0.0239624 -0.00473121
190 16 11 10.0973 17.4066 2.66984 0.0218883 0.0200524 -0.044392
184 16 19 11.0436 16.2794 2.42697 -0.000171739 -0.0205172 -0.00298361
181 16 9 12.5011 16.6336 2.62256 -0.00236662 -0.0291195 0.00296816
183 16 19 13.1931 17.0737 1.46773 -0.0145961 -0.00751109 -0.00169203
185 16 1 14.4371 16.3475 1.72709 -0.00715861 0.0137457 -0.0199692
187 16 11 14.7662 16.9963 2.64131 0.0652256 0.0272362 0.0247541
188 16 11 14.3675 15.3995 2.47125 -0.0404899 -0.0418633 -0.00813852
640 55 11 14.4161 15.8396 5.09769 0.045082 0.0269016 0.0209794
376 32 19 16.7705 15.5914 3.29907 -0.0065488 0.00179418 0.000841512
189 16 11 15.3211 16.4143 0.857067 -0.0661762 0.035275 0.0117836
755 72 26 15.9022 18.5882 0.0330514 0.00556704 -0.00350521 0.000132912
373 32 9 17.6569 16.7424 3.69114 0.0181282 0.00169602 -0.00179835
375 32 19 18.2988 17.3298 2.70877 -0.0194621 0.00361205 0.00838378
125 11 1 15.521 0.0967332 3.07612 0.0197668 0.0040187 -0.00649872
127 11 11 15.7599 19.9902 4.1137 0.0936976 -0.0174933 -0.038901
381 32 11 19.7333 18.1883 2.1437 0.0596655 0.0193237 0.0574016
129 11 11 16.6192 19.9526 2.47939 -0.017932 -0.00830476 -0.0754124
374 32 20 16.739 17.3434 4.21299 0.00879923 -0.00275515 -0.00978999
57 5 11 4.27959 3.87267 5.53427 -0.0515092 -0.0585851 -0.0173581
691 61 9 2.17848 2.34512 7.23557 0.0129151 0.00388611 -0.00295866
693 61 19 0.961498 3.03876 7.37788 0.00811061 -0.00231787 0.00530667
692 61 20 2.42921 1.13647 7.02559 0.00420485 -0.000743845 -0.0111503
694 61 19 3.27865 3.12095 7.86812 -0.00541953 0.00577328 -0.00355104
698 61 11 0.765737 4.71227 6.97528 0.00199102 0.0276387 -0.00376419
696 61 2 1.26239 4.31901 7.74848 -0.000226798 -0.0108865 -0.00223329
695 61 2 2.81864 4.48279 7.60303 -0.0069377 -0.00795268 -0.000762536
53 5 1 4.55163 2.86879 4.98118 0.0121177 0.0115446 -5.81694e-05
699 61 11 2.85593 5.50026 7.52109 -0.0163565 0.0155822 0.0716659
506 43 20 7.62659 1.8773 4.46805 0.0115067 -0.0051096 -0.00750351
511 43 11 9.48528 2.76449 5.70383 -0.00515881 -0.051742 -0.0932349
512 43 11 9.9338 3.61816 4.66116 0.00827937 -0.0169318 -0.0168933
55 5 11 4.34322 2.36256 5.86113 -0.0247416 0.0461482 -0.0154305
86 8 20 6.14549 1.84881 7.66742 0.00343451 0.0123347 -0.015387
85 8 9 6.29736 0.794097 8.30083 -0.000905885 0.0143071 -0.00329973
87 8 19 6.90208 1.17681 9.62706 0.00399505 -0.00651114 0.00331397
481 41 9 7.63786 5.80317 6.4572 0.00893782 0.031612 0.0153993
482 41 20 7.93246 4.63586 5.99027 -0.0026114 0.0143797 0.00323636
483 41 19 8.38799 6.99795 6.25776 -0.00935185 -0.00678646 0.00884414
91 8 11 7.05558 19.2382 9.76547 -0.00732587 0.0682997 0.0113507
509 43 1 10.1984 2.7771 5.00142 0.0103067 0.00155625 0.0183316
122 11 20 14.2934 1.62924 5.11637 0.00718679 0.00406781 -0.00173345
556 47 2 10.9802 1.27593 7.32248 0.00403066 0.0111609 -0.00922725
553 47 19 11.0858 0.486725 6.20212 -0.0151665 -0.00104852 0.0120332
558 47 11 10.7337 2.37816 7.26985 0.0789913 0.00173503 0.0420259
557 47 11 11.9761 1.12516 7.65686 0.00058461 -0.0224522 -0.0151302
364 31 19 13.7614 4.65966 7.99194 0.00171812 -0.000136833 0.004233
361 31 9 12.6529 5.14919 7.11026 0.00563418 0.00863469 -0.00993405
362 31 20 11.5819 4.72174 7.5026 -0.0177754 0.00800672 -0.013893
370 31 11 13.9474 3.25779 7.22133 0.00354264 -0.0196089 0.056418
570 48 11 10.6447 6.22123 11.3536 -0.0104514 -0.0221193 0.0204325
565 48 2 10.3512 5.58847 10.5622 0.00386959 0.00567985 -0.0117845
560 47 11 10.1136 0.746262 9.21259 -0.0365417 0.0118657 -0.0530954
282 24 1 14.4451 19.287 7.87619 0.00539166 -0.00639105 0.0210585
551 47 9 10.7162 19.1647 6.34011 0.0114903 0.011889 0.0115455
286 24 11 13.4942 19.2501 8.4412 0.0152703 0.023962 -0.0084164
569 48 11 10.998 6.1026 9.84803 0.0570693 0.0639564 0.0383343
119 10 11 15.9443 3.80753 5.53577 0.0197341 0.00719562 -0.00381548
118 10 11 17.5556 4.34654 6.08406 0.0392199 -0.0524664 -0.0848771
114 10 1 16.8222 4.42679 5.21419 0.016644 -0.00561068 0.0132721
112 10 19 17.5345 4.73902 4.22018 -0.00919647 0.0120492 -0.00331084
120 10 11 16.2141 5.48058 5.17777 -0.0234358 -0.00782993 0.0202757
110 10 20 19.5605 3.93471 4.69708 -0.0237238 0.00425983 -0.00616054
301 26 9 0.519719 1.29884 9.83779 0.00764897 -0.00556061 -0.0110608
372 31 11 13.4169 3.01393 9.31846 0.0774686 0.0955473 0.002557
366 31 1 14.0206 3.46832 8.32855 -0.00371439 0.016944 0.00336514
371 31 11 15.0419 3.853 8.31101 -0.00696306 -0.00291983 0.00602949
280 24 19 15.8043 19.1609 8.50348 -0.0123091 0.00371258 -0.0236927
277 24 9 16.5235 0.269541 7.80586 0.0208889 0.00639863 0.00652081
279 24 19 16.8348 0.154372 6.45092 -0.0129071 -0.00744056 -0.00582269
285 24 11 18.0457 1.62847 5.54438 -0.031477 0.00682931 -0.0221091
278 24 20 16.3535 1.46011 8.13675 8.60735e-05 0.00149253 -0.00269514
310 26 11 19.2112 4.17899 9.32994 -0.00228425 -0.0324638 -0.0345758
304 26 19 0.0908368 2.53321 10.3573 -0.00309515 -0.00536824 0.00206195
312 26 11 18.6467 2.52657 8.56071 0.0126745 0.0138938 0.0492166
306 26 1 19.0639 3.07655 9.47992 0.00796767 -0.0112686 0.00704108
43 4 11 2.65699 10.5335 5.44774 0.0387039 0.0042546 -0.0458747
700 61 11 3.33451 4.32642 8.57781 -0.0916058 -0.0194956 -0.0122584
697 61 11 1.08472 4.80251 8.56307 -0.0357062 0.0427343 -0.057361
354 30 1 2.46957 9.51378 9.51931 0.00856098 0.0138832 -0.00702351
492 41 11 4.68152 7.08425 6.31614 0.0254601 0.0210322 -0.0405276
357 30 11 5.93531 7.79906 9.10548 0.0226742 0.0133152 -0.0687824
40 4 19 1.37226 7.04777 6.15098 0.00187374 0.00516445 0.00325519
358 30 11 1.60792 8.98712 9.82862 -0.0149737 -0.0557273 0.0353945
356 30 11 6.22406 6.30208 10.4226 -0.0174743 0.078588 -0.0577694
355 30 11 4.90661 7.05273 9.46656 -0.00277058 -0.0505228 -0.00296875
484 41 19 6.30122 5.90997 6.85029 0.0206432 0.00180747 -0.0246904
486 41 1 5.73673 6.9026 6.0277 -0.00312293 0.00769594 0.00999759
485 41 1 9.65635 7.2086 6.9557 0.0113505 -0.00263665 -0.00525815
353 30 1 5.73485 7.36435 10.1069 0.00619455 0.0134344 0.0131256
487 41 11 10.0345 6.2314 7.20051 -0.00252917 0.033083 -0.00937341
489 41 11 10.42 7.66031 6.55587 0.150818 0.000241876 -0.0159831
488 41 11 9.28262 7.81919 7.79754 0.0112875 -0.0754181 0.0343363
479 40 11 7.88853 11.2745 6.89304 0.0251542 -0.0614835 0.0896073
472 40 19 9.2556 10.2 8.09109 -0.00955887 0.00673272 0.00383591
568 48 11 8.43669 6.04488 9.35627 -0.00641792 0.0282001 0.0028759
363 31 19 12.7905 6.08932 6.01139 -0.0130227 -0.0149271 -0.0112949
473 40 1 12.4032 10.3465 7.98543 -0.0040435 -0.00149859 0.00502135
476 40 11 12.5816 10.802 6.87574 -0.0224127 0.0138613 0.00108822
475 40 11 12.0107 9.4543 7.71272 -0.0447876 -0.0484299 -0.0303689
365 31 1 13.3259 7.42357 6.32502 -0.00618879 -0.00310659 0.00946474
368 31 11 12.9339 8.15953 5.50542 -0.0723987 0.00653033 0.103735
369 31 11 13.4598 7.85208 7.45684 0.00463023 0.010834 -0.0616722
367 31 11 14.5174 7.5046 6.26997 -0.0218779 0.0616941 0.104206
548 46 11 15.7208 7.72339 10.5125 0.0456672 -0.026465 0.0259181
547 46 11 14.7644 6.52206 10.633 0.0464829 0.0481132 -0.0862751
546 46 2 15.601 6.73847 10.1509 0.0181674 -0.00253803 0.0127586
609 52 11 11.9301 8.4273 9.8766 -0.00961168 0.0563984 0.0162565
542 46 20 17.5498 6.69733 7.44117 0.0119877 0.00377523 -0.019927
46 4 11 0.245326 6.61137 7.66691 -0.0889298 0.073753 -0.00564382
48 4 11 1.04562 8.2067 7.49354 -0.0488848 -0.0660787 0.0590956
42 4 1 0.463836 7.45226 7.09194 -0.00667977 0.0166833 -0.00825696
543 46 19 15.8514 6.77509 8.80113 0.00117627 0.00189095 0.00156547
47 4 11 19.5509 7.89165 6.8188 -0.0317272 0.0512567 -0.0271085
541 46 9 17.2782 6.83505 8.68382 0.00850827 -0.00507926 -0.00691372
6 1 1 16.7994 9.94286 7.04071 -0.0212917 -0.00859247 -0.00222496
12 1 11 16.8112 8.84319 6.618 -0.00402433 -0.0073455 0.0194399
1 1 9 18.5285 9.93767 8.81646 0.0339344 -0.013604 -0.00312207
2 1 20 19.3395 9.08413 9.17962 -0.0250899 0.00399924 0.0144034
11 1 11 15.9979 9.87687 7.47785 -0.0149192 -0.0560737 -0.0451453
248 21 11 2.62981 13.4672 6.03354 0.0377026 0.0917016 -0.00616322
360 30 11 2.69883 9.40649 8.47147 -0.00677433 -0.0407238 -0.0124559
245 21 1 1.56897 14.0458 6.05418 -0.0106598 0.0167209 0.00363438
247 21 11 1.12358 13.5217 6.83122 0.0598599 0.0253428 -0.0446108
612 53 20 3.36948 11.5754 7.5046 -0.011337 0.0139293 -0.00055683
249 21 11 0.898547 13.7166 5.25844 0.0143191 0.0501587 -0.0556794
613 53 19 4.31009 13.5696 7.60345 -0.000542891 -0.00315004 -0.00510851
582 50 20 0.305706 13.9354 9.18936 -0.0054845 0.0131746 0.0224211
581 50 9 1.51816 13.7825 9.67294 0.0076687 0.00630827 -0.00339943
584 50 19 1.95827 12.7844 10.5355 0.0165888 0.00513045 0.0136544
616 53 2 5.42736 14.201 7.45179 -0.0216763 -0.0145191 -0.00696641
478 40 11 7.17316 10.2585 7.63037 0.0854623 0.027506 -0.0578169
474 40 1 8.08406 10.1513 7.23766 0.0117073 0.00236137 -0.0235359
480 40 11 7.77272 9.40648 6.34034 0.0292434 -0.0294871 0.022239
611 53 9 4.46614 12.1573 7.30465 -0.0043456 0.00543919 -0.0157768
615 53 2 6.2214 13.1767 6.85249 0.0146634 -0.00556229 0.0133799
614 53 19 5.54759 11.9281 6.56454 -0.00463073 0.00218428 0.00749475
620 53 11 6.79894 12.5203 7.59853 -0.0643424 0.0113962 -0.00414459
619 53 11 6.80789 13.4754 6.21475 0.0155013 -0.000666244 0.0458436
730 64 11 14.372 11.9687 4.07661 0.041683 0.0178381 -0.0332922
469 40 9 10.2761 10.7521 7.34715 -0.00915256 -0.00058875 -0.000802916
471 40 19 11.2777 11.1357 8.20199 -0.0027362 0.020971 -0.00130827
477 40 11 12.9283 10.744 8.86437 0.0156384 0.0397218 -0.0888433
470 40 20 10.5922 10.3043 6.28023 0.0172218 -0.0064681 -0.00294025
631 55 9 14.1744 13.8519 7.25552 0.000778442 0.00866261 -0.0132631
634 55 19 15.0447 14.3806 6.26305 0.0035103 -0.0114417 0.00268528
632 55 20 13.6485 12.7461 7.35085 -0.0101971 -0.0110009 0.00741205
633 55 19 13.7344 15.0828 8.09649 -0.00175546 -0.0173829 -0.00286616
152 13 11 12.1533 13.8327 10.7437 0.0871408 -0.0372558 -0.0312929
4 1 19 18.1284 9.93623 7.63414 -0.0059024 -0.014323 -0.00785936
10 1 11 16.4227 10.7553 6.4148 0.0609516 0.00518141 -0.0138288
71 6 11 18.6212 12.4178 5.04581 0.022219 0.027222 -0.0233036
72 6 11 19.6329 12.4403 5.38682 -0.00757688 -0.0163409 -0.0920297
3 1 19 18.6722 11.1783 9.3024 0.0163025 0.00257692 -0.00136625
8 1 11 16.8689 11.2878 9.64215 -0.0357996 0.0296817 0.0489686
682 60 20 18.0135 14.3985 5.92891 -0.00413119 -0.00398162 -0.00640893
243 21 19 1.9307 15.2891 6.62754 -0.000308953 -0.0139205 0.00745282
241 21 9 2.17746 16.2446 5.52675 -0.00799105 -0.00170493 -0.0116998
244 21 19 2.31564 17.4072 6.13436 0.0173011 -0.0205879 0.00113255
251 21 11 1.13765 17.3243 7.71632 0.0975388 0.0457247 -0.00233897
246 21 1 1.60218 17.9359 7.12173 -0.0165574 0.000420666 0.000541148
252 21 11 0.824238 18.5463 6.68705 -0.0434464 0.0151263 0.00363254
250 21 11 2.45539 18.4615 7.63344 -0.0132001 0.0252888 0.0396266
524 44 11 0.764664 17.6366 10.2975 -0.0645656 0.0213959 -0.0782882
88 8 19 5.64772 19.6311 8.12485 0.0162355 0.00660697 0.0172393
523 44 11 19.4582 18.676 10.5657 -0.0115334 -7.97289e-05 0.0225885
521 44 1 0.225337 18.0364 11.0843 -0.019878 -0.00140203 0.0161672
651 57 9 7.60483 16.3368 5.00396 -0.00323886 -0.00544765 -0.00602794
653 57 19 8.60807 16.813 5.49477 -0.00797464 0.00916598 -0.00822885
94 8 11 5.76038 0.220567 5.88838 -0.0432499 -0.0149402 0.0211224
617 53 11 5.59866 14.335 8.58648 0.0549768 0.0605002 -0.00471267
656 57 2 9.7553 15.8134 5.33494 0.00937599 -0.00796104 0.000402992
95 8 11 6.69869 19.1742 6.43054 -0.0120187 -0.0173974 -0.0190631
96 8 11 5.31077 18.3716 6.6527 -0.0253145 -0.0016886 0.0143335
90 8 1 5.70248 19.3409 6.67318 -0.0121609 0.00138118 -0.00567207
618 53 11 5.38851 15.2238 6.99271 0.0762082 -0.0109089 -0.0234988
503 42 11 5.94817 16.5603 8.08469 -0.0766903 -0.048686 -0.00469364
498 42 1 6.76426 16.821 8.65357 -0.00688638 0.0110105 -0.000591304
502 42 11 6.4549 17.0602 9.62677 0.0061766 -0.0054153 -0.0231878
554 47 19 10.0352 19.0527 7.52337 0.0121679 0.00125275 -0.0076366
493 42 9 8.27426 15.5605 9.64977 -0.0114817 0.0107826 0.00887284
504 42 11 7.01819 17.6481 8.01563 0.0206974 -0.0200488 0.0528608
496 42 19 7.83413 15.9644 8.34087 0.00748534 -0.00347296 -0.0223778
495 42 19 9.42687 16.3648 10.0124 0.00587269 0.0112294 0.0125449
555 47 2 10.3032 0.202254 8.19066 -0.017849 0.00936804 -0.00478307
559 47 11 9.27866 0.53376 7.80511 -0.0119562 -0.0302177 0.00627366
288 24 11 14.3 0.221584 7.23667 -0.0781132 0.0351169 -0.009143
287 24 11 14.7568 18.2968 7.43052 0.0238408 0.0434817 0.0649842
636 55 2 13.5709 15.9965 6.99777 0.0105916 -0.0107698 0.0087595
635 55 2 14.7437 15.827 6.10549 0.00103557 -0.0141031 0.00651749
657 57 11 10.1994 16.599 4.69459 0.0456849 0.0102774 -0.0289297
658 57 11 10.3586 16.1671 6.24871 -0.0446176 -0.0286608 -0.0179181
500 42 11 11.7049 15.7757 9.28117 -0.0259723 -0.110844 0.0172191
638 55 11 12.6241 16.4797 6.7108 -0.0308455 -0.065126 -0.0893892
637 55 11 13.7084 16.2331 7.98581 0.0242886 0.0647689 0.0576812
552 47 20 11.4864 18.1292 6.55592 -0.0107002 -0.0161005 0.00405015
497 42 1 10.6043 16.2797 9.08868 -0.00157095 0.00805546 -0.00934239
499 42 11 10.8293 17.1578 9.32168 -0.0224341 0.0639337 -0.0647308
501 42 11 10.511 15.8711 8.12246 0.0278504 0.00183045 0.0446206
703 62 19 13.4376 18.2631 11.2546 0.00921934 -0.0139241 0.00678162
284 24 11 18.4956 19.9348 5.39767 -0.011338 -0.00322777 0.0328297
281 24 1 18.0653 0.67451 6.11598 -0.00321258 -0.012137 0.0162527
283 24 11 18.7597 0.733088 6.96002 0.0546602 0.0183576 0.00431757
302 26 20 19.8495 0.674826 9.00033 -0.0082672 0.0172938 0.00112278
683 60 19 16.8006 14.4446 8.0636 0.00374042 0.00277293 -0.00544354
681 60 9 17.7309 15.1436 7.09859 0.00553441 -0.012606 0.00840136
686 60 2 16.682 15.601 9.00646 -0.00586128 -0.0045772 0.00496498
685 60 2 17.9391 16.5511 8.80109 0.0156045 -0.012629 -0.0123272
690 60 11 17.9428 17.5259 9.31679 -0.0109191 0.0306011 0.0272176
688 60 11 15.8484 16.0755 9.32553 0.0113697 0.0571285 -0.0172937
687 60 11 16.8847 14.9586 9.78891 0.00371261 0.0164005 0.0428114
684 60 19 18.431 16.3196 7.52038 0.0176765 0.0132096 -0.000651345
689 60 11 18.9051 15.9768 8.95358 0.0640282 0.0997388 0.0230605
525 44 11 0.441126 18.2201 12.1638 -0.00743025 -0.0413094 -0.00877617
303 26 19 1.60642 0.602914 10.5011 0.0110277 -0.00049572 0.0106388
308 26 11 3.19398 1.93021 10.1797 -0.00978139 0.0303942 0.0326308
305 26 1 2.91227 1.18613 10.825 -0.0105455 -0.000445159 -0.0112332
309 26 11 2.4955 1.63453 11.8253 -0.0312948 -0.0565066 -0.000195894
307 26 11 3.68356 0.386779 11.0047 0.028463 -0.0211586 0.064649
226 19 11 1.75677 5.81867 11.4642 -0.105103 0.0704197 -0.0177016
224 19 11 6.43246 4.69771 11.0549 0.118503 -0.0690885 -0.00623077
622 54 20 0.500194 1.40699 13.2119 -0.00177687 0.00172415 -0.000212298
624 54 19 0.372818 3.52974 14.1582 0.00314461 -0.00313311 0.00164704
219 19 19 4.69374 3.674 11.9378 0.00318884 -0.00635503 -0.000482781
221 19 1 5.68081 3.95736 11.0361 -0.00910803 0.00610617 0.0226732
225 19 11 5.03501 3.98633 10.1895 0.0122574 0.0237436 -0.00296097
223 19 11 5.97597 2.87138 11.0187 0.0596231 0.0367354 0.0721525
621 54 9 19.8544 2.19919 13.9682 0.00245231 0.00701808 -0.00216663
220 19 19 2.70484 4.55589 12.6651 0.0103188 0.00360902 -0.00750252
217 19 9 3.97322 4.78602 12.3541 0.00644709 0.00740668 -0.00231398
276 23 11 1.52806 7.11229 17.0992 -0.0363715 -0.0328723 0.0326619
89 8 1 7.47849 0.204211 10.2238 0.0189174 0.00716401 -0.00601691
561 48 9 8.98946 3.70246 10.731 -0.0178502 -0.00774752 0.00696566
563 48 19 8.31389 4.64813 10.14 -0.00809093 0.0058048 -0.0165359
93 8 11 8.41218 0.336768 9.96065 0.00374937 -0.0107794 -0.0332776
416 35 11 5.72583 1.81948 13.316 0.0581095 0.0511944 0.0276828
413 35 1 6.2942 1.30732 14.0143 -0.00342975 0.0177608 0.0197258
415 35 11 7.09699 1.06324 13.2377 -0.0212901 -0.0492607 -0.0370859
417 35 11 6.82628 2.10503 14.5521 0.044872 0.0437772 -0.0266859
562 48 20 9.13732 3.23223 11.8603 -0.00981733 -0.0061089 0.00889661
735 69 31 4.36985 4.69713 14.9852 -0.0244672 0.00565216 -0.0131563
564 48 19 10.3082 4.31669 10.1968 0.0202262 0.0107555 0.00432069
539 45 11 13.7165 4.55364 11.9774 0.0118169 0.0500276 -0.0461903
705 62 2 11.1558 18.3052 12.1356 0.00722976 -0.00272537 -0.0154119
709 62 11 10.7439 18.625 13.0748 -0.00332491 -0.00595022 -0.00772932
168 14 11 11.7336 2.17291 16.2206 -0.0599345 0.0173625 0.0106631
293 25 1 11.303 4.51857 14.0282 -0.0111306 0.00334708 -0.00234767
295 25 11 11.9169 5.04704 13.2681 -0.0496874 -0.0344958 0.0257808
297 25 11 11.8449 3.99703 14.7789 0.0194468 0.0395549 0.00827666
704 62 19 11.4383 19.6804 11.914 -0.0187526 -0.00136012 -0.0112452
566 48 2 8.86047 5.93417 10.4169 -0.0337184 0.00910876 -0.00874405
702 62 20 12.8073 19.9644 10.1518 -0.0144574 0.00156836 0.00421468
701 62 9 12.8634 19.4921 11.4216 0.00847872 -0.00267898 0.0102921
167 14 11 11.0478 0.38949 15.9688 0.0438946 -0.0639901 0.086878
311 26 11 18.0929 3.06275 9.99997 0.0010974 -0.00310875 -0.0691335
534 45 1 14.5011 4.20296 12.5948 0.00175585 -0.0105096 -0.00881869
540 45 11 14.1606 3.92994 13.5266 0.0347575 0.0368901 0.011961
538 45 11 14.7433 5.32996 12.4885 0.0296079 -0.0346787 -0.043455
529 45 9 15.6041 2.35702 11.914 0.0108746 -0.00673122 -0.0137754
530 45 20 14.6804 1.7734 11.8007 -0.00169135 0.0250781 0.00187019
532 45 19 15.6789 3.70224 12.0983 -0.0214407 0.0022385 0.00753259
531 45 19 16.9403 1.67869 12.2063 -0.0131762 -0.0147181 0.000470701
533 45 1 17.5871 0.712762 11.3934 -0.00369212 -0.00937913 -0.0017636
627 54 11 17.3976 3.31278 14.7932 -0.0384446 0.0421274 0.0267512
536 45 11 18.417 1.08457 11.0479 -0.031605 -0.0217494 -0.0288191
549 46 11 17.1743 5.15025 10.3738 0.0772683 -0.001156 0.00771952
630 54 11 19.2539 4.45873 13.6052 0.0155919 0.0513937 -0.0331525
537 45 11 17.4892 19.8914 11.9862 -0.0359403 0.00307718 0.0501618
535 45 11 16.8648 0.403 10.6104 0.0418871 -0.0641214 -0.0773163
625 54 2 19.3331 4.11969 14.6801 -0.00155997 -0.0145365 -0.0226123
629 54 11 0.00679366 4.78004 15.2594 0.0306479 0.00940787 0.0074617
349 30 9 4.65397 9.14063 10.1238 -0.00708005 0.0310387 -0.0191935
351 30 19 5.70445 8.60403 10.7339 0.0154693 0.000129471 0.0176101
228 19 11 1.25228 3.89598 11.4698 -0.0387908 0.015969 0.05385
222 19 1 2.00139 4.69618 11.4827 -0.00856935 0.0126754 0.0167466
352 30 19 3.46454 9.40214 10.5447 0.00534831 -0.00552631 0.0127928
227 19 11 2.4875 5.03231 10.6001 0.0986026 -0.029806 0.027321
218 19 20 4.42266 5.89604 12.5209 0.00741382 -4.31677e-06 0.00676262
427 36 11 1.87291 9.13169 13.3759 0.0576164 0.0733471 0.119628
429 36 11 0.826986 9.20192 12.4263 -0.032495 0.0563502 0.0341295
428 36 11 1.83742 8.11255 11.8883 0.0975171 -0.0289272 -0.0182842
425 36 1 1.32445 8.33943 12.8317 -0.00527626 0.000344259 -0.00949342
347 29 11 5.28967 9.93601 14.1528 0.0836779 -0.0723613 -0.0407891
423 36 19 0.662441 7.20403 13.3563 0.00463996 0.000996704 -0.000984635
290 25 20 8.09357 5.61532 13.5268 0.000123842 -0.0160334 0.0114479
289 25 9 8.84089 4.93023 14.0744 -0.0117486 0.0141106 -0.00160397
342 29 1 5.74347 9.11234 13.6809 -0.00994128 -0.0112524 0.00707955
348 29 11 5.67744 8.33865 14.0967 -0.0676976 0.0467055 0.0206924
346 29 11 5.30574 9.00048 12.8384 0.0770018 0.0496467 0.03772
337 29 9 8.16916 9.58879 13.9356 -0.00390612 -0.00045541 0.00737031
338 29 20 8.08966 8.43942 14.2015 0.00827327 0.00627246 -0.006943
340 29 19 6.7859 10.1055 13.6849 0.0175772 0.0100369 -0.00925877
567 48 11 8.08035 6.45601 10.8997 0.0242166 0.0551163 0.0189309
296 25 11 10.6925 3.9023 13.552 -0.0707568 0.00484764 -0.0105893
291 25 19 10.2671 5.4943 14.3475 0.0124359 0.000798183 -0.0047945
603 52 19 11.3011 7.89266 12.7068 -0.00249089 0.0122037 -0.00379178
601 52 9 12.6359 7.58212 12.2491 0.0168117 -0.00838172 0.00899534
605 52 2 11.5713 8.90974 10.6835 -0.00240272 0.00627746 0.0142191
604 52 19 12.8569 8.47924 11.3147 -0.0038684 0.00433106 -0.0083221
608 52 11 9.39385 8.82421 11.7472 -0.0674251 0.0286836 -0.104347
606 52 2 10.499 8.38505 11.7424 -0.014569 -0.00705631 -0.0055526
607 52 11 10.7747 8.53588 12.8288 -0.00800978 0.0404277 -0.0597432
610 52 11 11.7851 10.0992 10.9139 0.0686884 -0.0241601 -0.0429264
602 52 20 13.2667 7.18866 13.3155 -0.00384145 -0.0136941 -0.0128681
550 46 11 16.5472 5.93179 11.823 -0.000438787 -0.02095 0.000696555
545 46 2 16.8482 6.07804 10.794 -0.00863409 0.00308175 -0.0111659
544 46 19 17.88 6.12926 9.61677 0.0123085 -0.00368273 -0.00490398
422 36 20 18.5662 6.75853 12.4076 0.00481462 -0.00381692 -0.00777941
421 36 9 19.1363 7.16515 13.3135 0.00772587 -0.00356147 -0.000258555
426 36 1 17.2813 6.5921 14.8612 0.014045 0.0139214 0.0220797
430 36 11 16.4786 7.00248 14.1652 0.00217613 -0.00921273 0.00351774
424 36 19 18.2602 7.64221 14.527 -0.0159421 0.0127135 0.00956468
431 36 11 17.241 6.90727 15.9848 -0.0498807 -0.0780732 -0.00893147
359 30 11 1.92738 10.3741 9.83034 0.00709049 0.0409898 0.0184459
590 50 11 3.73814 12.5951 9.54791 0.0404243 -0.0374682 0.0445204
589 50 11 2.91644 12.5273 11.3307 -0.0931863 -0.0245764 0.0133895
350 30 20 5.19893 9.87467 9.39144 -0.0171527 -0.0251472 0.0039296
583 50 19 2.27816 14.783 9.88808 0.0102767 0.000108863 -0.0177916
585 50 2 3.37489 13.0326 10.4952 -0.00643183 -0.00754555 -0.00999527
588 50 11 3.63223 15.2012 10.0232 -0.0560587 0.06065 0.0265106
586 50 2 3.3676 14.5036 10.6187 -0.0223864 -0.00524749 0.003365
587 50 11 2.88891 15.1928 11.3318 0.000586906 0.0585101 0.0276032
318 27 1 2.22518 12.9821 14.4276 0.000765565 0.00951919 -0.00363996
323 27 11 1.89912 13.6624 13.4812 0.0276866 -0.0859301 -0.00390425
316 27 19 3.71544 12.6323 14.6353 0.00574275 -0.0146808 -0.00476939
322 27 11 1.41259 12.4332 14.2498 0.00199259 0.0284142 0.00947706
314 27 20 4.56047 11.7196 12.8733 0.0103882 0.000513729 0.0106553
313 27 9 4.55147 12.694 13.4516 -0.0161462 0.00459808 0.000281079
315 27 19 4.7754 14.0026 13.0771 0.00112479 -0.00984235 -0.01787
154 13 11 6.91117 10.689 10.7453 -0.0214208 -0.0296929 0.0151025
339 29 19 9.51223 10.1786 13.7019 0.0120029 0.00639556 -0.00241319
150 13 1 7.16991 11.8641 10.5389 -0.00825687 0.00841006 -0.0171866
148 13 19 8.26857 12.3911 10.007 -0.0172629 -0.0037047 -0.0160075
146 13 20 9.95484 11.1353 10.4124 0.00789728 0.00473673 -0.00716483
156 13 11 6.73545 12.6254 11.3989 -0.0384165 0.0317688 0.00682428
155 13 11 6.45258 12.0375 9.81454 0.0442458 0.0560826 0.00841268
341 29 1 9.63772 11.4552 14.2251 0.022674 0.0061161 0.00987901
456 38 11 6.20051 12.7733 15.6965 -0.0662007 0.0373329 -0.0646239
445 38 9 8.26638 14.9311 15.1722 -0.00305216 -0.0022437 -0.0153518
345 29 11 9.71385 11.5062 15.1857 -0.0531158 0.0288399 0.0405495
452 38 11 11.0223 14.0251 14.9195 0.0103119 0.0250169 0.00210367
454 38 11 7.38305 11.7659 15.331 -0.000116271 0.10759 -0.0251001
450 38 1 7.12787 12.7201 15.1247 -0.00523531 0.0122112 0.00363964
147 13 19 10.0632 13.0805 11.3773 -0.00443958 -0.0024727 -0.0012318
145 13 9 9.27073 12.0199 10.9247 0.00753225 -0.0100367 0.00289393
343 29 11 9.02879 12.2197 13.8606 -0.0570066 0.0343276 -0.0232704
36 3 11 13.4691 11.7726 12.7882 -0.0223905 0.0159836 0.0147822
149 13 1 11.4629 13.1294 11.0872 0.00731004 -0.000452202 0.0137607
153 13 11 11.6878 12.7477 12.1579 -0.03518 0.0106102 0.0326997
151 13 11 12.1385 12.1737 10.5344 -0.0903571 -0.0422904 -0.0870057
35 3 11 14.9235 12.8744 12.053 0.0513466 -0.00385951 0.0311719
30 3 1 14.5883 11.9886 12.5132 -0.0203254 0.0159482 0.00550215
34 3 11 14.8282 12.4714 13.3374 -0.0413417 -0.0362867 -0.0278842
26 3 20 15.7634 8.89683 12.8846 0.0140607 -0.00912679 -0.0011442
9 1 11 18.3486 12.7688 9.64976 -0.0712026 -0.0123959 0.0122525
5 1 1 17.7114 12.0626 10.0249 -0.0147132 -0.00115043 0.0391575
7 1 11 17.1989 12.9967 9.84264 -0.0734719 -0.0235639 -0.00644426
25 3 9 15.9241 10.0199 12.3411 -0.0032616 0.000579096 -0.0171459
32 3 11 18.9958 10.2796 13.4904 0.0615978 0.050429 -0.0480868
31 3 11 17.4264 10.8386 13.8945 -0.0270124 -0.0564985 -0.0173133
27 3 19 17.3084 10.2783 12.0312 0.00387027 -0.00110352 -0.00170183
29 3 1 18.1618 10.6908 13.0824 0.00567925 0.0103079 -0.00744129
33 3 11 18.6736 11.4523 12.719 0.0955074 -0.0778038 -0.110359
28 3 19 15.0033 10.8784 11.8009 0.00839611 -0.00076873 -0.00389413
526 44 11 18.8613 13.6041 12.1213 0.057061 -0.0317105 0.0738806
522 44 1 18.3661 14.3576 12.6667 0.00243275 -0.00663561 -0.0118622
262 22 11 13.8997 14.7714 12.9278 -0.0462364 -0.0757588 -0.0658896
527 44 11 17.4527 13.9285 12.942 -0.031161 -0.0425144 0.0282838
434 37 20 4.76203 17.759 10.494 -0.0057412 -0.00418377 0.00666268
317 27 1 5.02192 15.0594 13.832 -0.00330246 -0.00729012 -0.00633327
321 27 11 6.03737 15.3307 13.5071 -0.0183694 0.0415502 0.051429
443 37 11 3.65375 19.6558 12.9174 0.0153144 0.00531032 -0.0388816
444 37 11 2.18547 19.1586 13.4841 -0.0140211 -0.0233569 0.0658402
438 37 1 3.21885 18.839 13.2153 0.0149183 -0.00418959 -0.0150934
442 37 11 3.8443 18.5569 14.1361 -0.0162236 0.00592547 0.031647
436 37 19 3.21049 18.0519 12.0394 -0.00112639 0.0128069 0.00162854
433 37 9 4.50611 17.5828 11.7167 -0.0136891 -0.0107026 -0.00425052
319 27 11 4.60532 15.8942 13.4966 -0.0373728 -0.0386976 0.0499658
519 44 19 19.8132 16.6562 11.6165 0.00833486 -0.00339405 -0.00483401
92 8 11 7.60561 0.300997 11.351 0.009642 -0.01625 -0.0697181
494 42 20 7.6724 15.2633 10.5192 0.0139611 -0.00501239 0.00461865
447 38 19 9.11378 14.8823 14.0039 0.0266732 0.00824372 0.00673681
435 37 19 5.42272 17.772 12.7525 0.0203497 0.0065575 -0.00385085
441 37 11 7.28652 18.2863 12.0036 -0.0443446 0.061246 0.052723
437 37 1 6.73729 17.4263 12.3926 -0.00853765 -0.00279699 -0.00572958
439 37 11 7.39244 17.1179 13.1181 -0.0106657 0.0778713 -0.0127192
440 37 11 6.86694 16.4147 11.8692 -0.0279024 -0.0203931 -0.0358175
453 38 11 11.2663 15.5153 14.8394 -0.0747167 0.112645 0.0480729
710 62 11 10.4975 18.6758 11.3505 0.00351092 -0.0849933 0.00475728
449 38 1 10.643 14.895 14.2247 -0.0028699 -0.0161222 0.00646183
451 38 11 11.2683 14.6289 13.4201 0.0248924 -0.0223361 -0.0263452
708 62 11 12.1151 17.3012 12.9021 -0.048242 0.028417 0.0882313
707 62 11 12.5068 16.9076 11.4229 0.0726207 -0.00550485 0.00923725
706 62 2 12.4969 17.7086 12.1031 -0.0237168 -0.00306415 0.0356747
157 14 9 13.6558 19.6026 15.2174 -0.010275 0.00335421 -0.00190007
158 14 20 13.171 18.7085 14.6664 0.0067214 0.00750055 0.0063217
165 14 11 15.9425 18.5277 14.7083 -0.0406061 -0.0607883 0.00794096
164 14 11 15.6745 19.2549 13.2472 0.0395245 -0.021218 0.0469891
263 22 11 14.393 16.1794 12.3951 -0.00140305 -0.0393504 0.0488645
528 44 11 18.9384 14.7081 13.553 0.0122779 0.0623682 -0.0181482
408 34 11 0.355059 19.3707 15.8437 -0.0286108 0.013772 0.0694291
256 22 19 14.6926 16.3245 14.4349 -0.0114764 -0.0154333 -0.0090772
264 22 11 15.4039 14.9521 13.0173 0.0135774 -0.00841992 0.0728002
258 22 1 14.6403 15.602 13.2858 -0.00191035 0.00828681 -0.00218463
517 44 9 18.4413 16.6441 12.1673 -0.00335228 0.0170514 0.00562942
520 44 19 17.709 15.4262 12.0332 -0.00690291 -0.00866532 0.000366537
518 44 20 17.7451 17.6233 11.8699 -0.0254507 0.000513333 0.00122401
159 14 19 14.5293 0.444347 14.5569 -0.00856321 -0.00894908 0.0168312
161 14 1 15.7091 19.6648 14.2898 -0.00822728 0.0146736 -0.00492892
163 14 11 16.6707 0.293 14.496 -0.0391598 0.0224059 -0.0697517
420 35 11 2.76505 0.276271 15.5802 -0.0436521 0.00899815 0.0328561
144 12 11 3.00548 0.479694 19.6811 0.0182048 -0.0154712 0.0871122
138 12 1 3.83691 0.776911 0.213203 0.0225842 -0.001207 -0.0164927
419 35 11 2.20488 1.83887 15.2627 0.00758362 0.0151392 0.0177364
414 35 1 2.94995 1.26313 15.7653 -0.00425667 -0.00734736 4.62935e-05
418 35 11 2.86249 1.39778 16.6908 0.0603259 -0.0133735 0.00092508
412 35 19 4.27038 1.63745 15.6131 0.00581972 0.00259853 0.00223811
647 56 11 4.1976 5.38688 18.5286 -0.012154 0.0199387 -0.130275
646 56 2 4.87124 4.49542 18.7186 0.00251804 -0.0137604 0.0120268
643 56 19 4.56161 3.94677 17.4375 -0.00159062 0.00469416 2.71585e-05
749 71 26 0.831995 3.13148 17.8229 -0.00677224 0.00380622 0.000466165
409 35 9 5.17936 0.450873 15.6427 -0.0142258 0.0120009 -0.0230921
731 65 31 18.3265 1.26689 19.4376 -0.0147524 -0.0266123 -0.0356772
747 71 26 19.9496 2.27974 19.4434 -0.0049958 -0.00944406 0.00160059
743 71 27 0.151658 3.71064 19.1903 0.00491948 0.00149101 0.00354868
648 56 11 4.45874 3.51749 18.9137 0.0106199 0.0356131 -0.0459624
744 71 26 1.66665 3.66135 19.7182 0.00897316 -0.000730902 -0.00227529
410 35 20 5.17936 19.8156 16.6035 0.0039119 -0.00973042 -0.00487694
300 25 11 10.2663 3.58422 16.0006 -0.0520175 -0.0118584 0.107521
294 25 1 9.4315 3.081 15.5749 0.00920377 -0.0152761 -0.00655821
292 25 19 8.54594 3.87307 14.8955 -0.0107182 -0.0112131 0.0019126
642 56 20 5.55967 3.83799 15.5514 -0.0155268 -0.00436443 -0.0122317
298 25 11 8.82778 2.62914 16.3011 -0.00911229 0.0918972 -0.0483321
760 73 26 9.26522 3.31158 18.9992 -0.00280741 8.26439e-05 -0.00111069
763 73 26 9.91625 0.896464 18.6191 -0.00596809 -0.00495217 -0.00694198
757 73 27 9.74741 1.87855 19.7909 -0.00141104 -0.00529603 -0.0116202
641 56 9 5.70577 3.80684 16.8946 0.000679074 0.0126824 0.000406356
299 25 11 9.87069 2.3062 15.0388 0.0730043 0.031203 -0.0342592
650 56 11 6.76636 3.6284 19.3259 -0.0557739 0.0691908 -0.0764811
645 56 2 6.41208 4.54247 18.9336 -0.0116991 -0.012833 -0.0109487
644 56 19 6.80872 4.30433 17.657 -0.00666626 -0.00749699 0.0100373
466 39 11 9.23377 19.7201 14.4581 0.0291031 -0.0112527 -0.0498763
468 39 11 8.75333 19.9194 16.2414 -0.023081 -0.000329032 0.0692019
162 14 1 11.8404 1.11551 15.7127 -0.000801972 -0.00183871 0.012351
166 14 11 12.0947 1.27672 14.4613 0.0366716 -0.0325347 -0.0486276
160 14 19 12.9086 0.354177 16.333 0.00583648 0.00778452 0.00443056
758 73 26 11.2335 2.16461 19.6169 0.0060549 0.00132009 -0.00651544
194 17 20 13.733 4.77128 17.9629 0.0167804 -0.00230452 0.00382913
196 17 19 13.8899 5.21039 15.6432 0.0153178 0.00638697 -0.00629813
195 17 19 14.0652 3.0963 16.4228 0.0086304 0.00288341 -0.00803635
193 17 9 13.6586 4.43843 16.8062 0.00343553 -0.00427331 -0.00301923
732 66 31 12.2017 2.28012 1.05624 -0.0125176 -0.0221971 0.0234039
201 17 11 15.9275 3.17485 17.2269 0.0343307 -0.0153247 -0.0495897
171 15 19 15.3885 3.39099 19.7147 -0.0125286 0.00182359 -0.0158678
173 15 1 16.2513 3.00244 0.841418 -0.0115606 -0.00226287 0.00929311
177 15 11 16.8786 3.78101 1.10043 -0.0201012 0.0463862 -0.0335733
176 15 11 17.088 2.54542 0.409124 -0.0102057 -0.0182063 0.0658277
623 54 19 18.8299 1.82134 14.9281 0.00511628 -0.00256316 0.00187154
626 54 2 18.2808 3.22415 15.2307 -0.0112118 -0.00432034 0.00987835
628 54 11 18.0981 2.78887 16.2934 0.00680644 0.00334917 0.0345266
748 71 26 19.4755 4.09253 0.455717 0.00687456 -0.00958802 -0.00270773
200 17 11 15.2565 1.71046 17.7983 -0.00363139 0.0227277 0.0177138
199 17 11 15.5991 2.16905 15.9974 0.0445769 0.0502443 -0.0725154
753 72 26 16.8816 0.0610933 18.6207 0.00197575 -0.00407677 0.0103973
197 17 1 15.2292 2.56781 16.8654 -0.00121962 -0.00706405 0.0113245
745 71 26 18.6947 3.67321 18.5596 0.00165105 0.00334405 0.0131698
672 59 20 1.55343 7.52425 0.753371 0.00262959 -0.0032621 -0.00584285
671 59 9 2.72376 7.88848 0.555853 -0.0111374 -0.00309706 -0.0101067
673 59 19 3.45729 7.22319 19.8961 -0.000582084 0.00943347 0.0218182
676 59 2 4.64623 7.74186 0.16251 -0.00238338 0.00315579 0.0142741
678 59 11 5.24142 7.88111 19.3791 0.0375856 -0.012155 0.00134165
275 23 11 0.780787 7.31012 15.5714 0.0486266 -0.0129806 0.0415166
270 23 1 1.65513 7.13479 16.038 -0.00915304 -0.0223892 -0.0074426
274 23 11 0.990611 6.20269 16.4856 0.0245576 0.0144733 -0.0417602
268 23 19 2.75287 6.29327 15.8047 0.00567882 0.00164792 0.0176504
265 23 9 3.81586 7.13186 15.4679 -0.0160836 0.00430054 -0.0160699
266 23 20 3.91237 8.33488 15.7106 0.00271966 0.00491217 0.00185
768 74 26 0.894509 8.97542 17.9716 -0.0144053 0.00553822 0.00896249
766 74 26 19.6361 9.44338 16.2215 -0.00291568 -0.00510549 0.00314769
267 23 19 4.9569 6.38743 15.9589 0.00489974 0.01449 -0.00204758
746 71 26 0.383735 5.14996 18.8321 -0.00283659 -0.00951167 0.00639893
649 56 11 6.83576 5.26188 19.6628 0.0165492 -0.0397617 0.0129603
713 63 19 9.59164 7.38272 19.8667 -0.0173692 0.00320656 0.0061721
716 63 2 9.69194 8.06818 18.7015 0.0257618 -0.00225676 0.00765097
717 63 11 8.86172 8.501 18.283 0.0706441 0.0402606 -0.0320979
677 59 11 4.78514 6.84765 0.437608 0.0813453 -0.0175348 -0.0538383
269 23 1 5.67928 7.17596 16.8935 -0.00816065 0.00118109 0.00395857
271 23 11 6.35308 7.328 15.9674 -0.0332475 0.0031423 -0.0393766
272 23 11 6.29626 6.88188 17.6359 -0.0750306 -0.0736821 -0.0325742
273 23 11 5.24543 8.1111 17.4514 -0.0541498 -0.020564 -0.0212512
714 63 19 9.75524 5.76128 18.2335 0.0215081 -0.00349974 0.00165038
715 63 2 9.78243 7.05813 17.4582 0.00657223 -0.0196954 -0.00893283
720 63 11 9.3458 7.60919 16.4527 -0.0548971 -0.0264838 0.00851431
719 63 11 10.399 6.17068 17.3643 0.0220266 -0.0763882 0.0890245
711 63 9 10.1635 6.13234 19.4856 0.0100252 0.0200306 -0.00874157
386 33 20 6.84664 9.72812 18.7517 -0.0179456 -0.00624414 -0.00162283
599 51 11 16.3244 9.09907 18.4595 0.0606796 -0.0539264 -0.00746096
712 63 20 11.158 5.3814 0.000573573 -0.00704525 -0.00912377 0.0174367
202 17 11 12.5552 6.62021 15.8048 0.0148177 0.0227793 0.0171382
204 17 11 14.1073 7.12291 15.2729 -0.0299408 -0.108862 0.0651431
203 17 11 14.0265 6.73578 16.8314 -0.0324228 -0.00285911 0.0522096
198 17 1 13.5355 6.513 15.9081 0.0115075 0.0194243 0.012806
598 51 11 13.5247 8.44789 19.3879 0.00687075 -0.0547084 -0.0272582
596 51 2 14.3439 7.86957 19.3791 0.0238882 0.0120602 -0.00291461
22 2 11 14.5742 9.87404 15.3602 0.021753 0.0347004 0.0708543
741 70 26 12.9411 9.59342 17.4308 0.0030552 -0.0166631 -0.00540147
591 51 9 16.3031 6.30428 19.2268 0.00712395 0.00539681 0.00939314
432 36 11 17.6034 5.71215 14.6163 -0.0290448 -0.0758635 -0.0442837
594 51 19 16.6055 7.82878 19.0506 -0.0135057 -0.00270502 -0.00851692
595 51 2 15.6423 8.91015 19.1822 -0.00354842 0.00787539 0.00941382
600 51 11 14.99 9.77318 19.5631 0.0260942 -0.000359352 0.044886
24 2 11 15.3289 10.0743 16.9097 -0.0759904 -0.0657087 0.0672478
324 27 11 2.09593 13.5751 15.3059 0.0339451 -0.0748013 0.0349583
770 74 26 1.41684 10.5486 16.4029 -0.0273267 -0.0145293 0.00439816
395 33 11 4.09835 10.6569 19.7075 -0.00284779 0.0820311 0.00517703
396 33 11 4.47575 10.1746 18.1398 -0.0242752 0.00418264 -0.0491007
765 74 26 0.752323 11.3161 18.3801 0.00291607 0.0222283 0.00345693
764 74 27 0.104707 10.2828 17.4667 -0.00754582 -0.00276718 -0.00101207
390 33 1 4.42435 11.0163 18.8311 0.00706627 -0.00357205 -0.00441781
663 58 19 5.12459 14.4339 19.9103 -0.0039355 -0.00260655 -0.000211948
394 33 11 3.6539 11.9032 18.5373 -0.0246309 0.0224729 0.00658799
769 74 26 18.647 10.4329 18.0347 -0.004748 -0.00285827 -0.0138901
767 74 26 19.4767 11.5319 16.8 0.000735687 -0.00692081 0.0121664
99 9 19 1.50716 14.789 19.2072 0.00281257 0.0119024 0.00552536
455 38 11 6.954 12.8073 13.9575 0.0264613 -0.0439017 -0.0265648
388 33 19 5.7476 11.5128 19.255 0.00242927 -0.00752309 0.000284314
448 38 19 8.19718 13.5657 15.7142 0.00800404 -0.011736 -0.00333498
385 33 9 6.74034 10.6399 19.4725 0.0135497 -0.0180564 -0.00625869
387 33 19 7.92583 11.0596 0.124998 -0.0148245 0.0148848 0.00188019
389 33 1 8.65544 11.4227 19.0411 0.00616648 -0.00210419 0.00829874
391 33 11 9.40079 12.1128 19.7221 -0.0148091 0.000784911 0.040632
392 33 11 8.20871 12.238 18.3812 -0.00672399 -0.0332337 0.0457334
393 33 11 9.27257 10.7533 18.3058 0.0251919 0.0434137 -0.0153155
80 7 11 12.8683 14.6135 17.9019 -0.01818 0.0558395 -0.0262367
344 29 11 10.3218 12.09 13.6704 0.00372214 -0.0391437 -0.0127158
738 70 26 11.5067 10.6681 18.9294 0.0222563 0.00316269 -0.0187969
739 70 26 10.8635 10.2404 16.8529 -0.0011198 -0.0012865 -0.00311707
742 70 26 11.1625 12.2696 17.8531 -0.0154658 -0.00375794 0.00133274
736 70 27 12.006 10.8836 17.3578 0.00910747 0.000780526 0.00486932
740 70 26 13.2804 11.3218 18.2982 -0.0192019 -0.00635462 -0.00700609
737 70 26 12.3457 11.1484 15.9366 -0.00304327 -0.00167309 0.0135139
20 2 11 14.3895 13.6433 17.9545 -0.0404313 -0.0084339 -0.00416061
77 7 1 12.0858 15.1976 18.4114 -0.000150833 -0.00471644 0.00580342
81 7 11 12.4633 15.8724 17.6226 0.047703 0.0316043 0.0247628
69 6 11 19.169 12.1258 0.873188 -0.00877235 0.00409243 0.0516872
108 9 11 18.6684 13.0998 17.9439 -0.0478617 0.0234776 -0.0448034
23 2 11 16.0415 9.13198 15.7667 -0.0302891 0.0325438 0.0108894
18 2 1 15.501 10.0661 15.8741 0.00396091 -0.00588866 -0.0166549
13 2 9 16.2091 12.3347 16.4442 0.0219599 -0.00214464 -0.0116837
16 2 19 15.9819 11.2695 15.7025 0.00486898 -0.0032918 -0.00577723
15 2 19 15.8555 12.2042 17.8262 -0.0043636 -0.0148656 0.00211421
17 2 1 15.2961 13.4707 18.4242 -0.00124905 0.018519 0.00596508
19 2 11 15.0572 13.3022 19.4967 -0.098786 -0.0192949 0.0177827
14 2 20 16.7619 13.1784 16.0049 0.00454393 -0.00585011 0.0100396
107 9 11 17.8792 14.7131 18.418 -0.0169851 0.0394023 -0.0527903
102 9 1 18.6553 13.9642 18.4159 -0.00425483 0.00141296 -0.00634514
100 9 19 19.6693 14.7236 17.7648 0.000145629 0.00691488 -0.0104609
143 12 11 3.42581 0.673529 1.15114 -0.0485348 0.0378646 -0.01874
400 34 19 0.346036 17.4699 16.2065 -0.00443376 0.00278222 0.0138746
320 27 11 4.60478 14.7531 14.7998 -0.0622901 -0.050335 0.00272545
142 12 11 4.48778 19.9058 19.9411 -0.0105795 -0.0596183 -0.00486223
668 58 11 3.78956 13.9692 18.9967 0.00739189 0.0179006 -0.0296235
666 58 2 4.47389 14.8171 18.6183 0.0146499 -0.0106929 0.00517127
398 34 20 1.5772 16.4005 14.7428 0.0012431 0.00807796 0.00730954
397 34 9 1.61848 16.7623 15.9106 0.00578058 -0.0141174 -0.0161073
399 34 19 2.80318 17.5461 16.2737 0.00865485 -0.00435044 -0.00659004
401 34 1 2.83669 18.0477 17.5932 -0.0110932 0.0111739 -0.00996126
405 34 11 3.60928 17.9529 18.3565 -0.0556696 0.00136114 -0.037051
403 34 11 2.37279 18.9255 17.1897 -0.0383689 0.0361594 0.0127526
667 58 11 3.89389 15.1377 17.9374 0.0225796 -0.00217214 0.039656
404 34 11 1.98098 17.5835 18.143 0.0170739 -0.00838285 -0.0160596
670 58 11 5.62474 14.8563 16.8087 0.0532419 -0.00169009 -0.0578251
406 34 11 18.4905 18.7775 15.6998 -0.0446069 0.0576031 0.00363896
97 9 9 0.479652 15.5004 18.5901 0.00219386 -0.00832926 0.0159966
98 9 20 0.0465129 16.4988 19.0336 0.00772471 -0.00770449 0.0151892
236 20 11 8.32183 18.1082 0.026922 0.0046042 0.017588 -0.000605867
411 35 19 5.78653 0.151916 14.6225 0.0056164 0.00564294 0.00411651
446 38 20 7.49316 15.6385 15.5863 0.0108809 -0.00220395 0.0161356
669 58 11 5.58269 13.3072 17.5385 -0.00944872 -0.0335314 -0.000433514
661 58 9 6.53223 14.2881 19.5357 0.00489786 -0.00529509 -0.000798545
664 58 19 6.81862 14.5638 18.2427 -0.00144915 -0.00328502 0.00701886
665 58 2 5.50638 14.4216 17.8419 -0.015555 0.00147285 -0.0126467
467 39 11 7.67671 18.8293 15.4148 0.0492668 -0.04364 0.00448403
458 39 20 9.10391 17.236 17.7563 0.0137972 -0.00360378 -0.00255168
237 20 11 7.59774 19.4212 18.9555 -0.122128 0.00267293 0.0666489
235 20 11 7.71777 19.1112 0.704262 0.0380915 -0.0253418 -0.0393902
233 20 1 7.54106 18.7064 19.6878 0.00355463 0.023585 -0.0202267
460 39 19 9.46156 18.0131 15.721 -0.00824144 0.00197925 -0.00167631
462 39 1 8.65896 19.074 15.3961 0.0188093 -0.00774498 -0.0180855
457 39 9 9.84329 17.9125 17.0507 0.00727891 0.0110903 0.007235
75 7 19 12.2055 15.3139 19.7195 0.0047877 0.0104796 0.00532423
752 72 26 14.6995 19.6322 18.6999 0.0164 -0.0037158 -0.00314596
79 7 11 11.3096 14.7267 18.2114 0.0266887 0.00717983 -0.00419435
459 39 19 11.1945 18.2317 17.1877 0.0116535 -0.0035211 0.00700737
465 39 11 11.115 18.0244 19.1289 0.0405328 -0.0661329 0.00998296
254 22 20 13.8508 14.7966 15.8253 0.00246989 0.00498447 -0.00108207
464 39 11 11.588 19.5983 18.5196 0.0401524 0.0474197 -0.0505743
461 39 1 11.6176 18.6037 18.5093 0.022134 -0.0119094 0.00307399
463 39 11 12.5022 18.4823 18.166 -0.0205603 -0.0102935 0.0126637
754 72 26 15.2108 17.5243 18.3007 0.00365177 0.00948275 -3.39696e-05
402 34 1 19.6928 18.4921 15.5207 0.00600865 -0.00187808 -0.000115696
261 22 11 18.0608 15.5952 16.2536 -0.0532141 0.031647 -0.0350975
259 22 11 17.0262 15.2754 14.8818 -0.0197442 0.0424124 0.0582057
21 2 11 16.0699 14.2324 18.4249 0.0220883 -0.0330164 -0.0312339
407 34 11 19.8802 18.1544 14.3304 -0.0100139 -0.0151269 0.027923
253 22 9 14.7726 15.5318 15.5205 0.00642314 -0.00963941 -0.0111104
255 22 19 15.8424 15.7221 16.3192 -0.0163297 0.00288127 -0.00130728
257 22 1 17.1165 15.8622 15.6818 0.0167223 -0.000431335 0.00122759
260 22 11 17.1039 16.8252 15.2584 0.0305731 -0.00448102 -0.0400109
750 72 27 16.0193 18.8246 18.457 0.0024127 -0.00574607 0.0017626
106 9 11 18.7008 13.6676 19.3347 0.095552 0.0118276 0.0831746
756 72 26 16.0444 19.0223 16.9656 0.00353063 0.00448682 0.000444165
751 72 26 17.4106 17.9323 18.2592 -0.00749125 -0.000780043 0.00513148
ITEM: TIMESTEP
1800
ITEM: NUMBER OF ATOMS
770
ITEM: BOX BOUNDS pp pp pp
0.0000000000000000e+00 2.0000000000000000e+01
0.0000000000000000e+00 2.0000000000000000e+01
0.0000000000000000e+00 2.0000000000000000e+01
ITEM: ATOMS id mol type x y z vx vy vz
136 12 19 4.65015 2.09627 0.34621 0.00919272 0.00221399 -0.00808953
59 5 11 1.18745 19.913 4.66375 -0.0303372 -0.037095 -0.0268372
52 5 19 1.65316 1.85223 4.40647 -0.0012817 0.00725163 -0.00231898
49 5 9 2.57871 2.8184 3.92056 0.00324154 0.0165942 1.77893e-05
51 5 19 3.9036 2.44077 3.82757 -0.00604642 0.00307411 -0.000518755
50 5 20 2.30989 4.05398 4.01657 -0.00562972 -0.000175178 0.0101707
133 12 9 5.53417 2.22043 1.46176 -0.0122912 -0.00714496 -0.00323378
135 12 19 6.0928 3.50205 1.84671 0.00477537 -0.00186058 0.0130948
116 10 11 19.2531 1.38137 3.96568 0.0158018 0.0115642 -0.00529969
134 12 20 5.89704 1.17283 1.93373 0.0186284 -0.000331803 -0.00562136
508 43 19 8.7104 0.0923187 3.38917 -0.0126801 0.00716546 0.00893021
505 43 9 8.77049 1.43803 3.86861 0.0235373 -0.0159728 -0.0160351
137 12 1 5.34695 4.54278 2.21314 -0.00827732 -0.00814064 0.0139233
140 12 11 6.13375 5.32009 2.29645 0.0389824 -0.0425413 0.00645582
56 5 11 5.57658 2.7625 4.38216 -0.0348051 -0.0556795 -0.058205
762 73 26 9.82142 2.8575 0.845586 0.013832 0.0030483 0.0020052
141 12 11 4.81863 4.60845 1.38443 0.0547258 -0.0158022 0.00173546
139 12 11 4.73374 4.50941 3.02704 -0.0407918 0.0231915 -0.0503312
734 68 31 7.75236 4.02542 3.53979 0.00466608 0.00996171 -0.0175151
759 73 26 8.43123 1.4996 0.202458 0.0030604 0.00154937 0.00821186
761 73 26 10.1559 0.787716 0.680585 -0.00964826 0.00351731 -0.00498828
507 43 19 10.1411 1.97496 4.1774 0.0100167 0.00948242 -0.00123871
132 11 11 10.9671 0.276621 2.41582 -0.0423839 0.0248344 0.00466576
170 15 20 13.3102 2.67481 0.630891 -0.0135219 0.00585121 0.00210189
169 15 9 14.0998 3.70172 0.493058 -0.00752932 -0.0122185 0.00674289
174 15 1 13.1223 4.97073 2.2696 0.00126726 0.00490888 0.00719883
172 15 19 14.2585 4.59463 1.37884 -0.0210322 0.00923064 -0.01311
130 11 11 12.6248 19.8084 2.27887 -0.0388782 0.00711624 -0.0277948
124 11 19 12.6212 1.06664 3.78727 0.00715081 0.003812 0.00549067
513 43 11 11.1981 2.85456 5.34134 0.0180423 0.0405856 0.0356946
178 15 11 12.1266 4.24044 2.17497 -0.0199691 -0.0193772 0.0240931
126 11 1 11.8386 0.0433826 3.10533 0.00664236 -0.0141948 0.0171451
121 11 9 13.933 0.852096 4.18087 0.0156932 -0.0167166 0.00524084
179 15 11 12.3806 5.77054 2.08959 0.101235 0.0290681 0.0471437
131 11 11 11.2716 19.2263 3.87112 -0.0165062 -0.0366197 -0.0213149
180 15 11 13.4521 5.06241 3.46241 0.0188465 0.052279 -0.0314712
113 10 1 19.0753 1.75563 3.02854 0.00754798 -0.00806147 -0.00604363
115 10 11 18.4706 0.946876 2.64268 0.0122166 -0.051435 -0.0130671
117 10 11 19.7003 1.49731 2.2007 0.0213349 0.0295412 0.0445497
175 15 11 16.11 2.1108 1.20067 0.0404141 -0.0644306 -0.0291784
109 10 9 18.587 4.09277 3.86565 -0.00144036 0.01382 -0.00628107
111 10 19 18.2819 2.99039 2.89916 -0.00965901 0.00657149 -0.00125452
123 11 19 14.8144 1.05623 3.06124 0.00633677 -0.00983902 -0.00617741
128 11 11 15.6538 19.0461 2.90337 0.0115166 -0.0578657 -0.00899918
38 4 20 1.04849 8.44852 4.23189 0.001145 -0.0125755 -0.0174594
674 59 19 3.33814 9.11597 1.30384 0.00282224 0.000133741 0.00850039
680 59 11 5.5816 9.00728 2.1143 -0.00899502 0.01479 0.0276656
675 59 2 4.67631 8.65384 1.52395 -0.00269508 -0.00312488 0.0087752
37 4 9 1.70961 8.20259 5.10793 0.0255726 0.00254053 0.00874691
39 4 19 3.12911 8.6124 5.31558 -0.00567704 0.00561864 -0.00873213
44 4 11 4.24297 9.98492 5.41583 0.00551469 0.0408249 -0.0656733
41 4 1 3.21637 9.79871 4.89475 -0.00506843 -0.00113434 -0.0194847
333 28 11 17.8921 6.27633 2.36621 -0.0677497 -0.0107491 0.00584474
45 4 11 3.3958 9.80921 3.75139 -0.0159239 0.0510635 0.0428451
679 59 11 4.26639 7.79895 2.19755 -0.0334501 -0.0485044 0.0145669
205 18 9 8.69674 6.65358 3.06871 -0.0075729 0.00767558 0.00772284
206 18 20 7.8432 5.85243 3.62032 -0.00181293 -0.00341532 -0.0100149
210 18 1 8.76401 9.15458 2.73886 0.000769316 -0.00476639 0.0131143
215 18 11 9.57358 9.01242 1.93865 -0.0183973 -0.0100663 0.013231
208 18 19 8.30964 7.96317 3.26985 -0.007573 -0.00346974 0.00344137
216 18 11 8.16399 9.90693 2.25641 0.00234593 0.00219392 -0.0533352
214 18 11 9.03946 9.97679 3.34475 -0.0348052 0.00394761 0.0159249
718 63 11 11.0348 8.26338 18.6504 -0.0279122 0.00879816 -0.0772992
491 41 11 6.29251 7.9296 6.13154 -0.0108913 0.0370587 0.0310488
490 41 11 4.8133 6.89965 5.09007 -0.0561617 0.00819685 -0.0292642
207 18 19 10.0778 6.33902 2.83257 -0.022537 0.0137118 -0.0120432
209 18 1 10.5905 6.53928 4.02877 -0.00770897 -0.00579294 0.00885799
213 18 11 11.5931 5.88661 3.85048 0.0144751 -0.0213346 0.00238207
212 18 11 11.2778 7.3417 4.16441 0.0141369 0.0543004 0.0383698
593 51 19 14.888 6.53217 19.3663 -0.00448752 -0.0073601 -0.00774565
211 18 11 10.1789 5.92586 4.69299 -0.0326298 0.00340059 -0.0501092
597 51 11 14.0557 7.84571 0.430939 -0.0270383 0.0243713 -0.0488017
335 28 11 14.5645 8.80738 3.39898 -0.0938589 -0.00262448 0.0736495
336 28 11 14.4407 6.87947 3.05789 -0.0639737 0.0328992 0.0245089
334 28 11 15.4358 7.11102 4.43279 0.0209377 0.0550508 -0.0673193
592 51 20 16.9966 5.79983 19.3803 0.0186379 -0.00804522 -0.0204882
332 28 11 18.9795 6.49814 1.69446 -0.0660776 -0.0226338 -0.00257704
331 28 11 18.8528 6.6475 3.59684 -0.0630339 -0.0550265 0.0271448
329 28 1 18.5983 6.84415 2.49414 -0.0260013 0.00448906 0.0192367
328 28 19 16.1168 7.82109 2.39018 -0.00553336 -0.00909413 -0.00244399
326 28 20 17.2029 8.825 4.11392 -0.0152519 -0.00499511 -0.00399199
325 28 9 17.4468 8.54838 2.94373 0.00423514 0.0255441 0.0107036
327 28 19 18.6519 8.13605 2.17353 0.00622789 0.00379596 -0.00700401
330 28 1 15.1323 7.68769 3.43056 0.0307026 0.00180731 0.00113971
733 67 31 19.715 7.96075 1.07147 0.0221158 -0.0545399 -0.0343823
63 6 19 0.00149376 10.4601 2.38993 -0.000511656 -0.00678002 0.0140111
577 49 11 3.42854 13.5185 2.28018 -0.0502757 0.0572787 0.0403756
576 49 2 4.19629 12.8818 2.87858 -0.00511503 0.00857363 0.00106673
579 49 11 5.46986 14.5277 2.42914 -0.00255097 0.034532 -0.0255043
61 6 9 19.7643 11.58 3.31613 0.00244438 -0.0102477 -0.00374044
580 49 11 4.9764 14.4315 4.09523 -0.0105316 -0.00259349 0.088902
578 49 11 4.30956 12.282 1.90988 0.0305535 0.0352676 -0.053922
573 49 19 4.84457 11.4938 2.99804 -0.011701 0.000756299 -0.00797919
575 49 2 5.23335 13.8092 3.32032 0.0192845 0.00364772 0.0189157
62 6 20 19.9399 12.7324 3.04018 0.00625573 0.00623279 0.00781237
572 49 20 6.6501 10.7483 4.13964 0.00435762 -0.0062725 -0.000793774
571 49 9 5.91688 11.5792 3.63942 0.00386974 -0.00692799 0.00175616
574 49 19 6.2993 12.9964 3.82867 -0.00750061 0.000780408 -0.000101002
84 7 11 8.90449 13.6469 2.23822 -0.0119291 -0.0129053 -0.0132788
78 7 1 9.96701 13.2627 2.01405 0.0195617 0.00364329 -0.0103343
83 7 11 10.4092 13.6659 2.89555 0.0148114 -0.0177733 -0.0260844
654 57 19 7.66024 14.9091 4.42389 0.00169118 -0.00362616 0.0130856
722 64 20 13.1435 9.27393 1.83424 0.00678726 -0.00362058 -0.0191484
82 7 11 10.0887 12.2 2.09889 -0.0151676 0.0243761 0.0124648
727 64 11 11.4594 10.4627 3.54954 0.0180762 -0.0102241 -0.03628
726 64 2 12.28 11.1936 3.68071 0.0014249 0.00317979 -0.00401106
723 64 19 11.616 10.8405 2.57746 -0.00306338 -0.00499593 0.0162337
721 64 9 12.8414 10.5424 1.85458 0.0277805 0.00675861 0.0235802
728 64 11 11.9667 11.5594 4.40273 0.0393661 0.050244 -0.0142765
724 64 19 14.2114 11.1355 2.07975 -0.0120555 -0.00371926 -0.0119233
725 64 2 13.7913 11.5258 3.43316 -0.0126811 0.00161427 0.00657428
76 7 19 10.4097 13.7812 0.851102 0.00727721 -0.00512862 -0.00576118
74 7 20 12.4407 13.026 0.324281 -0.00251771 -0.00897914 -0.0103792
659 57 11 9.60726 14.017 5.04671 0.0184361 0.0562449 -0.0130915
655 57 2 8.87616 14.5726 4.93832 -0.0251009 -0.00449079 -0.00305169
660 57 11 8.68315 14.5617 3.78785 0.0314082 0.0284837 -0.0753803
639 55 11 15.8659 16.0879 6.33225 0.0167925 -0.0209675 -0.0262862
68 6 11 0.747657 10.9325 0.695778 0.00531505 -0.00420674 -0.00499661
65 6 1 19.7673 10.9648 1.08917 -0.013795 -0.020987 0.00354161
67 6 11 19.3303 10.1553 0.478858 -0.0236249 0.0206744 0.0272012
729 64 11 14.3532 12.3314 3.33159 -0.0457606 -0.171976 0.0639423
383 32 11 18.3258 14.2164 2.02958 -0.0466116 -0.0550645 -0.0986218
382 32 11 16.3711 14.0732 1.87752 -0.000114256 0.000124174 0.037124
378 32 1 17.3497 14.8573 2.06729 0.01167 -0.0202322 0.00178841
384 32 11 17.1085 15.2334 1.24393 0.00181382 0.0176908 0.00358961
70 6 11 18.7638 10.6037 5.79309 0.0880811 -0.0158012 -0.0402853
64 6 19 18.6987 10.9359 4.17779 0.011312 0.0117428 0.0022593
66 6 1 18.6626 11.7446 5.37094 -0.0113886 -0.000475651 -0.00517552
54 5 1 2.03067 0.435756 4.24217 -0.00738128 -0.00527247 0.00248496
104 9 11 2.50461 15.3564 1.3521 0.0478606 -0.000226868 0.0277723
240 20 11 3.5248 17.7231 2.63973 -0.00752071 0.0143279 -0.00574117
239 20 11 4.95139 18.2066 2.92512 0.0294158 0.0264382 -0.0193159
238 20 11 4.74608 16.735 3.36364 0.0566997 0.0696327 -0.0147396
234 20 1 4.45034 17.3835 2.5662 0.00486488 0.0109573 -0.000697425
232 20 19 4.77699 16.8465 1.17063 0.00333506 0.00308937 -0.00641619
105 9 11 1.22962 14.3784 1.3465 0.0324763 0.0275677 0.0281235
103 9 11 1.14324 16.2672 1.18667 -0.00787947 0.0109461 0.0562616
380 32 11 0.206168 16.8573 2.97657 0.0716492 0.0148466 0.0519794
377 32 1 19.6807 17.8051 3.18979 -0.000744986 -0.0125223 0.0148326
379 32 11 19.7493 18.2512 4.13916 0.0244978 -0.00143461 0.0141766
60 5 11 1.86072 0.180978 3.17742 -0.0548724 0.0503049 -0.0321663
58 5 11 2.91589 0.074749 4.75644 -0.0101162 -0.0165597 0.0752341
242 21 20 2.46381 16.1021 4.54092 -0.0148593 -0.00774945 0.00334193
101 9 1 1.55558 15.2587 0.812813 0.00235678 -0.0140195 0.0136015
516 43 11 6.61027 19.5681 4.05382 -0.0686268 0.0567875 -0.0173458
652 57 20 6.4297 16.65 5.26313 0.00809018 0.00373536 0.000575442
515 43 11 7.69107 18.44 4.22467 -0.0548828 0.0270424 0.0381806
230 20 20 6.71593 16.5008 1.43093 0.00160061 0.000889108 0.0139413
229 20 9 6.11353 17.3178 0.8737 -0.00620328 0.00702646 -0.0147946
514 43 11 7.3182 18.759 2.69209 0.0472767 0.00750334 0.0055807
510 43 1 7.54695 19.2706 3.70096 0.0154459 0.00180629 -0.0124086
191 16 11 9.81289 16.6617 0.988185 -0.0253764 0.00474673 0.037523
662 58 20 7.24654 13.644 0.275368 -0.0143448 -0.0122328 0.000557115
231 20 19 6.35461 17.8976 19.5407 0.0027993 -0.00496154 0.00743733
73 7 9 11.6961 13.8457 0.578224 -0.00646394 -0.0091 -0.0109502
182 16 20 12.8284 16.7035 3.71057 -0.00518019 -0.00151262 0.00393205
186 16 1 10.4996 16.986 1.80092 0.00420339 -0.0269216 -0.00825572
192 16 11 11.1152 17.0608 0.866333 -0.00836381 -0.0021296 0.0755284
190 16 11 10.1714 17.9303 2.1822 -0.0271171 0.0387749 0.020995
184 16 19 11.0326 15.913 2.48498 -0.00406941 0.00597826 0.00910487
181 16 9 12.4446 16.2445 2.66712 0.00321067 -0.0192406 0.0102996
183 16 19 12.9905 16.8977 1.81231 0.0109591 0.00398825 0.00208773
185 16 1 14.3064 16.5593 1.27723 -0.0124661 0.00716273 -0.0263825
187 16 11 15.059 17.1909 1.94042 -0.0229369 -0.0329881 -0.0258007
188 16 11 14.7015 15.4612 1.28985 -0.0170002 0.0751395 0.0108671
640 55 11 14.7295 15.616 5.3004 0.00227568 0.00145773 0.00468517
376 32 19 16.8712 15.4646 3.19787 0.00196106 -0.00402666 -0.00592847
189 16 11 14.2065 17.1098 0.480093 0.0258804 -0.00954049 0.0173875
755 72 26 16.1824 18.4918 0.0532367 0.0103851 -0.00460529 0.00435645
373 32 9 17.6326 16.8582 3.62394 0.00699861 0.0254345 -0.0151094
375 32 19 18.4908 17.5578 2.77701 -0.0021001 0.00201758 -0.00451142
125 11 1 15.7493 0.0833665 2.78656 0.00338251 0.00484292 -0.0119911
127 11 11 16.4995 0.503653 3.47113 -0.045532 0.0824868 -0.0104831
381 32 11 0.292827 18.1405 2.48785 -0.0212504 0.0502828 -0.00371637
129 11 11 16.2062 0.0726476 1.83008 -0.0602311 -0.0346446 0.0510912
374 32 20 16.8982 17.573 4.3384 -0.000586631 0.0129323 0.0171539
57 5 11 4.60231 3.90633 5.10409 -0.0732296 -0.0244123 0.0117721
691 61 9 2.28629 2.3673 7.26245 0.00792048 0.00636398 0.00373611
693 61 19 1.0685 2.86435 7.3497 -0.0105304 0.0045509 -0.00381615
692 61 20 2.52851 1.21821 6.89557 0.0079294 -0.00354264 -0.00122542
694 61 19 3.29587 3.19676 7.78101 0.00636884 -4.99566e-05 -0.00253274
698 61 11 0.970372 4.33591 6.39146 -0.0152334 0.00797098 -0.0504789
696 61 2 1.13693 4.27565 7.49295 0.000955974 -0.0171649 -0.0109795
695 61 2 2.70272 4.50705 7.85361 0.00561166 0.00419619 0.0121312
53 5 1 4.66727 2.84464 4.92891 0.0179514 -0.00101533 0.00565995
699 61 11 2.97606 5.574 7.53923 -0.0156063 0.0374586 -0.0419636
506 43 20 7.74495 1.96989 4.18378 -0.000649373 0.0190992 -0.00901548
511 43 11 10.0328 2.8465 6.25742 -0.0708045 -0.0297794 0.0202336
512 43 11 10.0519 4.08752 4.76119 -0.0730293 0.056465 -0.0112952
55 5 11 4.66788 2.32308 5.87931 0.0155841 0.0221032 0.0471072
86 8 20 6.25026 2.01851 7.41609 0.00731958 0.00430431 -0.00224908
85 8 9 6.2831 1.11236 8.24346 0.00128176 0.0059624 0.000456389
87 8 19 6.95733 1.33096 9.63417 0.0158187 0.00107943 -0.0024581
481 41 9 7.78679 6.01987 6.66627 -0.000765037 0.0105471 -0.0150081
482 41 20 8.12152 4.94739 5.94162 0.0158071 0.00389412 -0.000310105
483 41 19 8.53662 7.16468 6.3868 0.000214819 0.00808257 0.00851957
91 8 11 7.11724 19.4171 10.1305 -0.0143258 0.0611948 0.0569565
509 43 1 10.1886 3.09619 5.22098 0.0129737 0.0238988 0.00350209
122 11 20 14.1527 1.72802 5.09732 -0.0109532 0.00119168 0.00412102
556 47 2 11.1893 1.20059 7.39387 0.0100415 -0.00979525 -0.0104057
553 47 19 11.2145 0.343797 6.19846 0.0179739 -0.00651473 0.00797127
558 47 11 11.5596 1.88573 8.05705 0.00977556 0.00306201 -0.00795811
557 47 11 12.1602 0.879874 7.00466 0.0337459 0.00531517 -0.00830669
364 31 19 13.7127 5.03312 7.95575 0.000510935 -0.0155877 0.00736965
361 31 9 12.6764 5.00903 6.94427 0.0157167 -0.00323102 -0.0161236
362 31 20 11.4486 4.75959 7.22416 0.00320618 -0.0127862 -0.000231759
370 31 11 13.4374 3.03789 8.33328 0.0153036 2.10595e-05 -0.0581189
570 48 11 10.7321 5.76521 11.1866 -0.0459842 0.0571973 0.00122574
565 48 2 10.1509 5.56309 10.3662 0.0177474 -0.0164973 -0.0114058
560 47 11 10.0284 0.790642 9.13148 0.0362358 0.0385381 -0.0247357
282 24 1 14.41 19.268 7.91578 0.00492935 0.0100246 -0.00437152
551 47 9 10.8811 19.0755 6.72777 0.00199489 -0.0108365 0.00224854
286 24 11 13.9446 18.8552 8.75955 -0.0364671 0.00545124 -0.0472827
569 48 11 10.5195 6.52508 9.82208 -0.0305467 -0.028427 -0.054104
119 10 11 16.289 3.54618 5.60598 0.0115264 0.0369497 0.0350203
118 10 11 17.738 4.11512 6.07901 -0.0039142 0.0557491 -0.0435034
114 10 1 16.8913 4.44726 5.56738 -0.00925379 -0.00173627 0.0020248
112 10 19 17.32 4.92758 4.29418 -0.00713068 -0.00489877 0.0186801
120 10 11 15.9731 4.98736 5.92475 0.0706134 -0.0264808 -0.0379504
110 10 20 19.344 4.07737 4.71273 -0.00361326 0.00221711 -0.000880312
301 26 9 0.630918 1.25455 9.75252 -0.00656348 -0.00904431 0.00328016
372 31 11 14.1172 3.84707 9.49223 0.08497 0.00767385 -0.0345883
366 31 1 14.0943 3.72492 8.46305 -0.0128184 0.0418648 0.0142936
371 31 11 15.0787 3.41066 8.23468 -0.0417375 0.0291276 -0.0274986
280 24 19 15.8551 19.3458 8.28655 -0.00513249 -0.00893205 0.00947247
277 24 9 16.3982 0.370311 7.69766 -0.0220028 0.00892336 -0.00809062
279 24 19 16.7753 0.0115713 6.4994 0.00537878 -0.00376364 -0.00669828
285 24 11 18.0353 1.39886 5.5672 -0.00608444 -0.00969644 0.00105053
278 24 20 16.4327 1.43778 8.20579 0.00651262 0.00210712 0.0057007
310 26 11 19.1762 4.08148 9.84967 -0.021082 -0.0171617 0.022166
304 26 19 0.10202 2.41154 10.3384 -0.00220131 0.00335936 -0.00454973
312 26 11 18.6921 2.8391 8.63314 0.00136975 0.00874178 0.0617784
306 26 1 19.0174 3.07826 9.59534 0.00510362 0.00473264 0.0134194
43 4 11 2.61165 10.5954 5.2411 0.0195327 -0.000451133 -0.029815
700 61 11 3.17079 4.1613 8.70008 -0.000909995 0.0172023 0.0235614
697 61 11 0.654792 5.15432 7.84922 -0.0722324 0.0500901 -0.0357828
354 30 1 2.49105 9.58202 9.63468 -0.00633978 -0.00206652 0.00363095
492 41 11 4.80611 6.96096 6.55079 -0.037682 0.0533357 -0.0346746
357 30 11 6.43242 7.41614 9.12302 0.0170562 0.0553649 0.0348476
40 4 19 1.11801 7.18899 6.16361 -0.00940456 0.010898 -0.00571483
358 30 11 1.37509 9.23018 9.75152 -0.0327589 0.00628977 0.021663
356 30 11 6.41361 6.9119 10.7876 0.0653615 -0.074915 -0.0623418
355 30 11 5.14345 6.61079 9.68172 0.0181379 0.0503228 -0.0259867
484 41 19 6.35998 6.10854 6.66932 -0.0151694 0.00633959 0.00509531
486 41 1 5.64126 7.05197 5.9371 0.0093698 0.000355525 0.00198557
485 41 1 9.65093 7.14021 7.14703 -0.00590742 0.00969304 0.011169
353 30 1 5.87459 7.40578 10.1419 0.00132362 -0.0184502 0.0172081
487 41 11 10.156 6.25782 7.09218 0.0619665 -0.00257088 0.0352094
489 41 11 10.1813 7.85605 6.2338 0.0411326 0.0212831 -0.0319391
488 41 11 9.53657 7.81266 7.98228 -0.0550198 0.0102807 0.0376566
479 40 11 8.04078 10.782 6.07605 -0.00208249 0.0602357 0.0447115
472 40 19 9.18935 10.2597 7.87919 0.00898546 0.00745879 -0.0155784
568 48 11 8.6089 6.56643 9.43507 0.0353919 -0.0349181 0.00885746
363 31 19 12.9194 5.98857 6.10171 0.00536019 -0.00420752 -0.00234515
473 40 1 12.5004 10.547 8.06518 0.003848 0.0190895 0.00840545
476 40 11 12.7475 9.96096 7.21391 0.0597786 0.0286371 0.0826618
475 40 11 11.8203 9.71048 8.4306 -0.0160076 -0.0130547 -0.0256214
365 31 1 13.0438 7.2364 6.66864 -0.00873921 0.00279568 0.0259963
368 31 11 12.7358 7.84912 5.86347 0.00508018 -0.0568367 -0.0246392
369 31 11 13.0386 7.68681 7.71143 0.034079 0.0257503 -0.0992495
367 31 11 14.0947 7.30638 6.33253 -0.0327261 0.00879402 0.0448429
548 46 11 15.6449 7.7599 10.6058 -0.00325389 -0.00720471 0.00799101
547 46 11 15.1586 6.41667 10.41 -0.051343 0.00173883 0.0134719
546 46 2 15.9414 6.88501 10.1125 0.017235 -0.00312647 -0.0033931
609 52 11 12.0695 8.7999 9.92099 0.088351 -0.00572061 0.0360479
542 46 20 17.6656 6.71136 7.26812 -0.00561099 -0.0044851 0.00583724
46 4 11 19.7959 6.93901 6.85398 -0.0653465 -0.00205648 0.0108152
48 4 11 0.782662 8.14854 7.73297 0.0414285 0.00153951 0.0419889
42 4 1 0.314161 7.8488 6.91617 0.00507066 0.00742767 -0.00818875
543 46 19 15.9174 6.94067 8.68503 8.91702e-05 0.00913592 -0.0101466
47 4 11 19.7144 8.62947 6.50651 -0.00411477 0.000470913 -0.0816397
541 46 9 17.25 6.53642 8.42769 -0.00139065 -0.00914415 -0.0134478
6 1 1 16.5995 9.65894 7.06236 -0.00969745 -0.0107589 0.000301982
12 1 11 16.1129 8.79656 6.6706 0.0150768 0.00214152 0.0812226
1 1 9 18.5806 9.93367 8.87215 -0.00420627 -0.00901174 0.00941316
2 1 20 18.9046 9.06212 9.56574 -0.0224902 0.0166918 0.00318653
11 1 11 16.3437 9.70691 8.09578 -0.000279745 -0.0458004 0.0924003
248 21 11 2.21039 13.2409 5.25418 -0.0409818 0.0244895 -0.0346525
360 30 11 2.8027 9.16875 8.64916 -0.0533333 -0.0419526 -0.0510077
245 21 1 1.52429 13.9555 5.76064 -0.00372876 -0.0166567 -0.0111082
247 21 11 1.31412 13.573 6.71505 0.0407057 0.0534928 0.0279298
612 53 20 3.19679 11.6262 7.32309 -0.00605811 -0.00568094 -0.0104504
249 21 11 0.481396 14.2401 5.50243 -0.0185093 0.0417909 -0.0181531
613 53 19 4.05887 13.7672 7.65018 0.0120938 0.0228945 -0.00228162
582 50 20 0.303352 14.1207 9.84342 0.000534635 0.00555909 0.0216543
581 50 9 1.50443 13.9094 9.68023 -0.0128709 0.0147253 0.00302558
584 50 19 1.83369 12.8401 10.6044 -0.00237963 0.00325356 -0.00900745
616 53 2 5.45993 14.0734 7.19575 -0.0126327 -0.00594818 -0.00258866
478 40 11 7.30278 9.58233 6.97559 -0.0578341 -0.00588502 -0.0325003
474 40 1 8.04025 10.2422 6.8908 -0.0118834 -0.00965044 -0.0238384
480 40 11 8.44697 9.44959 6.31435 -0.0643799 -0.00747203 0.0408517
611 53 9 4.14445 12.3912 7.04825 -0.0105428 0.0039821 -0.00824982
615 53 2 6.50946 12.9022 7.05431 0.00133571 -0.00893236 0.00639207
614 53 19 5.43975 11.9612 6.80759 -0.00586491 -0.00262544 0.0115578
620 53 11 6.62038 12.4088 7.91741 -0.057243 -0.0197794 0.00957545
619 53 11 7.38199 13.4354 6.7025 0.0462258 0.0297236 -0.0401079
730 64 11 14.3 11.3143 4.49463 0.0427766 0.0275144 -0.0516932
469 40 9 10.3303 10.6954 7.30901 -0.00249897 -0.000283622 -0.00108573
471 40 19 11.3376 11.4272 7.99498 0.0130663 -0.00256023 -0.0154107
477 40 11 13.2212 11.0323 8.58801 0.00114918 0.0335094 -0.0169243
470 40 20 10.6262 10.1966 6.2335 -0.00368472 -0.00312569 -0.00360057
631 55 9 14.1139 13.8019 7.13832 0.00518609 -0.00182111 0.000427629
634 55 19 14.9161 14.0835 6.17844 -0.00640895 -0.00924721 -0.00787798
632 55 20 13.6205 12.7095 7.38306 -0.00149944 -0.0190316 -0.00393761
633 55 19 13.5953 14.6882 8.05703 -0.00872242 -0.00169836 0.00360358
152 13 11 11.5186 14.0388 11.8991 0.0274596 -0.00268437 0.0685524
4 1 19 18.0321 9.6245 7.43104 -0.000230606 -0.00465343 0.0184862
10 1 11 16.1973 10.6126 6.87175 -3.92454e-05 0.0510419 0.0234914
71 6 11 17.5112 11.6634 5.59552 -0.0905366 0.0491456 0.0141868
72 6 11 19.373 12.6128 5.48494 -0.0696838 0.0215186 0.0655015
3 1 19 18.7454 11.4768 9.47133 0.0034698 -0.00714587 -0.0106676
8 1 11 16.996 11.0748 10.0696 -0.0494697 0.0505588 0.0137181
682 60 20 17.9328 14.6622 6.08513 0.00511413 0.0130037 0.0104808
243 21 19 1.96546 15.3318 6.45368 0.000204968 -0.00207461 -0.0147846
241 21 9 2.15878 16.4121 5.65036 0.0136141 0.0123966 0.0183601
244 21 19 2.60297 17.5345 6.33711 0.0017559 0.0175208 0.0139863
251 21 11 1.43245 17.3978 7.93587 0.0340028 -0.0162189 0.0766249
246 21 1 1.57908 17.8935 7.1257 0.00309827 -0.00105327 -0.00984134
252 21 11 0.724972 17.7384 6.44527 -0.0103594 0.0185343 0.00280402
250 21 11 1.77888 18.9751 7.37094 -0.0229141 -0.0263034 -0.0116781
524 44 11 19.8935 17.8947 10.0817 -0.0533199 0.0124431 0.0118012
88 8 19 5.87765 19.8807 8.11478 0.00469231 0.00600516 -0.000559622
523 44 11 19.4969 18.9531 11.5864 0.0304741 0.00129795 -0.020212
521 44 1 0.035303 18.0811 11.2441 0.00206775 0.00868918 0.00257682
651 57 9 7.58693 16.326 4.93807 -0.0180399 -0.00934071 -0.000130895
653 57 19 8.69893 16.9315 5.40986 -0.00296503 0.00298463 -3.47891e-05
94 8 11 5.14425 0.150115 6.37825 -0.0258244 -0.0444653 -0.00941057
617 53 11 5.53044 14.6332 8.1522 -0.03759 -0.02651 -0.0039252
656 57 2 9.60256 15.8841 5.22379 0.0215281 -0.00527321 -6.92539e-05
95 8 11 6.15522 19.0407 6.1673 -0.0112232 -0.00747926 -0.00447843
96 8 11 4.72252 18.5752 7.33238 0.00272126 0.0103767 0.0512098
90 8 1 5.38057 19.3577 6.91149 -0.0178567 0.00991205 0.00514565
618 53 11 4.98052 14.7715 6.5531 -0.0292215 -0.0140088 0.00648665
503 42 11 5.98824 16.6067 7.7867 0.0648134 0.0130354 -0.0412289
498 42 1 6.85486 17.0259 8.43175 0.00768186 0.0077943 -0.00811824
502 42 11 6.56072 17.1984 9.39171 -0.0303374 0.0242517 -0.0121775
554 47 19 9.7914 19.2321 7.79516 -0.0182413 0.00832267 0.0236755
493 42 9 8.39979 15.6974 9.64966 0.00755466 0.0118214 -0.0187953
504 42 11 7.31381 17.691 7.79165 0.0327474 -0.0333791 -0.0420839
496 42 19 7.77577 15.9363 8.41605 -0.00167212 0.000810804 0.0218667
495 42 19 9.52122 16.5929 10.0193 -0.0138782 0.00660564 -0.00523289
555 47 2 9.95822 0.545863 8.12027 -0.0124641 0.00101615 0.00126812
559 47 11 9.05091 0.655336 7.51916 0.0293159 0.0786903 0.00327169
288 24 11 13.7554 0.306917 8.25132 0.039875 -0.072221 0.08827
287 24 11 14.1892 18.7048 7.10796 -0.00840612 0.00617665 0.0194327
636 55 2 13.649 15.768 7.13242 -0.00147663 0.000657046 0.00191721
635 55 2 14.955 15.5277 6.31294 0.00563777 -0.0132559 0.00631298
657 57 11 10.6672 15.8585 4.81593 -0.000192444 0.00568921 -0.0290015
658 57 11 9.96952 15.8962 6.23032 -0.0389524 0.0629539 0.0444485
500 42 11 11.2559 15.536 9.53787 -0.0218173 -0.0437187 -0.043864
638 55 11 12.6394 15.491 6.80604 -0.0220672 -0.0678702 -0.00609129
637 55 11 13.4531 16.8854 6.76622 0.0465668 0.0259587 -0.0445311
552 47 20 11.4974 18.0055 6.31644 0.00288211 0.00171493 -0.0100823
497 42 1 10.594 16.2748 9.11935 0.0175543 -0.0118847 0.0053951
499 42 11 11.2519 17.2122 9.57829 -0.0304705 0.0745925 0.00513976
501 42 11 10.5454 16.0097 8.08797 0.0633147 0.0209783 -0.0707797
703 62 19 13.117 18.1931 11.8132 -0.00819139 0.00791444 0.0151789
284 24 11 18.6487 19.7749 5.6804 -0.0133761 -0.0288237 0.0223946
281 24 1 18.0089 0.455014 6.18743 0.00635123 -9.10098e-05 -0.00495094
283 24 11 18.6628 0.728386 7.08626 0.0352755 -0.0252168 -0.0197521
302 26 20 19.9463 0.625889 9.08586 0.00796452 -0.0169418 0.000172713
683 60 19 17.0969 14.7131 8.04638 0.0123708 0.00547321 0.00356424
681 60 9 18.1464 14.9971 7.24499 0.00678528 -0.0262147 -0.0119689
686 60 2 16.9858 15.6721 8.99021 0.00802319 0.00761545 -0.00161515
685 60 2 18.107 16.5147 8.65085 0.0117617 0.00475481 -0.0182822
690 60 11 17.9601 17.6946 8.6968 0.0501205 0.00269472 -0.012147
688 60 11 16.0143 15.9684 8.62905 -0.0351436 -0.00719885 -0.0600342
687 60 11 16.9428 15.143 9.97574 0.0503736 -0.00752813 0.02885
684 60 19 18.5673 16.1559 7.34339 0.00328365 0.00600162 0.00776758
689 60 11 18.633 16.0108 9.4597 0.0138544 0.00898981 0.00718403
525 44 11 0.879952 18.104 11.828 -0.0215228 -0.0578499 0.00162033
303 26 19 1.54659 0.460489 10.4785 -0.00092017 0.00453112 -0.00158737
308 26 11 2.71753 2.26602 10.3095 0.0138926 0.0610409 -0.00553363
305 26 1 2.763 1.30731 10.8016 -0.00985687 -0.00357932 -0.00328981
309 26 11 3.18737 1.45116 11.8227 0.0169793 -0.027191 -0.0540983
307 26 11 3.51198 0.82942 10.0241 -0.0124613 0.0361478 0.00318844
226 19 11 1.4135 6.06628 11.804 0.0529801 0.00746144 -0.0483072
224 19 11 6.90386 4.50472 11.6995 -0.0315846 -0.082993 0.0204051
622 54 20 0.418549 1.36157 13.285 -0.000929977 -0.0108997 0.000295872
624 54 19 0.453268 3.39747 14.1731 -0.0122294 0.0056555 0.00767699
219 19 19 4.65426 3.61999 12.1286 0.00713114 0.00712202 0.00387506
221 19 1 5.99178 3.89171 11.4189 0.0173337 0.00343293 0.0193274
225 19 11 5.4626 4.53106 10.6578 -0.026714 -0.0398616 0.0354362
223 19 11 6.29778 2.95212 11.0428 0.00278955 -0.0146738 -0.0045919
621 54 9 19.9262 2.172 14.0138 0.0086397 -0.00693693 -0.000992681
220 19 19 2.69039 4.75416 12.6853 -0.0126771 0.0146734 -0.0030929
217 19 9 4.00339 4.92223 12.3527 -0.00212672 0.00974774 -0.00125861
276 23 11 1.25721 6.50944 17.4881 0.0234715 -0.0452665 -0.0292319
89 8 1 7.69724 0.180083 10.1924 -0.0174549 0.0108193 0.00181633
561 48 9 9.05786 3.83839 10.6275 -0.0090686 0.0107408 -0.0149463
563 48 19 8.24722 4.62472 10.0067 0.0147568 -0.000532807 0.00579057
93 8 11 8.64393 19.5592 9.98379 0.000229836 -0.00653139 -0.0435286
416 35 11 5.99417 2.37898 14.1042 0.0122413 0.0357497 0.00765816
413 35 1 6.56237 1.50815 14.014 0.0204476 0.00975816 -0.00570891
415 35 11 7.02275 1.89467 13.0662 0.000863733 0.0316497 0.031728
417 35 11 7.23353 1.77491 14.8707 -0.00199564 0.01887 -0.0254261
562 48 20 8.81571 3.27529 11.552 -0.00983671 0.000846692 -0.0205626
735 69 31 4.01797 4.95016 14.8738 0.00525144 0.0111547 0.0041169
564 48 19 10.5365 4.30905 10.5341 -0.00221351 0.00730352 0.017205
539 45 11 13.5573 4.17148 11.7563 0.0168922 0.0215904 -0.0456345
705 62 2 11.0807 18.2122 12.0431 0.00836651 -0.0128219 0.0128371
709 62 11 10.0893 18.3199 12.4866 0.00823646 -0.0269432 0.022921
168 14 11 11.9313 1.92049 16.5904 -0.0453473 0.00628791 -0.0051211
293 25 1 11.2682 4.58673 13.79 -0.000203989 0.0143983 -0.000891051
295 25 11 11.8482 5.00091 13.1187 0.00168364 -0.0392111 -0.0305779
297 25 11 11.8279 4.40298 14.7189 0.0454462 -0.0282635 -0.0101203
704 62 19 11.4286 19.583 11.7434 -0.0159779 -0.00671931 0.00788517
566 48 2 8.71906 5.95069 10.2901 -0.00993967 -0.0108767 -0.00452839
702 62 20 12.6507 0.143703 10.2597 0.00583281 -0.00446865 0.00482523
701 62 9 12.57 19.3604 11.3202 -0.00290913 0.0146802 -0.0231399
167 14 11 10.7996 0.318554 16.4762 -0.00192743 0.00344913 0.032864
311 26 11 18.0898 3.00166 10.1356 -0.0111931 -0.0240255 -0.0221243
534 45 1 14.4009 4.34209 12.5265 0.0154272 -0.00964805 -0.0038635
540 45 11 13.866 3.71212 13.2167 0.00753911 -0.0406548 0.0260494
538 45 11 14.5362 5.2948 12.5522 0.0296768 -0.00274761 -0.00986782
529 45 9 15.6253 2.37293 11.6045 0.013616 -0.0013757 0.00242558
530 45 20 14.5628 1.89709 11.7062 -0.0150583 -0.0111409 -0.00878971
532 45 19 15.7818 3.69897 12.1234 0.000279257 0.00782815 0.000980688
531 45 19 16.6645 1.48298 12.2102 -0.0154885 0.00180651 -0.00463099
533 45 1 17.3118 0.483525 11.4778 -0.0107001 0.00347868 0.00835364
627 54 11 17.2697 3.45841 15.3869 -0.0444692 0.0216125 -0.0229079
536 45 11 18.1157 0.992519 10.881 -0.0170031 -0.0176684 -0.0787241
549 46 11 16.8449 4.77709 10.2051 -0.0675408 -0.0260626 0.0401266
630 54 11 18.514 4.56093 13.7629 -0.0144082 -0.0205247 0.0106036
537 45 11 17.2845 19.5505 12.0806 -0.0442772 -0.00173272 0.0262629
535 45 11 16.5104 0.315189 10.7164 -0.0191207 0.00950977 0.00735171
625 54 2 19.1726 3.91624 14.4444 0.00344629 -0.00868268 -0.0171477
629 54 11 19.7375 4.6619 15.0581 0.00659281 0.0482973 0.00279648
349 30 9 4.79566 9.53576 10.0979 -0.0143776 0.0291955 -0.0180405
351 30 19 5.71946 8.51675 10.8403 -0.00643564 0.004373 -0.00931535
228 19 11 1.17661 4.35544 12.2723 -0.0562705 0.0253573 -0.00205551
222 19 1 1.71892 5.01453 11.6379 -0.00930926 0.000553579 0.0202092
352 30 19 3.41203 9.39277 10.7726 0.0128441 0.00345675 0.000971695
227 19 11 1.38853 4.59284 10.5648 0.0203517 0.0195766 -0.0233325
218 19 20 4.68795 5.88767 12.7433 0.00500061 -0.0104154 0.0091299
427 36 11 1.46457 9.42289 13.5823 -0.0345245 -0.0182903 -0.0444884
429 36 11 0.827864 9.11709 12.2755 -0.0481424 0.00077355 -0.0364171
428 36 11 2.18449 7.96757 12.3411 0.0217231 -0.0688301 0.0189159
425 36 1 1.2729 8.36793 13.0151 0.000802082 0.0174356 0.0175768
347 29 11 6.20198 9.55979 14.8795 0.100996 0.00363289 -0.0124542
423 36 19 0.501581 7.31857 13.3505 -0.0108049 -0.000378271 0.0146662
290 25 20 8.06051 5.46697 13.6867 -0.00228578 0.001188 0.000451647
289 25 9 8.71931 5.03991 14.4372 0.000232287 0.00348786 0.0159636
342 29 1 5.96529 9.47415 13.8508 0.0117975 0.00546359 0.00826829
348 29 11 5.86395 8.54448 13.1352 0.000556266 -0.000797509 0.0180698
346 29 11 5.14107 9.79474 13.1446 -0.00811449 0.0489168 0.0137871
337 29 9 8.28942 9.60285 14.1393 -0.00734979 0.00173469 0.0101368
338 29 20 8.49575 8.39503 14.1474 0.0218238 -0.000782168 0.00069177
340 29 19 7.14293 10.2013 13.4559 0.0133961 0.00325005 -0.00681233
567 48 11 8.30653 6.58252 11.0396 -0.0499721 -0.0490524 0.0430702
296 25 11 10.8045 3.65189 13.4403 -0.0121422 0.0450442 -0.0712294
291 25 19 10.1616 5.4776 14.2416 -0.011591 -0.00917513 -0.00443461
603 52 19 11.0709 7.986 12.713 -0.0116324 -0.00241384 -0.000380533
601 52 9 12.5447 7.67296 12.295 0.00533918 0.0032532 0.00825595
605 52 2 11.6931 9.01189 10.8509 0.016284 0.0103631 -0.000168141
604 52 19 12.8959 8.37902 11.2156 -0.00120608 -0.00981773 -0.00132354
608 52 11 9.61055 8.54452 11.0073 0.0330117 -0.0302331 0.0113326
606 52 2 10.6248 8.45195 11.5577 0.00349689 -0.00418764 0.00245824
607 52 11 10.2363 9.0017 12.3393 0.0225693 0.0238641 0.0348284
610 52 11 12.0861 9.9044 11.2174 -0.0133195 0.0229372 -0.0680904
602 52 20 13.272 7.01996 12.8057 -0.0134089 0.00706001 -0.0243248
550 46 11 17.1157 5.44566 11.5799 0.0255324 0.00134106 0.0129277
545 46 2 17.116 5.87037 10.5647 0.00454242 -0.00464779 -0.00535855
544 46 19 17.9805 6.12414 9.46475 0.00985371 0.00182363 -0.0189747
422 36 20 18.8341 6.7459 12.4681 -0.000487355 -0.00661449 -0.00256747
421 36 9 19.2178 7.3573 13.3564 0.0141581 0.0193422 0.00203716
426 36 1 17.3457 6.82412 15.0214 0.00533003 0.0225854 -0.00489389
430 36 11 16.3856 7.26655 15.1417 -0.00322617 -0.0082585 0.0365834
424 36 19 18.3694 7.67683 14.486 0.00613046 -0.00926013 -0.00244406
431 36 11 17.9112 6.66943 15.8096 0.0798874 -0.0136402 -0.0121338
359 30 11 2.20148 10.6893 9.64548 0.039889 0.0140543 0.0432796
590 50 11 4.23941 12.9682 10.9024 0.0271595 0.014134 -0.0471714
589 50 11 2.72138 12.1973 11.1507 -0.00425133 0.0282283 0.0462669
350 30 20 5.01174 9.84171 9.02915 0.000626572 -0.00694743 0.00427249
583 50 19 2.43929 14.9686 9.451 0.0071403 -0.0128818 0.00369887
585 50 2 3.34401 12.9945 10.5243 -0.00961897 0.00735694 -0.00225321
588 50 11 3.46762 15.4209 10.0642 0.0730972 0.0230462 -0.0392217
586 50 2 3.14832 14.486 10.5957 -0.0120209 0.0101792 -0.01494
587 50 11 2.63258 15.0628 11.3748 -0.00224801 -0.0260277 -0.0254191
318 27 1 2.30907 12.9391 14.5096 -0.0214132 0.00458767 0.000234399
323 27 11 2.19565 13.4006 13.5606 0.0329052 -0.0717107 0.0045776
316 27 19 3.63053 12.4556 14.657 0.0159146 -0.00169479 -0.00677657
322 27 11 1.57774 12.1415 14.3879 -0.103691 0.0130019 0.00127753
314 27 20 4.87373 11.6247 12.8929 0.0151255 -0.00794726 -0.00770681
313 27 9 4.29355 12.6193 13.3029 -0.00937503 0.00296267 0.00572781
315 27 19 4.81758 13.9058 12.8828 -0.0012747 0.000876402 0.0193521
154 13 11 6.75111 10.9621 10.601 0.0206647 0.059297 0.0224097
339 29 19 9.39201 10.3889 13.7876 0.00134526 0.00542203 -0.00447923
150 13 1 6.82236 12.0921 10.4077 0.00896535 -0.00105664 0.00875237
148 13 19 8.14979 12.3221 9.82714 -0.0126175 0.00338691 -0.00855834
146 13 20 9.90949 11.0028 10.4553 -0.00966406 -0.000641993 0.0076952
156 13 11 6.70146 12.559 11.4925 -0.0226985 -0.012248 -0.0564443
155 13 11 5.95334 12.1487 9.71117 -0.0303568 0.0626846 -0.0413317
341 29 1 9.95887 11.5507 14.2536 0.00862133 0.0105394 0.00354948
456 38 11 6.41993 13.862 15.1282 -0.0333706 -0.0274695 -0.0381673
445 38 9 8.49561 14.8116 15.1054 0.0300774 -0.00868039 -0.00399597
345 29 11 9.3809 11.608 15.2057 -0.0408574 -0.000500716 0.0555792
452 38 11 10.7683 14.3382 15.4268 -0.0224802 0.00824116 -0.012843
454 38 11 6.46369 12.2944 15.6579 -0.0326059 -0.0429352 0.0215053
450 38 1 7.04172 12.9091 15.1662 -0.00853065 0.00474773 -0.00716295
147 13 19 10.0204 13.151 11.2433 -0.0119616 -0.00297597 -0.0143222
145 13 9 9.42658 12.1091 10.5603 0.0157062 -0.00179139 -0.0128235
343 29 11 10.0852 12.6289 13.8381 0.0412012 -0.0119779 0.0235636
36 3 11 13.7211 11.5321 12.7779 0.00817629 -0.0571574 -0.00408054
149 13 1 11.3809 13.1306 11.204 -0.000801579 0.0140061 0.0069321
153 13 11 11.3539 12.3285 11.9102 -0.0593505 -0.0247902 0.00687932
151 13 11 12.2436 12.4944 10.8245 -0.0460836 0.00367897 0.00498033
35 3 11 14.8445 12.819 12.4149 0.0293367 -0.0199318 -0.0278756
30 3 1 14.6097 11.8297 12.6278 0.00548084 -0.0216832 0.0103447
34 3 11 14.8803 11.9233 13.5844 0.05238 0.0354881 0.0553178
26 3 20 15.8387 8.86024 12.7552 -0.00513589 0.00374576 -0.00563899
9 1 11 17.5663 12.435 11.0713 -0.006861 -0.116993 0.0761358
5 1 1 17.6541 11.9311 10.0013 -0.01386 0.00650418 -0.0260525
7 1 11 17.0882 12.1322 9.05787 0.0637514 0.0184778 -0.0811675
25 3 9 16.038 10.0582 12.3584 -0.00947377 0.00759627 0.0115325
32 3 11 19.0832 9.96851 13.3442 0.0680897 0.014751 0.0511099
31 3 11 17.8423 11.331 13.7257 -0.0574982 -0.054823 -0.0176338
27 3 19 17.486 10.0723 12.0286 0.0102671 -0.0088165 0.00705415
29 3 1 18.3851 10.7774 12.8614 0.00407016 0.00120389 -0.00342703
33 3 11 19.2919 11.2188 12.0964 0.0822259 -0.04803 -0.061144
28 3 19 15.0324 10.8736 11.7577 0.0120857 -0.00928746 -0.000880389
526 44 11 19.0658 13.8736 11.8997 0.0304422 -0.0594418 -0.00655275
522 44 1 18.5326 14.3535 12.7575 0.0113167 0.016335 0.00293266
262 22 11 13.7643 14.8466 12.4856 0.0532609 0.0439302 0.00334354
527 44 11 17.7326 13.4788 12.8774 -0.0217667 0.0131926 -0.0494267
434 37 20 4.61979 17.6338 10.5792 0.000284834 -0.00730193 -0.00311008
317 27 1 4.65979 14.8584 13.8369 -0.0165457 -0.0119321 -0.00701133
321 27 11 5.46794 15.4342 13.6552 -0.025629 -0.00893891 -0.0304442
443 37 11 3.81214 19.8456 13.111 0.0268818 0.0067147 -0.0317239
444 37 11 2.17383 19.3108 13.4992 -0.0130939 0.0334423 0.00484146
438 37 1 3.2297 18.8893 13.3197 -0.0166903 -0.00489405 0.00936686
442 37 11 3.48265 18.4117 14.3391 -0.0381157 0.0527015 0.00481196
436 37 19 3.16546 18.17 12.0784 0.00468471 0.00537564 0.0114531
433 37 9 4.42797 17.6827 11.733 -0.00892738 0.00932555 -0.0118292
319 27 11 3.98768 15.5881 13.6763 -0.0290168 0.024902 -0.0219492
519 44 19 19.4971 16.6863 11.6433 -0.0182852 0.00827833 0.00585715
92 8 11 8.03523 0.409666 11.1237 -0.0189638 -0.0571441 -0.0138079
494 42 20 7.94273 15.022 10.3951 0.00778953 -0.0154973 -0.00435933
447 38 19 9.27468 15.0511 14.117 -0.0129105 0.00229923 0.00167011
435 37 19 5.40548 17.8793 12.6604 0.000906617 0.00380589 0.00440111
441 37 11 7.64863 18.1359 11.9192 0.0166947 -0.0222077 0.0532503
437 37 1 6.83406 17.4889 12.3147 0.00958309 -0.00556209 -0.0104827
439 37 11 7.42677 17.261 13.1825 0.0210304 0.0229113 0.0484523
440 37 11 6.93659 16.5665 11.9237 -0.0394952 0.0241722 0.0214225
453 38 11 11.4434 15.6146 15.2052 0.0428636 -0.0264238 0.0266732
710 62 11 10.7746 17.2319 11.7739 -0.0205485 -0.0611004 0.0287284
449 38 1 10.6734 14.9541 14.5994 0.0177098 0.0133544 0.0248782
451 38 11 11.4633 14.3282 14.0283 -0.0189047 -0.0461963 0.0466597
708 62 11 11.8671 16.8002 13.299 -0.0711244 -0.0187763 0.0144313
707 62 11 12.886 16.9891 11.7889 0.0125485 -0.0288906 -0.00203194
706 62 2 12.3758 17.5607 12.6057 -0.0233562 0.00374172 0.0106609
157 14 9 13.6724 19.7078 15.3291 0.0161399 0.00869659 0.00693641
158 14 20 13.0496 18.7622 14.9214 -0.0144761 -0.00353762 0.0119729
165 14 11 15.8682 18.5734 14.2871 -0.089447 0.0441969 -0.0221519
164 14 11 15.2621 19.7856 13.1065 0.0376797 0.0395146 -0.0156349
263 22 11 14.7039 15.9632 12.2277 -0.000926647 0.0038689 -0.000357327
528 44 11 19.1987 14.5755 13.6492 0.0389026 0.00824099 0.00281148
408 34 11 0.239503 19.5252 16.0009 -0.0272248 -0.0152474 0.0524733
256 22 19 14.4487 16.1957 14.2306 0.000146545 -0.00613974 -0.00551081
264 22 11 15.3297 14.5079 13.155 0.0148073 -0.0317196 0.0563259
258 22 1 14.709 15.409 13.0477 6.7958e-05 -0.00796674 -0.018807
517 44 9 18.1479 16.5699 11.9404 -0.0134848 -0.00576901 -0.00734405
520 44 19 17.7594 15.3074 12.0826 -0.00446867 -0.0181318 0.00843728
518 44 20 17.3635 17.4636 12.0155 -0.00594443 -0.0152086 0.00749589
159 14 19 14.5511 0.529046 14.7103 0.00743664 0.00841659 -0.000994527
161 14 1 15.5423 19.6982 14.1288 -0.00272993 -0.00699934 -0.00773269
163 14 11 16.4178 0.287882 14.3443 -0.0060384 0.00939028 -0.0524734
420 35 11 2.61616 0.564501 15.3084 -0.0330045 -0.0151453 -0.0046846
144 12 11 3.97615 0.54519 19.2591 0.0107999 -0.0200845 -0.0332087
138 12 1 4.15017 0.788827 0.225697 0.0211164 0.00862912 0.00029815
419 35 11 2.27243 2.08467 15.5677 -0.0155405 0.0184418 0.0134091
414 35 1 2.83667 1.31195 15.9756 -0.0127903 0.00958868 0.00156055
418 35 11 2.64782 1.13604 17.0118 0.0038023 -0.0264242 0.0789997
412 35 19 4.13185 1.53106 15.5941 -0.00274619 -0.0126595 0.00196958
647 56 11 3.96462 5.38008 18.9331 0.00212867 0.00452097 0.0626572
646 56 2 4.56904 4.4052 18.841 0.000585675 -0.00843131 -0.00324828
643 56 19 4.38414 4.07162 17.4895 -0.0125425 0.00383414 -0.00325711
749 71 26 0.673755 3.30135 17.7094 -0.00413517 0.00209421 -0.00855771
409 35 9 5.08342 0.404791 15.4824 -0.000730003 0.00971265 -0.010224
731 65 31 18.3085 1.03331 18.5373 0.0168112 0.0103771 -0.0303081
747 71 26 19.8704 1.98001 19.5308 0.00326667 -0.00344247 -0.000986918
743 71 27 0.180335 3.56722 19.2451 -0.00298138 0.00199385 0.00592503
648 56 11 4.00672 3.60403 18.6277 -0.080215 0.0209382 -0.00620089
744 71 26 1.65942 3.55913 19.7108 -0.00373054 -0.0110582 0.000660318
410 35 20 5.13738 19.691 16.5872 -0.00214378 -0.00545497 0.00477099
300 25 11 9.85546 3.66163 16.254 0.00593348 0.0389376 0.0346142
294 25 1 9.23774 2.96144 15.7158 -0.00541903 -0.00608926 0.00801283
292 25 19 8.48585 3.76793 14.849 -0.00130095 -0.00512883 -0.00329486
642 56 20 5.50792 3.99773 15.4511 -0.000362767 0.013967 0.00694202
298 25 11 9.14233 1.91224 15.825 -0.0275904 -0.0602922 0.048611
760 73 26 9.21542 2.98951 18.8153 -0.00145682 -0.0109299 -0.014168
763 73 26 9.62664 1.05148 18.3858 -0.00747834 0.0119848 0.000180215
757 73 27 9.8248 1.83215 19.7396 -0.000713981 -0.0103571 -0.00237813
641 56 9 5.53698 3.84757 16.7715 -0.0117274 0.00024313 -0.0158032
299 25 11 10.04 2.95226 15.0285 -0.00523376 0.0469193 0.0272203
650 56 11 6.60689 3.45654 18.9373 -0.0181042 -0.0154152 0.0419909
645 56 2 6.22531 4.28575 18.7652 0.00273763 -0.00851829 -0.0179927
644 56 19 6.79244 4.03581 17.368 -0.0104796 -0.00868937 -0.0027304
466 39 11 9.56904 19.6597 14.4641 -0.0118818 -0.04985 0.0773745
468 39 11 8.49772 19.9169 15.9919 0.027546 -0.0557361 -0.0028431
162 14 1 11.7593 0.92853 16.0592 -0.00323917 0.000354515 0.00713907
166 14 11 11.817 1.24466 14.8697 0.00238292 -0.00351142 0.112831
160 14 19 13.0768 0.446836 16.421 0.000896243 -0.00523988 0.00835012
758 73 26 11.2417 2.33646 19.4123 -0.0053331 0.00550204 -0.0121508
194 17 20 14.0051 4.64975 17.7907 0.00616931 -0.00656669 -0.000446236
196 17 19 14.1302 5.47125 15.831 0.0117408 0.0189868 0.0021892
195 17 19 14.1409 3.02131 16.2754 0.00642663 -0.00144166 -0.00797609
193 17 9 13.9889 4.40536 16.6407 0.0116988 -0.00725726 -0.011945
732 66 31 12.0468 1.79794 1.06987 -0.000477488 -0.00776266 -0.0191393
201 17 11 16.0509 3.2229 17.4084 0.0537491 0.0424656 0.0102486
171 15 19 15.3526 3.41306 19.7864 -0.00213953 0.000669565 0.00464742
173 15 1 16.3108 3.01472 0.70618 0.0135746 -0.00157116 0.00407046
177 15 11 16.8072 3.9219 1.22818 0.026686 0.0237084 -0.071317
176 15 11 17.1107 2.66433 0.129021 0.0258074 0.0140648 -0.0276612
623 54 19 18.9532 1.85096 14.9013 0.0011319 -0.00893371 0.0022606
626 54 2 18.3115 3.09709 15.146 0.0110292 0.000347564 0.0031346
628 54 11 18.7623 2.89994 16.1262 -0.0103469 -0.0513194 -0.0495829
748 71 26 19.7158 3.93382 0.638239 0.0121373 -0.00610821 0.0119858
200 17 11 14.9406 2.14348 17.7041 0.00245826 0.0646245 -0.0549554
199 17 11 16.0314 1.65255 16.418 0.0243268 -0.0109053 -0.0311718
753 72 26 16.9809 19.991 18.891 0.00502189 -0.00324175 0.00778484
197 17 1 15.3388 2.58681 16.858 -0.0057394 -0.00779577 0.00867171
745 71 26 18.7876 3.6775 18.7314 -0.00358893 -0.00546558 -0.00215104
672 59 20 1.43056 7.83312 0.77493 -0.00280883 0.0277432 0.00495487
671 59 9 2.62355 8.08103 0.378717 -0.00561889 -0.0107557 -0.0095002
673 59 19 3.566 7.20851 0.12745 0.00544806 -0.00378689 0.00235876
676 59 2 4.84924 7.65651 0.375117 0.00129497 -0.00436887 0.0110725
678 59 11 5.08925 8.25514 19.4482 -0.0426426 -0.0696777 -0.0324891
275 23 11 1.15838 7.63361 16.1002 -0.0741004 0.0360494 0.0143119
270 23 1 1.47206 6.60773 16.3761 0.000977612 -0.0100079 0.021472
274 23 11 0.630309 6.31333 16.094 0.0016447 0.0679034 0.00648998
268 23 19 2.81604 6.26614 15.974 -0.00354039 -0.0112474 0.00248646
265 23 9 3.72257 7.24732 15.6442 -0.0161112 0.000202007 0.0142083
266 23 20 3.48428 8.43815 15.5577 -0.0222069 0.0098279 -0.00734485
768 74 26 0.409701 9.30498 18.3105 -0.0132869 0.01034 0.014749
766 74 26 19.3753 9.29322 16.3686 -0.0137763 -0.000767238 0.0100987
267 23 19 5.00899 6.70319 15.6591 0.023 0.0161154 -0.00896948
746 71 26 0.384383 5.14133 18.8545 0.000992856 -0.00967572 0.00252809
649 56 11 6.56425 4.72992 19.7211 0.000419276 -0.0165705 -0.0349528
713 63 19 9.62765 7.25808 19.7322 0.0131105 -0.00233742 -0.0200829
716 63 2 10.1205 7.80797 18.6641 0.00946562 -0.00933132 0.00826144
717 63 11 9.56961 8.62768 18.3753 -0.025423 -0.00194438 -0.0117099
677 59 11 5.77463 7.05528 0.757585 0.086452 -0.0003395 0.0238542
269 23 1 5.68294 7.26 16.9111 -0.00299102 0.00362557 0.000791739
271 23 11 6.5708 8.01553 16.6999 -0.0687933 0.00225932 -0.0543419
272 23 11 6.38384 6.46039 17.2647 0.0599698 -0.0552412 -0.00405634
273 23 11 4.8865 7.42225 17.6618 0.0146443 -0.00589169 -0.032551
714 63 19 10.3085 5.64542 18.2458 0.0213947 -0.0103918 -0.00167478
715 63 2 9.87151 6.83547 17.4939 0.00949751 0.00365498 0.0117109
720 63 11 8.83536 6.68301 17.2118 0.0617138 0.0181525 -0.00768854
719 63 11 10.6927 7.26243 16.7959 -0.0623951 0.0571837 -0.0611973
711 63 9 10.277 6.12347 19.5214 -0.00538867 -0.0230549 0.01288
386 33 20 6.73391 9.4572 18.6591 0.00769359 0.000942886 0.00016578
599 51 11 16.2203 9.03007 18.4295 -0.0144757 0.0277778 -0.0233697
712 63 20 10.7296 5.52542 0.488147 -0.0180588 0.0067068 0.0176603
202 17 11 12.8479 6.91662 15.6666 -0.0230717 0.0149447 -0.00196636
204 17 11 14.4227 7.42459 16.0839 0.071755 -0.00647372 0.00198705
203 17 11 13.4912 6.67848 17.2441 -0.0603233 0.0301081 -0.0207779
198 17 1 13.7559 6.82044 16.205 0.002503 0.00621918 0.0101399
598 51 11 13.7797 8.24043 18.7557 -0.0647954 0.0238101 -0.012894
596 51 2 14.4655 7.80742 19.5361 0.00238161 0.0109787 0.0178157
22 2 11 14.494 9.66162 15.5346 -0.0389877 0.0126325 0.0572957
741 70 26 12.6939 9.51327 17.2151 -0.0102266 0.000483881 -0.00907894
591 51 9 16.3781 6.75308 19.4528 -0.00328304 0.0376264 0.00522978
432 36 11 17.0588 5.62211 14.7373 -0.031515 -0.00781104 0.0354687
594 51 19 16.6546 7.92044 18.7632 0.0212839 0.00172577 -0.015966
595 51 2 15.8747 8.70533 19.4923 0.00369173 -0.00585539 0.0202881
600 51 11 15.5208 9.55838 19.9719 -0.039647 -0.0640553 0.0145854
24 2 11 15.4884 9.90924 17.0141 -0.0169165 0.0120177 -0.0191723
324 27 11 2.21152 13.5673 15.4682 0.0132515 -0.0479091 0.0613446
770 74 26 1.28295 10.2423 16.4707 0.0199517 -0.00362404 -0.00641997
395 33 11 3.62176 10.8653 19.4704 -0.0436758 0.0273499 0.0253331
396 33 11 4.60959 10.1965 18.1409 -0.0303608 -0.0143642 -0.0169236
765 74 26 0.701196 11.421 18.1813 -0.00998766 -0.0086564 -0.00682348
764 74 27 19.949 10.3705 17.3902 -0.0106221 -0.00240892 -0.00119314
390 33 1 4.40733 11.0764 18.7507 0.000614457 0.00490439 -0.0152396
663 58 19 5.138 14.2935 19.9459 -0.00585012 -0.00483267 -0.00243101
394 33 11 4.15107 11.932 18.0436 -0.035632 -0.0501375 0.0160528
769 74 26 18.7191 10.1254 18.1196 -0.000170412 -0.00568782 0.0197116
767 74 26 19.4081 11.6854 16.5722 -0.00559047 0.0129753 -0.0274134
99 9 19 1.66638 14.9858 19.2863 0.000773825 0.0100525 0.00595018
455 38 11 6.91531 12.7011 14.0769 -0.00728255 -0.0279836 0.0335988
388 33 19 5.66504 11.4643 19.2228 -0.0148098 0.00303735 -0.00253214
448 38 19 8.27367 13.4136 15.6036 0.00793864 -0.000125464 -0.0022251
385 33 9 6.60241 10.4597 19.3491 0.0135969 -4.53621e-05 0.000349955
387 33 19 7.73763 11.071 0.112593 -0.00537806 -0.0116969 -0.0058508
389 33 1 8.79871 11.7403 19.3211 0.00893572 0.00020645 0.00562288
391 33 11 9.80473 11.7326 19.8095 -0.0858742 -0.0124609 0.0192724
392 33 11 8.6025 12.4699 18.5528 -0.0110681 0.00565942 0.0428672
393 33 11 8.97719 10.8667 18.7039 0.0137974 0.063021 -0.00576768
80 7 11 12.5428 14.4752 18.0885 -0.0524597 -0.0150964 0.0283141
344 29 11 10.9987 11.4304 14.287 0.019885 -0.0625452 -0.0129201
738 70 26 11.7771 10.34 19.0442 -0.00656234 -0.0251779 0.0174396
739 70 26 10.7562 10.1421 16.8283 -0.00719727 -0.00922497 0.0032322
742 70 26 11.1822 12.0002 17.5057 0.00570693 -0.0037947 -0.0153718
736 70 27 11.9874 10.7555 17.3681 0.00567277 -0.0015536 -0.00383851
740 70 26 13.3188 11.5895 18.0847 0.00263609 0.00979591 -0.0128268
737 70 26 12.5303 11.3202 16.1455 0.010694 0.00979775 -0.00272733
20 2 11 14.4548 13.6282 17.5268 -0.0373399 0.0166279 0.0216024
77 7 1 12.0131 15.1996 18.5458 0.00142188 0.00199481 0.00525221
81 7 11 12.6313 15.8225 17.8975 0.0359907 -0.0809118 0.0159671
69 6 11 19.114 11.9215 1.11093 0.0145414 -0.0647817 0.011056
108 9 11 18.4104 13.4335 17.7193 -0.0184426 0.0077442 -0.058981
23 2 11 16.0469 9.19744 15.6231 0.0295532 -0.00440102 0.0464872
18 2 1 15.4621 9.98128 15.7783 0.00615082 0.00312882 -0.0156016
13 2 9 16.4201 12.1348 16.4836 -0.00826367 -0.0208334 -0.000128807
16 2 19 16.1013 11.1101 15.4474 0.00215613 -0.00147867 0.00964217
15 2 19 15.8066 12.0844 17.924 0.014047 -0.0103402 -0.0112625
17 2 1 15.2192 13.3364 18.3208 -0.00178706 0.000835753 -0.00312713
19 2 11 14.5811 12.9261 19.2249 -0.00278538 -0.0137632 -0.0231496
14 2 20 16.9631 13.1132 16.1853 0.00849332 -0.0015039 0.00618541
107 9 11 17.8851 15.0292 18.8882 -0.0552765 0.013736 -0.00274316
102 9 1 18.5963 14.2792 18.3706 0.000891109 0.0137705 0.001122
100 9 19 19.8259 14.7757 17.6953 0.00696014 0.00348263 0.0110897
143 12 11 3.50122 0.124706 0.91952 -0.0398737 -0.000344047 0.00102629
400 34 19 0.383502 17.4155 16.4453 0.0054304 0.00452686 -0.0063403
320 27 11 4.48488 14.435 14.8526 0.0179517 0.07189 0.00524252
142 12 11 4.98725 0.254436 19.7608 0.0022607 0.0636356 0.0126052
668 58 11 3.94531 14.1018 19.1343 0.0260964 0.0227399 -0.0137828
666 58 2 4.57992 14.7066 18.6453 0.00352167 -0.0176822 0.00105461
398 34 20 1.58916 16.4225 14.7001 -0.00478406 -0.000220803 0.00080702
397 34 9 1.56735 17.0905 15.6347 -0.000781829 0.00925871 -0.0169679
399 34 19 2.75456 17.4517 16.2638 -0.0122835 0.00328523 0.00887893
401 34 1 2.61272 18.1567 17.3943 0.0105117 -0.00217158 -0.00322582
405 34 11 3.58361 18.3174 17.6653 0.00207089 0.0181284 0.0464983
403 34 11 2.11869 19.0717 17.0346 -0.0395264 -0.0512355 -0.0422863
667 58 11 4.42726 15.7452 18.8846 0.0585037 0.0644024 0.0140171
404 34 11 2.34687 17.7341 18.3245 0.0116555 0.036305 -0.0171695
670 58 11 5.31967 15.2176 16.8236 0.0177943 0.00552598 0.0267261
406 34 11 18.6361 18.2845 15.8104 0.0483764 0.0429905 -0.00572499
97 9 9 0.426042 15.4628 18.8037 0.00911508 0.00539363 0.00120986
98 9 20 19.9903 16.5467 19.2577 -0.0166131 0.00836376 -0.00725626
236 20 11 8.19442 18.9618 18.8828 0.0241866 -0.066033 0.00665567
411 35 19 5.94919 0.382545 14.4724 0.00207794 -0.00343997 -0.00850153
446 38 20 7.89545 15.6255 15.6134 0.0108566 0.00953253 -0.00128655
669 58 11 5.07802 13.6243 16.795 -0.0504313 0.0220486 0.0255811
661 58 9 6.51276 14.2849 19.5722 0.009835 -0.000374313 -0.00126676
664 58 19 6.71575 14.4466 18.1731 0.00363326 -0.00584738 -0.00523359
665 58 2 5.53452 14.3167 17.546 -0.0161108 0.00915292 0.000235543
467 39 11 7.84571 18.8006 14.7207 -0.0451979 0.0170003 -0.0271959
458 39 20 9.52118 17.1574 17.7892 0.0117478 -0.00286546 0.00657023
237 20 11 6.73558 19.7525 19.3378 -0.0959118 0.0265106 0.0677574
235 20 11 7.70337 19.1951 0.470366 0.0132066 -0.0332467 -0.044067
233 20 1 7.34123 18.9611 19.5319 -0.027969 0.000576217 -0.00600177
460 39 19 9.58407 17.9132 15.7092 0.00787996 0.00487569 -0.00287445
462 39 1 8.82543 19.0776 15.1233 0.00806326 -0.00133225 -0.0112751
457 39 9 9.99799 17.9779 17.0659 0.0150108 -0.00742664 0.00186282
75 7 19 12.1161 15.179 19.9063 -0.0108488 -0.0210725 0.00691422
752 72 26 14.9174 19.6843 18.6164 -0.00401397 0.0112021 0.000764459
79 7 11 11.0093 15.0229 18.2439 -0.0744426 -0.0483693 0.0267014
459 39 19 11.3982 18.0629 17.2117 0.0165273 -0.0013089 -0.00236316
465 39 11 11.3467 18.004 19.0287 0.0249378 0.00664161 -0.0105268
254 22 20 13.7826 14.7447 15.8008 0.00119944 -0.00363351 -0.00211704
464 39 11 12.1953 19.5893 18.5727 0.0433038 0.0130243 -0.0331917
461 39 1 12.1691 18.4396 18.5221 -0.00805403 0.00088143 -0.00696963
463 39 11 13.0365 17.945 18.5857 0.0622531 -0.0321705 0.00658483
754 72 26 15.1587 17.5254 18.2695 0.00207824 -0.000699049 -0.00165071
402 34 1 19.8588 18.4494 15.7061 0.0038691 -0.0100145 0.00613161
261 22 11 17.5307 16.123 16.5302 0.00284151 0.029591 -0.0189803
259 22 11 17.3945 15.2729 15.1422 -0.0147192 -0.00460492 -0.0209935
21 2 11 16.0918 13.927 18.6091 0.011215 -0.0580099 -0.0167305
407 34 11 0.0129624 18.2905 14.6118 -0.0274823 -0.0282438 0.0768371
253 22 9 14.778 15.4162 15.3866 -0.00910325 0.0050379 -0.00125673
255 22 19 15.8579 15.8697 16.2455 -0.00411805 0.00092089 -0.0105695
257 22 1 17.0833 16.0142 15.7207 -0.000630397 0.0130928 0.0121382
260 22 11 16.9726 16.9849 15.2533 -0.0197585 -0.0115225 -0.0269222
750 72 27 16.1059 18.8079 18.5281 -0.000804979 -0.00052026 0.00250628
106 9 11 19.0991 13.664 19.3495 0.041355 -0.0363069 0.0507533
756 72 26 16.1848 19.1307 17.0659 0.00838947 0.00371491 0.00449361
751 72 26 17.3459 17.8854 18.4375 0.011791 -0.00774968 0.00587164
ITEM: TIMESTEP
1850
ITEM: NUMBER OF ATOMS
770
ITEM: BOX BOUNDS pp pp pp
0.0000000000000000e+00 2.0000000000000000e+01
0.0000000000000000e+00 2.0000000000000000e+01
0.0000000000000000e+00 2.0000000000000000e+01
ITEM: ATOMS id mol type x y z vx vy vz
136 12 19 4.87079 2.18725 0.343831 0.0153811 -0.00421274 0.0110972
59 5 11 0.91275 20.1185 4.58559 -0.00703933 -0.00802156 -0.0054234
52 5 19 1.54633 1.92549 4.40133 -0.0141368 0.00290311 0.00166073
49 5 9 2.52099 2.89812 4.06698 0.00291819 0.00821807 0.00998096
51 5 19 3.85181 2.45333 3.88832 -0.00040079 -0.00292396 -0.00328395
50 5 20 2.24206 4.06614 4.19051 0.00235802 -0.00575172 0.0018224
133 12 9 5.5525 2.19834 1.55852 -0.00294344 0.00335436 -0.00896651
135 12 19 6.11711 3.34845 2.10936 -0.00489815 0.0161513 0.00867627
116 10 11 19.2355 1.57735 3.91374 0.0214301 -0.0448096 0.0146761
134 12 20 6.21674 1.22655 1.74933 0.00921321 -0.00571443 -0.00809644
508 43 19 8.91687 0.231015 3.50115 0.012921 0.0183986 0.00462595
505 43 9 8.96694 1.56533 4.03005 0.00451657 -0.00584348 0.00848002
137 12 1 5.23748 4.50677 2.2027 0.0057723 -0.00380755 0.00329205
140 12 11 5.54189 5.20667 2.99713 0.0191239 -0.0397202 0.00748752
56 5 11 5.8739 2.62407 4.67042 0.0173128 -0.0548699 -0.0573954
762 73 26 10.1234 2.7991 0.914613 0.00558776 -0.00297247 -0.00118926
141 12 11 4.73534 4.88706 1.35527 -0.0175312 -0.0112587 -0.0464055
139 12 11 4.38164 4.15495 2.65256 -0.0762131 -0.0271431 -0.0232792
734 68 31 7.93582 4.0214 3.3002 0.00985357 -0.0219302 -0.00555205
759 73 26 8.25475 1.57992 0.246447 -0.00858552 0.00937733 -0.00362963
761 73 26 10.3279 0.737579 0.492128 0.0138262 0.00713165 -0.0118653
507 43 19 10.1229 2.15287 4.12369 0.000135292 -0.0102521 -0.0115633
132 11 11 11.148 -0.461879 3.47617 0.0457124 -0.0757228 0.0335688
170 15 20 13.2021 2.71482 0.787824 0.00338165 0.00286291 0.00897246
169 15 9 14.0765 3.5926 0.810414 0.000167408 -0.0135306 0.0195235
174 15 1 13.2022 5.07716 2.39364 -0.00301467 -0.00734873 0.000754692
172 15 19 13.89 4.90033 1.10117 -0.00650844 0.0165269 -0.0149527
130 11 11 12.5835 19.5066 2.42478 0.055519 -0.0285238 0.0671297
124 11 19 12.6705 0.891342 3.79584 -0.014691 -0.00216444 -0.00650495
513 43 11 11.2078 3.40009 5.03956 0.0507667 -0.0674444 0.0226837
178 15 11 12.2783 4.373 2.34091 0.085323 0.00590481 0.00184804
126 11 1 12.1623 19.7078 3.44376 0.0169236 -0.0210448 0.0156238
121 11 9 13.917 0.962149 4.08835 0.00227493 0.007993 0.0018456
179 15 11 12.6763 5.92692 2.57351 0.0357267 0.0516447 0.0628493
131 11 11 12.5795 19.0187 4.20115 0.0144376 -0.0199822 -0.0697327
180 15 11 13.8038 4.88919 3.29171 -0.0586024 0.0304723 -0.0342461
113 10 1 19.083 2.06666 2.97377 0.00593634 0.0171708 -0.000513535
115 10 11 18.8379 1.24875 2.25436 -0.0230663 0.053541 -0.0242099
117 10 11 -0.102956 2.28286 2.49821 0.0182969 0.0312512 0.00668903
175 15 11 16.1001 2.43802 1.41968 -0.0161569 0.00596619 0.00849106
109 10 9 18.3257 3.82233 4.06858 -0.0216891 -0.0273751 0.0107183
111 10 19 18.147 3.01753 2.99183 -0.0110272 0.00243798 0.00253015
123 11 19 14.7317 0.997104 2.96278 0.00295898 0.00879392 -0.0035785
128 11 11 15.5735 18.9505 3.08082 -0.00706485 -0.00441005 -0.0165926
38 4 20 1.26266 8.13947 3.84022 -4.08216e-05 -0.0143113 -0.0339677
674 59 19 3.32988 9.1624 1.38556 0.00899648 0.0154931 0.010885
680 59 11 5.39656 9.1985 1.89459 -0.0308183 0.0234324 0.00862314
675 59 2 4.51853 8.50987 1.76194 0.00146243 -0.00348248 0.00668663
37 4 9 1.78965 8.19209 5.00198 0.0228828 0.00759991 0.00935861
39 4 19 3.03962 8.68371 5.14699 -0.00521365 0.0157725 -0.0140768
44 4 11 4.01403 10.3565 4.75638 -0.0374281 -0.0367861 -0.0130414
41 4 1 3.06603 9.90003 4.58017 -0.0158925 -0.0105988 -0.000249349
333 28 11 17.4689 6.20108 2.4933 -0.0536764 -0.0678555 -0.0404095
45 4 11 2.99341 10.0795 3.52504 0.0419177 0.0357147 0.0458017
679 59 11 4.16631 8.14817 2.83762 0.030381 -0.0214536 -0.027778
205 18 9 8.35385 6.81089 3.03774 -0.0116042 0.000577271 -0.00206978
206 18 20 7.89785 5.64351 3.22263 -0.00406316 -0.0024452 -0.0161177
210 18 1 8.78723 9.0036 2.82431 -0.00336704 0.00285852 0.00215563
215 18 11 9.80842 8.80149 2.52778 -0.0377765 -0.0277105 0.0164785
208 18 19 7.91546 8.12119 3.52074 -0.0147734 0.00317429 0.00939118
216 18 11 8.45129 9.64023 1.96306 0.055059 -0.0105161 -0.00571261
214 18 11 8.79853 9.95014 3.31974 -0.0139849 0.0130732 -0.00557365
718 63 11 11.3285 8.05523 18.4126 0.0583288 -0.0401267 0.0417571
491 41 11 6.31053 8.06084 5.80856 -0.0428723 0.0245802 0.0252996
490 41 11 5.40417 6.73511 4.9064 -0.0373339 0.0363619 0.0518745
207 18 19 9.74975 6.68075 2.9291 0.00196251 0.00861013 0.00801906
209 18 1 10.4996 6.55732 4.01259 0.000476529 0.0123842 0.00069137
213 18 11 11.434 6.04588 3.85287 -0.10579 0.0310367 -0.0203755
212 18 11 11.186 7.53725 4.00856 0.0200332 -0.0204919 -0.0100122
593 51 19 15.1133 6.64725 19.334 0.0135472 -0.00825522 0.000321236
211 18 11 9.98996 6.06349 4.78816 -0.0247894 -0.039778 -0.0011537
597 51 11 14.4586 7.14733 0.329676 -0.0208926 -0.0233047 0.0339132
335 28 11 14.8558 8.45709 4.19422 -0.0685257 -0.0806309 0.0519016
336 28 11 14.1888 7.65582 2.89163 -0.0153084 0.0295973 0.0256427
334 28 11 15.2796 6.66558 3.79166 -0.0139914 0.0194652 0.0249079
592 51 20 17.3209 5.84383 19.1015 0.0179861 -0.00985966 -0.00633513
332 28 11 19.418 6.41582 2.32234 0.0597151 0.0146351 -0.0350811
331 28 11 18.4025 6.75057 3.8116 -0.0277275 -0.066627 -0.0175044
329 28 1 18.429 6.77988 2.68168 0.0154804 0.0140443 0.0172932
328 28 19 15.9764 8.13843 2.40041 -0.0268581 0.0118444 0.00937659
326 28 20 17.3782 8.96969 3.97092 0.0149998 0.0152557 0.00164216
325 28 9 17.2388 8.73157 2.92196 0.00155667 0.00694209 0.00230243
327 28 19 18.1751 8.09401 2.40593 -0.0212244 -0.01666 0.00261904
330 28 1 15.2149 7.5717 3.45859 0.00217016 -0.00247873 -0.0207549
733 67 31 0.300836 6.89003 0.19361 0.019272 -0.0263279 -0.0303263
63 6 19 0.162921 10.4825 2.48676 0.0132712 0.00543198 -0.00133966
577 49 11 3.31979 12.81 3.30667 0.045703 -0.0434756 0.0315195
576 49 2 4.31216 13.0089 2.80324 -0.00868578 0.00193982 -0.0145256
579 49 11 5.49143 14.808 3.0211 -0.0127271 -0.033421 -0.015097
61 6 9 19.8865 11.4692 3.42584 0.00713951 -0.023915 0.0095838
580 49 11 4.79951 13.956 4.56944 -0.0263057 -0.0248856 0.0353361
578 49 11 3.85511 13.4251 1.86298 -0.00754819 0.0280758 0.030498
573 49 19 4.68921 11.642 2.855 0.00717156 0.00229468 -0.000838845
575 49 2 5.32092 13.7441 3.50891 0.0123887 -0.00223733 0.0116113
62 6 20 0.125358 12.6624 3.17589 0.0161569 0.0123821 -0.00373773
572 49 20 6.50987 10.7177 3.98434 -0.0184441 0.000306758 -0.0137279
571 49 9 5.89259 11.5801 3.46874 0.00548327 0.0114798 -0.00828458
574 49 19 6.372 12.888 4.0048 -0.00220642 -0.00689192 0.00326958
84 7 11 9.30083 13.5768 2.28306 -0.0203447 -0.0473056 -0.0322571
78 7 1 10.1508 13.1968 1.9071 0.00533393 -0.00245241 -0.0106105
83 7 11 10.8756 13.5801 2.58057 0.0426387 -0.00703975 -0.0383129
654 57 19 7.61703 14.944 4.68412 0.0148743 -0.00157039 0.0118811
722 64 20 13.1845 9.12769 1.42786 -0.00404825 -0.00824601 -0.0081945
82 7 11 10.2298 12.1791 2.00973 -0.0172907 -0.00128255 -0.00649008
727 64 11 12.5045 10.817 4.77798 0.0290399 0.00607334 0.0390371
726 64 2 12.3333 11.4379 3.89572 0.0197058 -0.0154878 -0.0125019
723 64 19 11.9699 10.6243 2.75302 -0.00634832 -0.00689153 0.025237
721 64 9 12.934 10.3193 1.93182 0.0203636 -0.00846245 -0.0228463
728 64 11 12.1494 12.3726 4.40351 0.0129529 0.0994075 -0.00797394
724 64 19 13.8945 11.2987 2.15115 -0.0084723 0.00401389 0.00235101
725 64 2 13.74 11.3911 3.57739 -0.0182682 0.00651539 0.0217446
76 7 19 10.3394 13.6439 0.557388 -0.00702111 -0.0149813 -0.0030481
74 7 20 12.4521 12.6627 0.191297 0.00272596 -0.0165366 -0.00223912
659 57 11 9.20878 13.6959 5.55001 0.00419773 -0.0288001 0.0859617
655 57 2 9.02618 14.5983 4.81626 -0.0121004 0.00789258 -0.00576298
660 57 11 8.56204 14.6437 3.78133 -0.0424503 0.0203853 0.0157712
639 55 11 15.6648 16.1219 6.22129 0.0237499 -0.0103368 -0.0510904
68 6 11 0.430077 10.4604 0.528016 -0.00542928 -0.00953742 0.0139614
65 6 1 19.5515 10.5572 1.19538 -0.0093054 -0.00832428 0.00711585
67 6 11 19.1531 9.67987 0.841261 0.00393241 -0.000918398 0.00690625
729 64 11 14.1658 12.3442 3.61484 0.172191 0.0251534 0.0630134
383 32 11 18.2007 14.4073 2.49681 -0.0193414 -0.00939623 -0.00620599
382 32 11 16.5466 14.11 1.79753 0.0587651 0.0532239 0.0739049
378 32 1 17.2903 14.7892 2.11216 -0.00661229 0.0126012 0.0128649
384 32 11 17.5809 14.9653 1.06223 0.0611908 0.0401558 -0.0352578
70 6 11 18.8306 11.4629 6.53391 0.0110707 -0.0336031 -0.0709341
64 6 19 18.6851 11.2916 4.14176 -0.0169396 0.00138014 0.0110585
66 6 1 18.4919 11.7815 5.54607 -0.00647016 0.0142349 -0.00267429
54 5 1 1.84294 0.585413 4.17225 0.00671269 0.0065501 -0.00315283
104 9 11 2.82254 15.1125 1.44128 -0.00716503 -0.00994361 0.0198327
240 20 11 3.55221 17.4885 2.6184 -0.0472177 -0.00633149 0.0121162
239 20 11 4.62623 18.8363 2.55575 -0.000192652 0.0458497 0.0142646
238 20 11 5.23018 17.2966 3.07977 0.0389089 0.0512437 0.0136177
234 20 1 4.57489 17.7486 2.40409 -0.00500218 0.0147729 0.00707846
232 20 19 4.61037 17.1744 1.17382 -0.00464491 0.0101202 -0.0028696
105 9 11 1.5264 14.0174 1.09553 0.00271616 -0.0225178 0.00761319
103 9 11 1.2036 15.8315 1.61109 0.0110205 -0.0502134 0.0367903
380 32 11 0.0321574 16.8229 3.13102 -0.055164 -0.00719861 -0.0287519
377 32 1 19.598 17.7441 3.43156 -0.0247182 -0.00275425 0.00803569
379 32 11 19.4678 17.6318 4.53662 0.0297763 -0.0393365 0.0245679
60 5 11 2.07438 0.146995 3.09323 -0.0425592 0.0138542 -0.0200358
58 5 11 2.59377 0.414525 5.04279 -0.0219868 -0.00147875 0.026297
242 21 20 2.30913 16.3516 4.44413 0.00075682 0.0181848 -0.00797364
101 9 1 1.75335 15.0234 0.987304 6.25149e-05 -0.00370186 0.01304
516 43 11 6.52032 -0.0575955 3.7061 0.0692044 -0.0148771 -0.0184517
652 57 20 6.35031 16.7773 5.30654 -0.00584953 0.00830678 0.00187005
515 43 11 7.49992 19.2973 4.63439 0.0258282 -0.00428993 0.0149924
230 20 20 7.00482 16.7477 1.59862 0.0164678 0.00948152 0.00806531
229 20 9 6.01456 17.1068 0.830144 -0.00800129 -0.00226934 -0.0148903
514 43 11 7.43279 18.5513 3.40476 0.0147229 0.0387853 0.0201623
510 43 1 7.57003 19.5493 3.59873 -0.00659039 0.0102247 0.0121684
191 16 11 9.37011 16.1545 1.44727 0.0285043 -0.039867 0.00819414
662 58 20 6.98673 13.5297 0.377134 -0.00389662 0.00100513 0.00515304
231 20 19 6.21986 17.6348 19.6007 -0.00550376 -0.0073494 0.00251024
73 7 9 11.6704 13.6198 0.361238 -0.00711357 0.00345081 -0.00294689
182 16 20 12.7222 16.4897 4.04006 0.00311827 -0.0129673 0.00895159
186 16 1 10.2192 16.6589 1.78693 -0.0137649 -0.00747924 0.0169045
192 16 11 10.569 16.8947 0.878389 0.0345017 -0.0676164 -0.00461477
190 16 11 9.79762 17.7282 2.2343 -0.0325857 -0.000705281 -0.0281161
184 16 19 11.1451 15.9527 2.6943 0.00787136 1.79108e-05 -0.00518094
181 16 9 12.5378 16.3574 2.81043 -0.0107367 0.0230917 0.012065
183 16 19 13.0671 17.0674 1.80428 0.000426326 0.00897445 -0.00103391
185 16 1 14.227 16.5022 1.00978 -0.00763398 -0.0149412 0.00513535
187 16 11 15.2055 16.6814 1.30077 -0.0443763 -0.073507 -0.0264149
188 16 11 14.3213 15.4689 0.983934 0.0621072 0.0154752 0.0124947
640 55 11 14.7097 15.1552 5.16071 -0.0181565 -0.0102687 -0.0299476
376 32 19 17.2496 15.5795 3.26167 0.00611454 -0.003973 0.00652865
189 16 11 13.9804 16.9686 20.0524 0.0055618 0.0283748 -0.0442042
755 72 26 16.2051 18.3897 0.121581 -0.00483881 -0.00125637 -0.00065983
373 32 9 17.3616 17.1165 3.30843 0.00516771 0.00942474 -0.0192529
375 32 19 18.4857 17.4958 2.66574 0.00847986 -0.000436037 0.000543035
125 11 1 15.852 0.066705 2.82643 -0.00427026 -0.00888565 0.00879716
127 11 11 16.9085 0.191809 3.08158 -0.00973573 0.0472991 0.0167517
381 32 11 0.571034 18.185 3.22612 0.0280512 -0.0223536 -0.00927842
129 11 11 15.8257 -0.189543 1.92097 0.00826017 -0.0276165 -0.0133387
374 32 20 17.0824 17.5996 4.48097 0.00705032 -0.0085592 -0.00450302
57 5 11 4.69671 3.80784 5.38293 -0.0792635 0.0321186 0.0343025
691 61 9 2.33181 2.38968 7.3796 0.00875697 0.00294306 0.0108551
693 61 19 1.05275 2.83026 7.2324 0.0107802 0.000274555 -0.00434139
692 61 20 2.67541 1.26154 7.03516 -0.000189584 0.0042371 0.0103748
694 61 19 3.32818 3.3237 7.75267 -0.0094882 -2.37896e-05 -0.0029665
698 61 11 1.16171 4.4979 6.10512 -0.0386939 0.0518973 0.00945883
696 61 2 1.2725 4.23461 7.23776 0.000441696 -0.00643429 -0.0142096
695 61 2 2.60423 4.50657 7.87616 -0.00188227 0.00513602 0.000854636
53 5 1 4.79004 2.77883 4.92868 0.00399343 -0.00571242 0.00944971
699 61 11 3.15348 5.37224 7.31531 -0.00873487 -0.026635 -0.0138254
506 43 20 7.98927 2.54 3.83252 0.00604001 0.0258484 -0.0156212
511 43 11 9.91272 3.08729 6.10049 0.0341776 0.00654244 0.0025167
512 43 11 9.85303 3.95406 4.27333 -0.0590075 0.0382471 0.0288744
55 5 11 4.60529 2.02053 5.71308 0.0062186 0.0331019 0.0343605
86 8 20 6.50411 2.05996 7.49632 0.00900994 0.00171742 -0.00017088
85 8 9 6.35727 1.21537 8.34074 0.00290141 0.000981788 0.00355369
87 8 19 7.30635 1.50555 9.44489 0.00673903 0.00054858 -0.00632653
481 41 9 7.62429 6.1409 6.25703 0.0160803 0.000570326 -0.00138484
482 41 20 8.30316 5.1041 6.11869 -0.00738454 0.00655174 0.00696436
483 41 19 8.36745 7.34624 6.46927 -0.000739803 0.0195357 0.0032001
91 8 11 6.38944 20.1174 10.8164 -0.044808 0.0635961 0.0859013
509 43 1 10.1531 3.1766 5.02716 -0.00544528 0.017781 -0.0115875
122 11 20 14.1673 1.58355 5.17282 0.0110242 -0.00688734 -0.000390246
556 47 2 11.3063 1.15037 7.33197 0.00373574 -0.00337806 0.00168057
553 47 19 11.5779 0.0344925 6.47376 0.0122433 -0.00427293 0.0130566
558 47 11 11.4678 2.24413 7.25678 -0.0223462 0.0284982 -0.0452219
557 47 11 11.9253 0.861672 8.20162 -0.0150837 0.0417015 0.0672218
364 31 19 13.5859 5.18672 8.08328 0.0031522 0.00329744 0.021569
361 31 9 12.9227 4.90961 6.90852 0.00592899 0.00499817 -0.00936787
362 31 20 11.7841 4.40919 7.26286 0.00916874 -0.0112231 0.00110188
370 31 11 13.4926 3.06232 9.04059 -0.0547173 -0.00898856 0.03574
570 48 11 11.207 5.96705 10.9472 0.0539782 0.00263257 0.0441183
565 48 2 10.4627 5.63288 10.2313 0.0242068 -0.011436 0.00363003
560 47 11 10.3121 0.620272 9.09187 0.0170407 -0.0539105 0.0125388
282 24 1 14.352 19.2984 8.00024 -0.00981813 0.00132257 -0.00309306
551 47 9 10.7416 19.0727 6.68744 -0.0006782 0.00690274 -0.0155559
286 24 11 13.7109 18.5146 8.30595 -0.0721876 0.0259501 0.0533689
569 48 11 10.8688 5.48056 9.2046 -0.0929753 -0.0254889 -0.0383573
119 10 11 16.323 3.42566 5.67378 0.00962926 0.00993615 0.0151218
118 10 11 17.3758 4.1963 6.41726 -0.00764818 0.00266275 -0.0176173
114 10 1 16.7142 4.37942 5.71923 -0.0123948 -0.00928335 -0.00583293
112 10 19 17.2272 4.70159 4.39889 -0.00546749 -0.00942318 0.00551801
120 10 11 15.8866 4.72368 5.92606 0.0137223 -0.0363056 0.0701045
110 10 20 19.3845 4.10692 4.55497 0.0128514 0.00436108 -0.00215519
301 26 9 0.438102 1.0303 9.86872 -0.000689021 -0.00387622 0.0108198
372 31 11 14.4583 4.15058 9.55978 -0.0133613 0.0218198 0.0489617
366 31 1 14.1719 3.86682 8.64999 0.0170934 0.00648641 -0.00624282
371 31 11 15.0648 3.37286 8.21468 0.00774151 -0.0955631 0.0461346
280 24 19 15.731 19.3072 8.42218 0.00303602 0.0161154 -0.00346725
277 24 9 16.3576 0.37514 7.68695 0.0260651 -0.0163236 0.00293385
279 24 19 16.7996 0.0680922 6.36608 -0.00330729 0.00869412 0.00328158
285 24 11 18.2156 1.42099 5.78999 -0.0174898 0.000408847 0.0441995
278 24 20 16.5513 1.42326 8.21934 0.00247161 -0.00379276 -0.0036112
310 26 11 19.0233 4.0044 10.267 -0.00435596 -0.00681883 0.0340631
304 26 19 0.170602 2.41041 10.3239 0.000679602 -0.01034 -0.00382855
312 26 11 18.7913 3.02263 8.80102 -0.0607557 0.00922793 0.00247498
306 26 1 19.0126 3.04613 9.83744 0.00305649 -0.00548218 0.00133008
43 4 11 2.47358 10.723 4.98896 -0.00325068 1.28666e-05 -0.0158376
700 61 11 2.1767 4.866 8.8148 -0.0191119 0.0294892 0.0263749
697 61 11 0.54382 4.99924 7.86137 -0.0058458 0.0230005 -0.0096126
354 30 1 2.361 9.67097 9.75782 -0.0154295 0.00535961 -0.00974345
492 41 11 4.50603 7.25758 6.12718 -0.0279696 0.0211623 -0.0341064
357 30 11 6.55248 7.2955 9.47765 -0.0134686 0.00562637 0.0066229
40 4 19 1.27834 7.31984 5.98676 -0.00710558 0.0020793 0.00798139
358 30 11 1.38723 9.56942 10.2835 0.0347283 0.0103534 -0.0275011
356 30 11 5.60479 7.12554 11.1493 -0.0203689 0.037069 -0.0180009
355 30 11 5.15156 7.13482 9.39215 -0.00699989 0.0318484 0.0320328
484 41 19 6.28305 6.18991 6.7827 -0.000558824 0.011125 -0.00390715
486 41 1 5.6315 7.19822 6.02858 0.00902241 -0.0140535 0.00398468
485 41 1 9.49895 7.48676 7.42527 -0.023432 -5.36981e-05 0.00160073
353 30 1 5.69644 7.52894 10.11 -0.0170306 0.0110684 -0.00741566
487 41 11 9.87095 6.47678 7.70376 0.0419066 0.0138893 0.0354814
489 41 11 10.395 7.9179 6.90194 -0.0939988 -0.0795078 0.026105
488 41 11 9.26124 8.15002 8.34649 -0.022016 -0.000172029 0.0431515
479 40 11 8.00661 11.2029 6.29246 -0.0280777 0.0914785 -0.00964967
472 40 19 9.06518 10.4191 7.54937 0.0115217 0.008618 -0.00852455
568 48 11 8.47857 6.4978 9.46768 0.0672082 0.0115768 -0.0512636
363 31 19 12.9894 6.00668 6.02938 -0.0006831 0.00548187 -0.00514637
473 40 1 12.4547 10.5291 8.33377 -0.0198051 0.00219234 -0.0137771
476 40 11 13.2981 10.1767 7.8245 0.000900101 0.00788928 0.0678585
475 40 11 12.137 9.54231 8.37682 -0.0508118 0.0290951 0.0720912
365 31 1 13.0617 7.27122 6.69989 0.00380764 -0.00733216 -0.00200113
368 31 11 12.5451 8.19586 6.41151 0.001786 -0.022965 -0.0678536
369 31 11 12.2922 7.39125 7.34322 -0.00422807 0.0876292 0.0241879
367 31 11 13.9973 7.60403 6.97046 -0.0312938 -0.0120267 0.0596401
548 46 11 16.204 7.8266 10.5297 -0.0296267 0.0371226 -0.0104935
547 46 11 15.0012 6.65943 10.3792 -0.048873 -0.00605412 0.0520211
546 46 2 16.0878 6.86706 10.0107 0.00265316 0.0104153 0.000505546
609 52 11 12.5292 8.82268 10.1378 -0.0212063 -0.0371112 -0.0138072
542 46 20 17.4617 6.62502 7.09941 -0.010061 -0.00358805 -0.00845562
46 4 11 19.8478 7.31693 7.56847 0.00840491 0.0211593 0.00483615
48 4 11 0.998918 8.9343 7.25607 0.0478676 0.048827 -0.00905665
42 4 1 0.303126 8.0891 6.80347 0.0140935 0.00150244 -0.00824212
543 46 19 15.9606 7.0436 8.75704 0.00171327 -0.000534122 -0.000251006
47 4 11 19.4957 8.68675 6.1767 -0.0329082 -0.0326808 -0.0713217
541 46 9 17.1511 6.36721 8.23948 0.0019876 0.00241875 -0.0172968
6 1 1 16.5949 9.55948 7.63682 0.00426044 0.00581659 0.0115159
12 1 11 16.6704 8.84694 6.9102 -0.0453739 -0.0936494 0.0135212
1 1 9 18.2786 9.88275 9.01279 -0.0122446 0.00372104 0.00259324
2 1 20 18.4829 9.17871 9.86149 -0.0115022 -0.0116265 0.0232149
11 1 11 15.818 9.45607 8.55956 -0.000315462 -0.0319884 0.0145676
248 21 11 2.06695 13.9471 4.94204 -0.0372227 -0.0227514 -0.0598856
360 30 11 2.43922 8.606 9.18466 -0.0324671 -0.00914166 0.0264196
245 21 1 1.34326 14.0651 5.63026 -0.0083108 0.00343339 -0.0119934
247 21 11 1.19317 13.0111 6.04023 0.00040726 -0.00879119 0.0154276
612 53 20 3.10552 11.8179 7.10325 -0.00916308 0.0132017 -0.00656322
249 21 11 0.38967 14.606 5.32697 0.0457459 0.0341731 -0.0187926
613 53 19 4.14302 13.7558 7.44578 0.00512749 -0.00205266 -0.00874809
582 50 20 0.172617 14.4562 10.1849 -0.00131524 0.0114062 0.00516442
581 50 9 1.17674 13.9623 9.76541 -0.0198331 0.0106316 -0.00226939
584 50 19 1.80236 12.7899 10.2897 -0.0100533 -0.00985289 -0.00816924
616 53 2 5.58803 14.3261 7.31095 -0.00858883 0.0150425 0.00939124
478 40 11 7.0572 9.90944 7.2947 -0.0157177 -0.0482265 -0.0636412
474 40 1 8.01151 10.2573 6.71414 -0.00976663 0.0128785 -0.000430162
480 40 11 8.03996 9.62921 5.79672 0.0335168 -0.0819395 0.00918376
611 53 9 4.12055 12.3696 7.0938 -0.00624923 -0.00304783 -0.000719711
615 53 2 6.15025 12.9061 6.96462 -0.000961455 0.000728774 0.00152302
614 53 19 5.25471 11.8429 7.00791 -0.00453676 -0.00915991 0.00446303
620 53 11 6.19504 12.3903 7.95133 0.0707042 0.0397821 0.00668191
619 53 11 7.25343 13.3162 7.11156 -0.00301496 -0.0103919 -0.0150381
730 64 11 14.2162 10.96 4.48505 0.024134 0.0959093 -0.00916521
469 40 9 10.2788 10.736 6.94576 -0.00536744 -0.00624195 -0.0140631
471 40 19 11.4104 11.3649 7.73573 -0.0004966 -0.0108004 -0.00230438
477 40 11 13.0908 11.1515 8.9993 0.047321 -0.0659419 -0.00777121
470 40 20 10.6718 10.053 5.95484 0.00420453 -0.00538052 -0.0132699
631 55 9 14.2932 13.6514 7.28166 0.00194547 -0.00532374 -0.00600475
634 55 19 14.7387 13.9022 6.13104 -0.0064868 7.71752e-05 0.00604012
632 55 20 13.7866 12.5092 7.09204 0.0111808 0.00483152 -0.00620801
633 55 19 13.4766 14.7298 7.89615 0.00151883 -0.0050484 -0.0152634
152 13 11 11.1541 14.1669 11.7678 -0.06874 -0.0506732 0.0349831
4 1 19 17.9331 9.69617 7.7649 -0.00746223 0.000337944 0.00517398
10 1 11 16.4088 10.6088 7.21739 -0.0174755 0.0354329 0.042401
71 6 11 17.3806 11.3615 5.48024 0.0540548 -0.0298081 0.0294514
72 6 11 18.5039 12.7171 5.10206 -0.0629321 0.0715125 0.0584049
3 1 19 18.6358 11.2859 9.06888 -0.012789 0.00900297 -0.0139953
8 1 11 16.5959 11.9375 8.73265 0.00280417 0.0487129 -0.0373163
682 60 20 18.0725 14.7033 6.01937 0.00848129 -0.00416172 0.00503105
243 21 19 1.99974 15.1344 6.54361 0.00272771 0.00129746 0.0192933
241 21 9 2.52482 16.262 5.71739 0.00991896 0.00125543 0.00380385
244 21 19 2.57622 17.5731 6.33993 -0.0181876 -0.0158857 -0.00097831
251 21 11 1.29518 17.4234 8.27378 -0.0151636 -0.0294238 0.0530815
246 21 1 1.54103 18.089 7.31619 0.0176547 0.00497843 0.00101145
252 21 11 0.722436 17.7708 6.74571 0.00545411 0.0232307 -0.03053
250 21 11 1.51779 19.0763 7.64425 -0.0203178 -0.00884011 -0.0106906
524 44 11 -0.622059 18.3437 10.3196 -0.0625015 0.0168785 0.102938
88 8 19 5.92886 19.9154 8.14353 -0.00125 9.02845e-06 -0.00261465
523 44 11 19.7385 18.7859 12.0733 -0.00694949 0.0368252 -0.018015
521 44 1 19.8378 18.0982 11.2892 -0.00869005 0.0054612 -0.00374284
651 57 9 7.42845 16.3414 5.01126 -0.0149474 -0.00666126 -0.00712434
653 57 19 8.66475 16.7671 5.33379 0.000110618 0.0104812 0.00157379
94 8 11 4.80217 0.381357 6.4742 0.0293455 0.0631852 0.00275612
617 53 11 4.93057 14.3781 8.12317 0.00428561 -0.0150875 0.00295781
656 57 2 9.72553 15.8981 5.35452 0.0144958 -0.000247717 0.00637365
95 8 11 5.51155 19.1318 6.09966 -0.0226659 0.0405744 0.0202671
96 8 11 4.41378 18.8183 7.55417 -0.0184425 0.0213087 -0.000543248
90 8 1 5.08466 19.5125 7.03055 -0.00340972 -0.00190776 0.009721
618 53 11 5.20463 14.9755 6.53403 0.0203103 0.0184076 0.0106459
503 42 11 6.27473 17.2133 7.55922 0.0416932 0.0494697 0.00600869
498 42 1 7.12872 17.238 8.16276 0.00820417 0.00436249 -0.000975258
502 42 11 6.8254 17.4128 9.21655 0.0243517 0.00329396 0.0205095
554 47 19 9.99022 19.2728 7.81914 0.0161809 0.0190991 -0.000628599
493 42 9 8.42038 15.7603 9.5439 0.00199995 0.017921 -0.0214406
504 42 11 7.88046 17.8636 7.59837 0.00930535 0.00466496 -0.0399971
496 42 19 7.62127 15.8522 8.42753 -0.00993699 -0.00697863 -0.015251
495 42 19 9.52196 16.6922 9.70261 0.0020299 0.00704081 -0.00146656
555 47 2 10.0288 0.703694 8.05087 0.00183853 -0.0120802 -0.0047654
559 47 11 9.36907 1.43821 7.72191 -0.00772131 -0.0148224 -0.0098701
288 24 11 13.7969 -0.0426653 8.48235 0.0236051 -0.0480494 0.0500983
287 24 11 14.1168 19.286 6.90143 -0.0385101 -0.0720501 -0.0484305
636 55 2 13.7384 15.8338 7.02252 -0.00639602 -0.000295707 -0.00201992
635 55 2 14.8619 15.3636 6.21221 0.00223915 0.00284744 -0.0110695
657 57 11 10.7269 15.6607 5.72868 -0.0139334 -0.0585553 0.0334599
658 57 11 9.33495 16.4759 6.24511 -0.00329381 -0.0473125 0.0316312
500 42 11 10.7677 15.3476 9.66213 -0.070714 -0.0224172 0.0185628
638 55 11 12.7832 15.5497 6.4258 -0.0105745 -0.0277015 -0.0240636
637 55 11 13.661 16.9064 7.16795 0.0339545 -0.0416357 0.00222052
552 47 20 11.1912 18.0334 6.45154 -0.0196668 -0.0122349 0.0146859
497 42 1 10.782 16.3793 9.27466 0.00771535 -0.000197985 2.99604e-05
499 42 11 11.6466 16.6771 9.92693 -0.0462066 0.00411903 -0.0176752
501 42 11 10.5953 16.0093 8.19617 0.0883557 -0.0156948 -0.00862011
703 62 19 13.0816 18.3997 11.9664 -0.00486886 0.00253239 0.00944923
284 24 11 18.869 19.831 5.45288 0.0218084 -0.00407176 0.0115882
281 24 1 18.1743 0.379153 6.09982 0.000910836 0.000713938 -0.000589149
283 24 11 18.7292 0.503849 7.02081 -0.01555 -0.035454 -0.0188398
302 26 20 19.9411 0.27376 9.00561 -0.00494538 -0.00148014 0.000695647
683 60 19 17.2399 14.6259 8.20187 0.0128058 0.0069352 0.00349993
681 60 9 18.2236 15.0128 7.12208 -0.0194653 0.00420823 -0.0173295
686 60 2 17.1926 15.8602 8.89644 0.0143937 0.00143651 -0.00626966
685 60 2 18.3894 16.8383 8.59922 -0.000994548 0.00737082 -0.00999203
690 60 11 18.1012 17.9036 8.55499 0.0672462 -0.00664791 -0.00975481
688 60 11 16.171 16.3956 8.54902 0.0203147 0.0323146 0.020272
687 60 11 17.2435 14.9673 9.62015 0.0113305 0.0153754 -0.00922455
684 60 19 18.9245 16.1885 7.34704 0.0202507 0.00636426 0.00702611
689 60 11 19.4505 16.4936 8.67073 -0.0071881 0.0249288 -0.00391384
525 44 11 0.90162 17.9563 11.3545 0.00989903 0.00194497 0.00638951
303 26 19 1.56069 0.571368 10.5636 -0.00569322 -0.00430082 0.000294805
308 26 11 2.61882 2.51141 10.871 0.0295306 0.01845 -0.0111862
305 26 1 2.74312 1.35375 10.5743 0.002307 0.00103732 -0.00387769
309 26 11 3.25941 0.956051 11.4207 0.0955603 0.021468 -0.0319408
307 26 11 3.34288 1.33558 9.69142 -0.0258858 0.0307359 0.0239686
226 19 11 1.79082 6.06743 11.1162 0.00511712 -0.0253402 -0.0369491
224 19 11 6.63939 4.04471 12.3765 0.0401846 -0.00479947 -0.0122869
622 54 20 0.470222 1.1834 13.3048 -0.000318519 0.00090619 0.00708836
624 54 19 0.391117 3.34224 14.2063 -0.00694456 -0.00706344 -0.00640293
219 19 19 4.62008 3.78021 12.2516 -0.018454 -0.00474519 0.00252091
221 19 1 6.01414 3.72609 11.7485 0.00484649 -0.00404918 0.0177287
225 19 11 6.1655 4.44317 10.9581 -0.0573999 -0.0499608 0.0244486
223 19 11 6.18178 2.6215 11.74 0.0148409 -0.00492386 -0.0431467
621 54 9 20.0369 1.9322 14.1527 0.00743834 -0.00464389 0.00485871
220 19 19 2.59292 5.0116 12.833 -0.000902245 0.0053542 0.000596615
217 19 9 3.95739 5.04031 12.3609 -0.0141027 0.0121542 0.0121477
276 23 11 1.75249 6.32127 17.6469 0.0443976 0.00894585 -0.00564999
89 8 1 7.22169 0.297314 10.2371 -0.0101914 0.00467952 -0.00757234
561 48 9 9.13286 3.64974 10.391 -0.00336922 0.0086093 -0.0184144
563 48 19 8.34284 4.57478 9.7777 0.0150304 -0.00805458 -0.0112727
93 8 11 7.66541 19.3286 10.0815 -0.0473053 0.0312883 0.036556
416 35 11 6.34826 2.48142 14.0189 0.0158187 -0.0325438 0.0212614
413 35 1 6.67834 1.41683 14.047 0.00546017 -0.0156846 0.00108169
415 35 11 7.27271 1.3262 13.1964 -0.0151626 0.00581122 0.0275291
417 35 11 7.31109 1.5551 14.8627 -0.0195886 0.00100487 -0.00216462
562 48 20 8.6477 2.99745 11.2661 -0.00534099 -0.0254375 0.00183289
735 69 31 4.45165 5.45515 14.7275 0.0107489 0.0396887 -0.0310335
564 48 19 10.4726 4.40843 10.8536 0.00145249 0.0064506 0.00205877
539 45 11 13.8752 4.60288 11.8332 0.0156828 0.0197324 0.0137242
705 62 2 10.7034 18.0645 12.304 -0.0134561 -0.00363941 0.0202454
709 62 11 10.1096 18.6209 13.0617 -0.0561531 0.0168003 -0.0291984
168 14 11 11.8851 1.93828 16.8669 0.0024466 0.00852769 -0.0412386
293 25 1 11.0144 4.63126 13.6275 -0.0206457 -0.00580087 0.00288676
295 25 11 11.7041 5.40565 13.1466 0.0377521 -0.0160745 -0.0617029
297 25 11 11.6016 4.31392 14.4968 0.00179019 0.0122022 0.00690541
704 62 19 10.8916 19.3445 11.8821 -0.0124621 -0.00113947 -0.00695017
566 48 2 8.97348 5.82635 10.3679 0.00242281 0.00160872 0.00216833
702 62 20 12.781 -0.0739084 10.3617 -0.0125011 -0.0175961 0.0263617
701 62 9 12.3714 19.4721 11.3951 -0.0055149 0.00450261 -0.00396612
167 14 11 11.0549 0.291311 16.676 0.013289 0.0879362 0.0175742
311 26 11 18.0139 2.83388 10.1637 -0.00334208 0.0136841 -0.0113804
534 45 1 14.6468 4.27455 12.5528 -0.00495851 0.00732449 0.0120524
540 45 11 13.9835 3.4964 13.061 -0.012343 0.0159373 0.00423408
538 45 11 14.9854 5.23124 12.997 -0.00673967 0.0589976 0.0371368
529 45 9 15.5402 2.35039 11.8435 0.019768 -0.0134709 0.0130292
530 45 20 14.4745 1.78569 11.4006 -0.00686493 0.00115432 -0.0136401
532 45 19 15.8371 3.58788 11.9948 0.00124195 -0.00422728 -0.0131427
531 45 19 16.646 1.65067 12.2117 0.00418779 -0.00476759 -0.00629129
533 45 1 16.8881 0.494 11.3616 -0.011224 0.00756973 0.00869505
627 54 11 17.2222 3.10314 15.354 0.00613923 -0.00392004 -0.0295367
536 45 11 17.5264 0.895795 10.527 -0.0698414 -0.0272203 -0.0677607
549 46 11 17.0247 4.71353 9.88614 0.0202102 0.0386262 -0.0317159
630 54 11 18.6514 4.25622 13.2623 0.00982455 -0.0510371 0.0144008
537 45 11 17.4328 19.8394 12.0853 -0.017422 -0.0255579 -0.0331139
535 45 11 16.1431 19.7794 10.9769 0.00878972 0.0234984 -0.00656419
625 54 2 19.081 4.05227 14.2259 0.00377546 -0.00928521 0.00201059
629 54 11 19.3378 5.1119 14.7003 -0.0192277 -0.0269535 -0.00481311
349 30 9 4.76408 9.4997 10.0123 -0.0157139 -0.0128754 0.0120821
351 30 19 5.60389 8.60431 10.8175 0.00620428 -0.00022065 0.0052857
228 19 11 0.605361 5.06339 12.1278 0.0558692 0.0126024 0.072892
222 19 1 1.5994 5.1712 11.6567 0.00999354 0.00096028 -0.00611259
352 30 19 3.46559 9.47713 10.5899 0.00303747 0.00484444 0.00483427
227 19 11 1.33851 4.32151 11.0649 -0.0263673 0.101344 0.0202203
218 19 20 4.63324 5.75507 13.0458 -0.00500316 0.0026098 0.0155037
427 36 11 0.7156 9.29764 13.5086 -0.0215993 -0.059951 -0.0366504
429 36 11 1.02945 8.65438 12.0927 -0.0345186 -0.0524673 0.0301188
428 36 11 2.36367 8.62516 13.306 -0.0357885 -0.0219512 0.039659
425 36 1 1.21852 8.49419 13.2248 0.00954468 0.0211232 0.00949121
347 29 11 6.2618 9.9044 14.9483 0.00501355 0.013644 0.0235317
423 36 19 0.553588 7.46578 13.819 -0.0067473 0.00250992 0.0062711
290 25 20 7.93489 5.59351 13.8523 -0.0160573 0.0109008 0.00688827
289 25 9 8.75649 4.89698 14.3602 0.0222849 -0.012554 -0.0132684
342 29 1 6.25982 9.28954 14.0803 0.0105251 -0.00323786 0.000313227
348 29 11 6.27008 8.28794 14.1466 0.0221636 0.0665684 -0.0330279
346 29 11 5.83029 9.14823 13.1922 0.0437756 -0.076122 0.0220011
337 29 9 8.579 9.78535 14.0137 -4.77449e-06 0.00686381 -0.0105321
338 29 20 8.83273 8.62209 14.25 0.0140197 0.0108774 0.00850421
340 29 19 7.32293 9.99291 13.4936 0.00347794 -0.0181284 0.0112428
567 48 11 8.57711 5.95829 11.3902 0.0109975 0.00719928 0.0256544
296 25 11 10.6528 3.82438 13.0111 -0.0121284 -0.0158008 -0.0272755
291 25 19 10.1274 5.48267 14.3276 -0.00551895 0.00104844 0.0116299
603 52 19 11.1361 7.81121 12.6631 0.0101949 0.002279 -0.0138078
601 52 9 12.6716 7.90141 12.4838 0.00870352 0.00802288 -0.00649091
605 52 2 11.8797 9.22072 10.84 -0.0127088 0.0115994 0.0100179
604 52 19 12.856 8.2579 11.1133 0.000361324 -0.00302819 0.00429027
608 52 11 10.0204 8.54339 10.6946 0.0851529 -0.00555272 -0.0366682
606 52 2 10.7369 8.52737 11.4739 0.00165465 -0.00255977 -0.00233774
607 52 11 10.0206 9.04156 12.1268 0.0437859 0.0165491 -0.0192555
610 52 11 11.8265 10.2703 11.0546 -0.000907666 0.0061011 0.0455433
602 52 20 13.0969 6.84655 12.6923 0.00125586 -0.0176824 0.0080413
550 46 11 17.0881 5.60961 11.2673 0.028835 -0.0539194 -0.00432103
545 46 2 17.0772 5.80165 10.1851 -0.00285448 -0.0131162 -0.00313083
544 46 19 18.0201 6.06323 9.24826 -0.00427478 -0.00386263 -0.00815091
422 36 20 18.7887 6.62255 12.4298 -0.00124083 -0.00367686 0.00037652
421 36 9 19.3047 7.45493 13.3358 0.0238328 -0.00520589 0.0155903
426 36 1 17.6177 6.83159 15.0244 0.000278298 -0.00280698 -0.0117507
430 36 11 16.5903 7.27903 15.2711 0.0401429 -0.030767 -0.0217585
424 36 19 18.5117 7.828 14.4723 -0.00359788 0.0117518 0.00252468
431 36 11 17.9382 5.963 15.8108 0.0385472 -0.0729113 -0.0125527
359 30 11 2.168 10.6315 9.21132 0.024309 -0.0020915 -0.0137965
590 50 11 3.63383 12.5232 9.88922 0.00392854 -0.0137883 -0.0572644
589 50 11 2.85306 12.9369 11.4951 -0.00154388 0.000712379 -0.0250756
350 30 20 4.9611 9.8094 8.96286 0.00252957 0.00462961 -0.0185555
583 50 19 2.20988 14.8074 9.34683 -0.00674498 0.00450078 0.000490663
585 50 2 3.14 13.3344 10.5573 0.000103081 0.0013326 0.0173977
588 50 11 4.50713 14.7994 10.5158 0.00976297 -0.0104584 -0.0308717
586 50 2 3.3843 14.7793 10.4086 0.0147052 0.0174969 -0.0240728
587 50 11 3.39467 15.2978 11.3332 -0.0487146 -0.00432539 0.00476418
318 27 1 2.21638 12.8178 14.6322 0.00374153 0.000277609 0.0125379
323 27 11 1.7988 13.4734 13.8443 0.00805001 -0.0627905 -0.0710327
316 27 19 3.47878 12.3927 14.5463 -0.0076749 -0.00763975 0.00145058
322 27 11 1.84672 11.7307 14.6195 -0.0251392 -0.00147224 -0.0321623
314 27 20 4.9779 11.7662 12.6935 -0.00138601 -0.00173159 -0.00468266
313 27 9 4.4015 12.6141 13.4766 -0.0044763 0.00312436 0.00999897
315 27 19 4.77703 13.8712 13.1681 0.00300829 0.0245661 0.00519704
154 13 11 7.03613 11.2187 10.9787 0.0713523 0.0273139 0.0143435
339 29 19 9.49921 10.6375 13.5681 0.00939401 0.0140565 -0.0109855
150 13 1 7.12897 12.1736 10.6318 0.01218 0.00382835 0.0075953
148 13 19 8.07372 12.3216 9.55955 -0.000876361 -0.00943787 -0.0115898
146 13 20 9.63882 11.0129 10.5697 -0.0151673 0.0029793 -0.000713721
156 13 11 7.25866 12.725 11.4878 -0.0433178 -0.0274072 -0.00991756
155 13 11 6.03791 12.2107 10.0915 0.00552072 0.0319628 0.064948
341 29 1 10.1081 11.3342 14.5243 0.00545506 -0.00504485 0.00496551
456 38 11 6.4538 13.7056 15.161 0.0394953 0.00395955 -0.000867039
445 38 9 8.67675 14.8432 15.1702 0.00171592 -0.00391652 -0.0159974
345 29 11 9.52878 11.5629 15.5438 0.00634523 -0.0848981 -0.0117954
452 38 11 10.6567 14.6417 16.0179 -0.00295303 -0.00973026 0.0288518
454 38 11 6.73905 12.1883 15.9625 -0.0228709 -0.0434019 0.0211301
450 38 1 7.14012 12.9245 15.1451 0.00124395 -0.00111769 -0.00241698
147 13 19 9.86662 13.2541 10.9952 0.00482686 -0.00335312 -0.00376589
145 13 9 9.36478 12.1335 10.2916 0.00867108 0.0130034 0.00551899
343 29 11 10.0084 12.2861 14.1046 0.0171143 -0.0251773 0.0445825
36 3 11 14.0649 10.8326 13.4276 0.0323715 -0.114858 0.0385334
149 13 1 11.2028 13.1451 11.492 -0.0175988 0.00547086 -0.00621525
153 13 11 11.7005 12.1932 11.974 -0.00533565 0.00704639 -0.0175372
151 13 11 11.8866 13.2017 10.6936 0.031155 -0.0283841 0.0358211
35 3 11 14.1534 12.3214 12.2326 -0.0559623 0.00288008 -0.0103565
30 3 1 14.6492 11.5266 12.7012 0.00348048 -0.000652519 -0.00639036
34 3 11 15.3715 12.2513 13.2587 0.0128744 0.0212516 0.00443021
26 3 20 15.5702 8.8744 12.7477 -0.00279325 -0.00660435 0.00570106
9 1 11 17.3198 11.4804 10.5423 -0.0550281 -0.0922452 -0.0950964
5 1 1 17.5186 11.9431 9.33449 0.00880645 0.00232699 -0.0062913
7 1 11 17.6491 12.9755 9.54916 0.0446992 0.000151013 -0.072765
25 3 9 16.2279 9.88396 12.5591 -0.0122138 -0.0142767 0.00609778
32 3 11 18.79 10.0943 13.8192 -0.00154717 0.0392394 -0.00207048
31 3 11 18.0873 11.7452 13.1674 -0.020856 -0.0384736 0.021659
27 3 19 17.6044 9.87936 12.1463 0.0157749 -0.00623003 0.00351787
29 3 1 18.4863 10.7068 12.881 -0.000101492 0.000417957 -0.0070015
33 3 11 19.5818 10.6846 12.1922 -0.0576666 -0.0744626 0.0792171
28 3 19 15.4784 10.6843 11.8602 0.0166261 0.00248246 0.00713188
526 44 11 19.5767 14.0609 12.1596 -0.0055645 0.00383555 0.025578
522 44 1 18.7783 14.3613 12.9034 0.00464711 0.00427579 0.0203659
262 22 11 14.0605 14.9356 12.4335 0.0401884 0.0576 0.0301277
527 44 11 18.8371 13.6052 13.7639 0.0139677 0.0342862 -0.0321853
434 37 20 4.60674 17.5099 10.5416 0.00157577 -0.0015072 0.00896354
317 27 1 4.30337 15.0857 13.7818 -0.0122324 -0.00252717 -0.00300252
321 27 11 4.74202 16.0323 13.5275 -0.0360682 0.0504042 0.0173596
443 37 11 3.59944 20.0975 13.401 -0.0211291 -0.00977091 -0.0204243
444 37 11 1.91543 19.2995 13.5703 0.0235333 -0.0333135 -0.0025757
438 37 1 2.99548 19.0965 13.3446 -0.00479109 0.00405666 -0.00285564
442 37 11 3.1572 18.489 14.1525 0.0205185 0.0524999 0.00586648
436 37 19 3.11767 18.1456 12.2401 0.0100025 -0.00419214 -0.00435554
433 37 9 4.51693 17.9203 11.6726 -0.014693 0.0136011 -0.00157968
319 27 11 3.26173 15.4913 13.6344 -0.0226438 -0.00998619 -0.0131163
519 44 19 19.3498 16.7833 11.8213 -0.00384219 -0.0126709 0.0090927
92 8 11 7.9718 0.464982 10.921 -0.00030224 -0.0106054 0.0473716
494 42 20 8.17216 14.8394 10.398 0.00517398 -0.00420906 0.0137336
447 38 19 9.69711 15.0009 14.3118 0.00467032 -0.0106378 0.0150944
435 37 19 5.57467 17.9712 12.6216 -0.00439162 0.00878664 0.000295469
441 37 11 7.35204 18.0856 12.0181 0.0279873 -0.0187686 0.0389989
437 37 1 6.7675 17.299 12.3862 0.00558998 -0.0112224 -0.00350352
439 37 11 7.44304 16.8879 13.2361 0.025145 -0.0017701 -0.00980612
440 37 11 6.60109 16.5509 11.6966 -0.0491483 -0.0421379 -0.0285823
453 38 11 10.777 15.9398 15.0375 0.0164935 -0.0595081 0.0247824
710 62 11 9.86931 17.2147 12.2129 -0.000193951 0.000621902 0.0738419
449 38 1 10.782 14.9233 14.9499 0.0243394 0.0079488 0.00979123
451 38 11 11.7192 15.0186 14.3939 0.021707 0.00106218 0.0443337
708 62 11 12.2436 17.2103 13.6977 0.0479407 0.0565681 -0.0334965
707 62 11 12.7066 16.8787 11.9543 0.00184245 0.00228905 -0.00316342
706 62 2 12.3146 17.6912 12.7092 0.00556952 0.00710315 -0.0104827
157 14 9 13.6816 19.8845 15.4977 0.00561941 0.0155654 0.00405506
158 14 20 13.0346 18.904 15.0896 0.00395181 0.00271904 -0.00305298
165 14 11 15.2354 18.6938 14.1801 -0.0337256 0.00969059 -0.0187355
164 14 11 15.1539 19.5178 12.7591 0.0188456 0.00515753 -0.0113409
263 22 11 15.0046 15.9498 12.0446 -0.0267207 -0.00216625 -0.0175568
528 44 11 19.4464 15.2016 13.2967 0.0417658 -0.0270337 -0.0128011
408 34 11 0.137073 19.4457 16.1597 -0.0568015 -0.0157444 0.0157908
256 22 19 14.4825 16.1248 13.9846 -0.00119829 0.00791059 -0.00383325
264 22 11 15.3126 14.2964 13.3067 0.00798089 0.00568628 0.0150271
258 22 1 14.8268 15.2671 12.9176 0.00474904 -0.0206957 -0.0112722
517 44 9 17.9123 16.4473 11.8906 -0.0057583 -0.00436077 0.00116085
520 44 19 17.6525 14.995 12.1689 0.00710174 -0.00793938 0.00023716
518 44 20 17.0805 17.2723 12.217 -0.0125465 -0.00188472 0.00801017
159 14 19 14.5712 0.483969 14.7123 -0.00482147 -0.00887314 0.00236023
161 14 1 15.4138 19.5802 13.8632 -0.0103661 -0.0189434 0.00129194
163 14 11 16.5223 19.6144 14.0721 0.00298031 0.0466923 -0.0475528
420 35 11 2.07046 0.671024 15.5045 0.0137223 -0.0152101 -0.0307408
144 12 11 3.41914 0.911659 19.1119 -0.0164612 0.013973 -0.0455058
138 12 1 4.20216 0.904569 -0.00952727 -0.0143123 0.00601803 0.000754495
419 35 11 2.31377 2.35637 16.0086 -0.00973443 0.0221019 -0.0279382
414 35 1 2.7322 1.35622 16.1083 0.0112936 0.00204631 0.0108896
418 35 11 2.87959 1.13311 17.2734 -0.000167305 -0.0233423 0.0324845
412 35 19 4.00903 1.48133 15.4897 -0.00372418 0.00322217 -0.0135031
647 56 11 4.32192 4.50985 19.4967 -0.0279511 -0.00904868 -0.0410861
646 56 2 4.70662 4.36829 18.5034 -0.0118743 0.00511914 -0.00833551
643 56 19 4.14805 4.13185 17.2819 -0.00425567 0.00198044 -0.0050025
749 71 26 0.508833 3.25042 17.7895 -0.00441559 -0.00698007 0.000994443
409 35 9 5.14139 0.495487 15.409 -0.00694634 0.00412729 0.00562406
731 65 31 18.5099 1.23823 18.1398 0.000424663 0.00479203 -0.0029038
747 71 26 19.9811 2.04872 19.3914 0.000461651 -0.0107538 -0.00737816
743 71 27 0.150817 3.48284 19.2589 -0.00186655 -0.0010926 0.00662971
648 56 11 4.17728 3.38925 18.7535 -0.00678221 -0.0285036 0.0202836
744 71 26 1.636 3.26399 19.7146 0.00139696 -0.00924906 -0.00351735
410 35 20 5.17214 19.6546 16.4334 0.00593227 0.00107358 -0.0136937
300 25 11 9.65184 4.05145 16.3063 0.0565232 -0.0286613 -0.000195799
294 25 1 9.25529 3.18732 15.8632 -0.00581594 0.0211216 0.00809281
292 25 19 8.49966 3.62871 14.8325 0.00409382 -0.00204967 -0.00603148
642 56 20 5.37632 4.3696 15.5046 -0.00254035 0.00720228 0.00300529
298 25 11 8.52908 2.45105 16.4343 -0.00700894 0.014694 0.0576699
760 73 26 9.11207 2.9777 18.6752 -0.0112984 0.0182755 0.00274675
763 73 26 9.48746 0.933277 18.467 -0.00784878 -0.0103036 0.00846824
757 73 27 9.7022 1.89286 19.7166 0.00186188 -0.0164777 0.00187188
641 56 9 5.2482 3.92096 16.5577 -0.00857861 0.00652085 -0.023478
299 25 11 10.1387 2.6896 15.6034 -0.00229332 0.0322193 -0.017813
650 56 11 6.69722 3.06047 18.8472 0.0427388 -0.0805465 0.0102084
645 56 2 6.16931 4.00205 18.6711 0.00574205 -0.00429282 0.000784331
644 56 19 6.44776 3.81225 17.3341 -0.00713208 -0.0100355 -0.0039977
466 39 11 9.56882 19.7747 14.8114 -0.00379293 -0.0191546 0.0404869
468 39 11 8.25654 19.4918 15.9154 0.0433042 -0.0601631 -0.0237086
162 14 1 11.8679 0.980766 16.3426 0.00495137 -0.00615392 0.00361764
166 14 11 11.7003 1.32608 15.4232 0.0151774 0.055825 0.101245
160 14 19 13.0773 0.473069 16.6751 0.00693882 0.0103542 0.00666041
758 73 26 11.0643 2.19772 19.0557 -0.00685436 -0.00930266 -0.0109031
194 17 20 14.0304 4.49415 17.8028 -0.00292513 0.000445504 -0.0045155
196 17 19 14.4128 5.67813 15.7814 0.00421598 0.00833629 0.00676532
195 17 19 14.4348 3.2363 15.9988 0.0113054 0.019011 -0.00844272
193 17 9 14.1056 4.49776 16.542 0.00528611 -0.00474931 -0.000578161
732 66 31 11.8202 1.78772 0.532001 -0.0108163 0.0042696 -0.0169286
201 17 11 16.2422 3.12388 17.3207 -0.00903732 0.00140412 0.00781587
171 15 19 15.2697 3.20401 19.9587 -0.0036372 -0.00950173 0.00531091
173 15 1 16.5134 3.05795 0.543017 -0.00740014 0.00489251 0.00108305
177 15 11 16.9445 4.064 0.808254 0.0145424 -0.00680184 -0.0778225
176 15 11 17.1599 2.32493 19.9637 0.0280139 -0.0105637 0.0304224
623 54 19 18.9271 1.62134 14.9787 -3.98745e-05 -0.00612855 0.00125249
626 54 2 18.3265 2.96397 15.0506 -0.00793674 -0.00237068 -0.00871426
628 54 11 18.8719 3.01688 15.943 0.0332621 0.0692187 -0.0297223
748 71 26 19.9104 3.7892 0.724629 0.00111819 -0.00654301 -0.0107627
200 17 11 14.8501 2.20002 17.7542 -0.115555 0.0330228 0.0128829
199 17 11 15.815 1.5706 16.3858 -0.0289732 0.042455 0.0110928
753 72 26 17.2071 20.0039 18.9433 0.0119175 0.00330853 -0.000995457
197 17 1 15.3468 2.46751 16.8692 0.0143523 -0.0112934 -0.00845021
745 71 26 18.6866 3.53899 18.6493 0.00305768 -0.00395104 0.000827895
672 59 20 1.48816 8.22659 0.694676 0.00187563 0.000759478 -0.010668
671 59 9 2.69713 8.11461 0.657234 -0.000812505 -0.0138861 0.0058099
673 59 19 3.58717 7.19975 0.182707 -0.00207451 0.0101888 0.00626918
676 59 2 4.87409 7.36242 0.719448 -0.0106271 -0.00809914 0.00996028
678 59 11 4.74591 7.46346 19.6064 0.0084342 -0.0281767 0.0051296
275 23 11 1.20285 7.68438 16.6269 0.0105782 -0.0531385 -0.0252509
270 23 1 1.63083 6.55348 16.7093 0.00701841 -0.00279455 0.0165527
274 23 11 0.572601 6.28087 16.5258 -0.0472641 0.0225035 0.0235861
268 23 19 2.74675 6.21734 15.9133 0.0132914 0.0121397 -0.00697701
265 23 9 3.58936 7.28415 15.7728 -0.0187116 -0.00419186 0.00217983
266 23 20 3.12192 8.30223 15.4176 -0.00446348 -0.00987375 -0.00508534
768 74 26 0.33193 9.37208 18.3797 0.00480047 -0.00231968 -0.011356
766 74 26 19.0464 9.2657 16.4943 -0.00514287 -0.000814499 0.00104505
267 23 19 4.94368 7.14547 15.5224 -0.0189121 0.00928843 -0.00116872
746 71 26 0.367986 5.00363 19.071 -0.000902109 0.00615188 0.00991631
649 56 11 6.85273 4.78776 18.6443 0.00340765 -0.0244562 -0.0369614
713 63 19 9.70373 7.18005 19.6565 0.00156959 0.00249838 -0.00174961
716 63 2 10.2759 7.75051 18.4853 -0.00497277 -0.0248726 0.00939839
717 63 11 9.6689 8.71601 18.4019 0.0186899 0.00290716 -0.0455519
677 59 11 5.93624 7.84616 0.447372 -0.0387582 -0.0222753 0.0407063
269 23 1 5.82834 7.3445 16.7928 0.0104584 0.00850971 -0.00251386
271 23 11 6.21984 8.29056 16.928 0.00225532 0.0130973 0.00939624
272 23 11 6.84159 6.69069 16.4798 -0.0427 0.0140788 -0.0297135
273 23 11 5.37759 6.75854 17.6003 0.0601876 -0.0482686 -0.0106321
714 63 19 10.6976 5.55756 18.3105 0.00685738 0.00111197 0.0148912
715 63 2 10.1544 6.6331 17.4556 0.00270565 -0.0144873 -0.0079991
720 63 11 9.31311 6.01481 17.2541 0.00485174 -0.046518 -0.110255
719 63 11 10.2983 6.99638 16.4493 0.0387152 -0.0500355 -0.00585474
711 63 9 10.1414 5.80392 19.678 0.00656417 0.000851569 0.00694058
386 33 20 6.80758 9.53388 18.7219 -0.00826879 -0.00265739 -0.00204969
599 51 11 15.8425 9.48389 18.7281 0.00986535 -0.00358908 0.0340043
712 63 20 10.5193 5.35298 0.70428 -0.00378643 -0.0146032 -0.0086609
202 17 11 13.1903 7.49032 15.5233 -0.0229757 0.0156042 0.0156534
204 17 11 14.4445 7.35248 17.075 0.0310201 -0.000741503 0.0612232
203 17 11 12.8882 6.51433 16.7941 -0.0659854 -0.00245631 -0.0588132
198 17 1 13.7179 6.84917 16.2932 0.00828749 -0.0157792 -0.00727816
598 51 11 13.5908 8.52459 19.3391 -0.0137306 -0.0392406 0.0660104
596 51 2 14.5909 7.88405 19.5268 0.0118169 0.0144219 -0.00863689
22 2 11 15.1786 9.43069 14.9409 -0.0290649 -0.0476228 0.00121138
741 70 26 12.8378 9.40854 17.0966 0.00732813 0.00514073 0.00360312
591 51 9 16.4091 6.83054 18.9132 -0.00636784 0.020416 -0.0363422
432 36 11 17.0351 6.40215 14.1612 0.0304721 0.0118589 0.0700039
594 51 19 16.7241 8.02545 18.9112 -0.00344974 0.00410266 0.0184652
595 51 2 15.882 8.74804 19.5692 -0.00206721 0.0117249 -0.0105678
600 51 11 16.1778 9.20296 0.449656 0.0345992 -0.00502975 0.0173087
24 2 11 14.9792 9.82995 16.7738 0.045725 0.0372445 -0.0547836
324 27 11 2.29013 13.2009 15.7381 0.0131178 -0.0717664 0.0101249
770 74 26 1.19802 10.3006 16.5343 -0.01751 0.00152555 0.00415567
395 33 11 3.25485 11.0148 19.2332 -0.0351708 0.0079878 -0.0337046
396 33 11 4.20681 9.98379 18.1451 0.0116675 -0.00428721 -0.0291399
765 74 26 0.524827 11.4283 18.2074 -0.00029494 0.0108209 0.00104714
764 74 27 19.8529 10.35 17.3747 -0.00983686 -0.00391927 0.0157622
390 33 1 4.21092 11.0299 18.5069 0.00215543 -0.00209127 0.00218572
663 58 19 5.15407 14.249 19.8333 -0.00605813 0.00168329 0.00290339
394 33 11 3.99737 11.6088 17.7066 0.0106175 -0.0454856 -0.0145013
769 74 26 18.6776 10.4527 18.2946 0.00346252 0.0268139 -0.0160833
767 74 26 19.4592 11.3249 16.16 0.00533662 -0.027387 -0.0045465
99 9 19 1.61134 15.2878 19.6419 0.00197617 0.0144807 -0.00181026
455 38 11 7.05725 12.5428 14.213 -0.0141401 0.0247134 0.00725695
388 33 19 5.45928 11.3778 19.1225 -0.0119263 -0.00612606 -0.00651512
448 38 19 8.23791 13.458 15.4899 0.00646804 0.0143311 0.000970234
385 33 9 6.71847 10.6573 19.1045 0.0126279 0.00717956 -0.00631003
387 33 19 7.81141 10.8088 0.0729426 -0.00652742 -0.00525012 -0.000305357
389 33 1 8.8553 11.4449 19.3342 0.0147926 -0.0155086 -0.00319224
391 33 11 9.62707 11.1144 -0.236599 0.0204497 -0.0343338 -0.0349595
392 33 11 8.7735 12.4811 19.2292 -0.000471825 -0.0232427 -0.0186277
393 33 11 8.80641 10.9787 18.4139 -0.0435348 0.000881545 0.000693734
80 7 11 12.2863 14.1455 17.8562 0.050326 -0.0371616 -0.0224292
344 29 11 11.2199 11.4445 14.2825 0.0350365 0.0299352 0.00340575
738 70 26 11.6113 10.2078 18.7268 -0.00518564 0.0142506 -0.0163683
739 70 26 10.8364 10.0447 16.9547 0.0036986 0.00101743 2.70273e-06
742 70 26 11.2004 12.1543 17.4854 -0.0021683 0.00115054 0.0129704
736 70 27 11.9797 10.728 17.2962 0.000768187 -0.00185583 -0.0250571
740 70 26 13.2558 11.4766 17.8419 0.00542653 -0.00820562 0.00400641
737 70 26 12.5487 11.3149 16.0996 -0.0107575 -0.0115892 0.00532373
20 2 11 14.6106 13.1494 17.679 0.0315032 -0.0203777 0.0619371
77 7 1 11.8589 14.8592 18.5635 -0.00373159 0.00316637 0.00220835
81 7 11 12.7055 15.4393 18.3774 0.0372686 -0.0339079 -0.0018401
69 6 11 18.8693 11.3021 1.12274 0.000323685 -0.0550381 -0.0224796
108 9 11 18.6216 13.5302 17.7155 -0.0136592 0.00845656 0.0458289
23 2 11 16.2947 9.2988 15.8804 0.0257162 0.0267421 0.0539006
18 2 1 15.4287 10.0053 15.8772 -0.000100968 0.00284104 0.00687847
13 2 9 16.3392 12.0538 16.4478 -0.00988259 -0.0126015 -0.00195346
16 2 19 16.1648 11.1422 15.5272 -4.32683e-05 -0.00408742 -0.00363988
15 2 19 15.9633 11.9162 17.8098 0.0030711 -0.00399807 0.00725958
17 2 1 15.4878 13.1003 18.3116 0.0115015 -0.00894417 0.00145221
19 2 11 15.0963 12.8388 19.2825 0.0229369 0.00647448 -0.0632495
14 2 20 17.0239 13.0489 16.0674 0.0102362 0.0148596 -0.0140009
107 9 11 17.9634 15.2766 18.5347 -0.0519558 -0.0241345 -0.00234281
102 9 1 18.7143 14.3762 18.4757 0.00438933 -0.00149979 0.00619012
100 9 19 20.0003 14.8616 18.0397 0.0112704 -0.00292153 0.00820002
143 12 11 3.44022 0.982977 0.880893 -0.0268504 -0.00903077 -0.0395279
400 34 19 0.359992 17.3584 16.2278 -0.0131965 0.00569675 -0.0118275
320 27 11 4.05478 14.9865 14.7608 -0.0126934 -0.0168976 0.00562546
142 12 11 4.51102 19.9183 0.162766 0.0341357 0.0681078 -0.0160941
668 58 11 3.86237 13.9729 19.0221 -0.0293337 -0.0427174 -0.00397957
666 58 2 4.39677 14.7631 18.7433 -0.0114064 0.00618408 -0.00211478
398 34 20 1.47457 16.3843 14.6489 -0.00166325 -0.00488162 -0.0075298
397 34 9 1.59789 17.1294 15.5459 0.00507934 0.00196854 0.0123647
399 34 19 2.83112 17.3778 16.3391 0.00571345 0.00509809 0.00692296
401 34 1 2.73214 18.2445 17.5669 0.00252071 -0.0128637 0.00077616
405 34 11 3.7183 18.0923 18.0213 0.0158919 -0.0304234 0.00621612
403 34 11 2.2326 19.2248 17.5141 0.00102225 -0.0290463 -0.0303779
667 58 11 3.98273 15.7954 19.1871 -0.0151962 0.0281545 -0.040617
404 34 11 2.43273 17.7976 18.4615 0.0109164 0.02356 0.030288
670 58 11 5.88709 15.2803 17.1839 0.0090009 -0.0185802 0.0590056
406 34 11 18.6777 18.4318 16.2874 0.017778 0.0731189 -0.0381246
97 9 9 0.531024 15.7585 18.9026 0.000373751 0.00436081 0.0139786
98 9 20 19.7925 16.7458 19.1333 0.00223931 0.0163885 0.00410111
236 20 11 7.74563 18.5287 18.5683 0.065897 -0.0153865 -0.00107369
411 35 19 5.93896 0.427621 14.3536 -0.00856912 0.000907561 0.0019425
446 38 20 7.94798 15.8234 15.631 -0.00782989 0.00756082 0.00285088
669 58 11 4.962 14.1908 16.6716 0.0306196 0.00728718 0.00338068
661 58 9 6.46239 14.1874 19.5197 -0.00221441 -0.00664013 -0.00613684
664 58 19 6.67292 14.2312 18.1467 -0.00458374 -0.0118303 0.00581329
665 58 2 5.44853 14.4067 17.5807 -0.000238546 0.00927927 -0.00289335
467 39 11 8.46516 18.2931 14.6126 0.0160891 0.0174723 0.0189413
458 39 20 9.74864 17.2123 17.9092 0.00525566 0.00969625 -0.00302592
237 20 11 6.41282 19.6331 19.1473 -0.00363058 -0.038045 0.082767
235 20 11 7.94799 19.1799 0.131893 0.015707 0.0480153 -0.0197642
233 20 1 7.13598 18.8084 19.5183 -0.0104601 -0.0174352 -0.0102237
460 39 19 9.84979 17.851 15.6836 0.0144546 -0.00676436 0.00554982
462 39 1 9.03802 19.073 15.2921 0.00282397 0.00540331 0.0120936
457 39 9 10.3299 17.7226 16.9597 0.00616388 -0.0109471 -0.00965513
75 7 19 12.0617 14.9878 -0.0456521 0.00465609 -0.0102121 -0.0104363
752 72 26 14.9957 19.7303 18.7724 0.0175779 -0.0119295 0.00957308
79 7 11 10.9972 15.6296 18.3637 -0.00852977 -0.0490096 0.0131448
459 39 19 11.6897 17.9815 17.0654 0.00113181 -0.00690856 -0.000455253
465 39 11 11.0352 18.6377 18.8401 -0.0298464 0.0170163 0.0274273
254 22 20 13.8153 14.648 15.6843 -0.00245333 -0.00347248 -0.00979743
464 39 11 12.5924 19.3475 18.5544 0.00777186 -0.0107273 0.0607981
461 39 1 11.9599 18.4728 18.4763 -0.00159853 -0.000296043 -0.00147172
463 39 11 12.6164 17.5856 18.9877 -0.0366102 0.00957241 0.0684476
754 72 26 15.354 17.6223 18.1922 0.00686988 0.00616076 -0.000297491
402 34 1 19.5931 18.5339 15.8222 -0.00223077 -0.00177087 0.0107804
261 22 11 17.3832 16.4261 16.5572 -0.0328912 0.0223692 0.0700988
259 22 11 17.4619 15.3441 15.2204 0.0152813 -0.0261375 -0.0367539
21 2 11 16.2202 13.9045 18.2171 0.0142841 -0.0279389 -0.00452832
407 34 11 19.4313 18.6664 14.8359 -0.0599495 -0.0352137 0.0237773
253 22 9 14.5925 15.5255 15.2955 -0.00117931 -0.00246994 -8.06761e-05
255 22 19 15.6627 15.8872 16.1998 0.00434625 0.00725344 -0.00365186
257 22 1 16.9624 16.2414 15.6289 -0.0218176 -0.00101194 -0.00766586
260 22 11 16.9651 17.0502 14.9545 -0.0277323 0.00367369 0.000287877
750 72 27 16.2598 18.8423 18.6086 0.0064169 0.00727225 -0.00075755
106 9 11 18.8073 14.0734 19.662 0.00738726 0.03904 -0.0689971
756 72 26 16.3726 19.1735 17.1144 0.0071016 0.000491511 0.00447226
751 72 26 17.4582 17.8693 18.5051 -0.000513358 0.00575039 -0.000324246
ITEM: TIMESTEP
1900
ITEM: NUMBER OF ATOMS
770
ITEM: BOX BOUNDS pp pp pp
0.0000000000000000e+00 2.0000000000000000e+01
0.0000000000000000e+00 2.0000000000000000e+01
0.0000000000000000e+00 2.0000000000000000e+01
ITEM: ATOMS id mol type x y z vx vy vz
136 12 19 4.91093 2.22087 0.379214 -0.000529896 0.0136299 0.00667707
59 5 11 1.06904 19.8935 4.53469 0.0347119 0.0190012 0.0162341
52 5 19 1.47045 1.95769 4.45774 0.0029838 -0.0042849 0.00627402
49 5 9 2.55274 2.90169 4.31105 0.00578036 0.00104075 0.00618397
51 5 19 3.78784 2.32263 4.01087 -0.00611806 -0.00462839 0.00519499
50 5 20 2.37851 4.05676 4.18211 0.00620072 0.00120012 -0.00259423
133 12 9 5.6543 2.15692 1.54606 -0.00636767 -0.00838459 -0.0115283
135 12 19 6.08304 3.40838 2.14801 -0.0042253 -0.00299233 0.00298972
116 10 11 19.1529 1.35115 3.48802 0.0102082 -0.010271 -0.00912531
134 12 20 6.32251 1.09508 1.75109 0.00235722 -0.00338058 0.0110636
508 43 19 8.80191 0.545975 3.53696 0.00726708 0.00647254 -0.00686785
505 43 9 8.96809 1.68233 4.08363 -0.00929619 0.0226392 -0.00818284
137 12 1 5.01669 4.50654 2.19414 -0.00132946 -0.0095287 -0.00372442
140 12 11 4.8458 5.0842 3.08984 -0.0328482 -0.0271453 0.0103111
56 5 11 5.79512 2.34174 4.83229 -0.0180239 -0.0580216 -0.00780551
762 73 26 10.1192 2.59742 0.705581 0.00166235 -0.00101056 -0.00605036
141 12 11 5.48508 4.97423 1.26953 -0.0338094 0.00838888 -0.0338773
139 12 11 3.99964 4.1331 1.68127 0.000649641 -0.000316896 -0.0499559
734 68 31 8.11073 4.11031 2.75445 0.00358549 -0.00645145 -0.0261914
759 73 26 8.33149 1.71184 0.223755 0.00634558 -0.00107612 0.00542307
761 73 26 10.531 0.763047 0.322108 -0.00643097 0.00252949 -0.00963251
507 43 19 10.1897 2.20837 4.05907 0.0128317 0.00613571 0.00014711
132 11 11 11.6585 18.951 3.98199 -0.00229284 0.0111765 0.0450382
170 15 20 13.2489 2.75521 1.08396 0.000632233 -0.000304845 0.0172571
169 15 9 14.0083 3.55382 0.867301 -0.00768188 -0.00722634 -0.0139997
174 15 1 13.2364 5.07163 2.24378 -0.00131354 0.000313006 -0.00440936
172 15 19 13.7743 4.79337 1.00195 -0.00193027 -0.0107717 -0.00506979
130 11 11 12.9057 19.2102 2.7831 0.0451218 -0.0159155 0.0430912
124 11 19 12.5338 0.710765 3.77902 0.0123836 -0.0161416 0.00414548
513 43 11 11.5224 3.65671 4.92494 0.0582328 -0.0238066 -0.0255503
178 15 11 12.4339 4.49971 2.37714 0.0636881 -0.0497194 -0.0175511
126 11 1 12.5654 19.4471 3.74554 0.00726058 0.0174619 0.0112613
121 11 9 13.8841 1.25135 3.99084 0.00312334 0.0208844 0.00270001
179 15 11 12.8253 6.10985 2.19769 0.0214233 0.053867 -0.0112962
131 11 11 13.12 18.8699 4.43982 0.0201936 -0.0299044 -0.0242189
180 15 11 13.8681 5.05859 3.05957 -0.0762664 0.0476699 0.0428899
113 10 1 19.0455 2.17982 2.72298 -0.00628212 -0.00528596 -0.0102762
115 10 11 19.2721 1.76659 1.80513 -0.0344931 0.000661197 -0.0225136
117 10 11 19.9933 2.69455 2.8052 0.0435281 0.0184587 0.0216645
175 15 11 16.2239 3.17312 1.69053 0.0250163 -0.0185528 -0.0265897
109 10 9 18.1662 3.6963 4.28161 -0.0124463 -0.00247611 -0.00422889
111 10 19 18.0554 3.02938 3.21075 0.000341193 -0.00590124 0.00733483
123 11 19 14.8266 1.20276 2.95243 -0.00787737 0.0135868 -0.00297642
128 11 11 15.1484 19.1682 3.31928 -0.0361019 0.0431273 -0.0583284
38 4 20 1.46568 7.74982 3.54729 0.00795717 -0.0190172 -0.0010974
674 59 19 3.43835 9.27135 1.43572 -0.00653501 -0.00276069 -0.00314601
680 59 11 5.30016 9.1775 1.53948 -0.0134454 -0.00745943 -0.00694413
675 59 2 4.57358 8.51674 2.00459 0.00896211 0.007094 0.0135588
37 4 9 1.81809 8.0422 4.81207 0.017032 0.00452666 -0.011881
39 4 19 2.91056 8.70517 4.94974 -0.00573141 0.00407779 -0.00840737
44 4 11 3.56287 10.9676 4.70902 -0.040626 0.00358693 -0.0357944
41 4 1 2.89276 10.1756 4.62452 -0.010326 0.00434759 0.00836111
333 28 11 18.4417 5.50169 2.73832 0.00566488 0.0636973 0.0175548
45 4 11 2.72639 10.4439 3.61478 0.0156022 0.0423933 0.0121521
679 59 11 4.97078 8.32936 2.95871 0.00510455 0.0369666 -0.0309077
205 18 9 8.36555 6.77774 3.1441 -8.3734e-05 -0.00093497 0.00372577
206 18 20 7.66856 5.79315 2.91667 -0.00882794 0.00930095 -0.00936179
210 18 1 8.46784 9.18824 3.02638 -0.01652 0.00295292 0.00335376
215 18 11 9.5269 9.07786 3.12758 -0.0272545 0.0136081 0.0126217
208 18 19 7.84063 8.01423 3.41246 0.000111578 -0.00212498 -0.00701598
216 18 11 8.30291 9.42863 2.01226 0.0316123 0.00825406 0.0336569
214 18 11 8.08041 10.1168 3.20531 -0.00306221 -0.0260478 -0.00130689
718 63 11 11.134 8.13571 18.5568 0.021623 -0.0214427 -0.045827
491 41 11 5.79921 8.23298 5.97586 -0.0406114 0.000830835 0.00980275
490 41 11 5.37214 6.93278 5.01981 -0.0106235 0.0156518 0.0658997
207 18 19 9.73926 6.79404 2.88532 0.0120078 -0.00121056 0.00486841
209 18 1 10.5155 6.72563 4.12985 0.00185828 0.0102479 -0.00848189
213 18 11 11.2219 6.16887 4.41846 0.00196595 0.0448979 0.049955
212 18 11 11.15 7.54825 3.97329 -0.0544506 -0.0387 -0.0145685
593 51 19 15.36 6.54147 19.2333 0.00518686 0.00190266 -0.00640695
211 18 11 9.79308 6.79551 5.02494 0.0262814 0.0148579 -0.0262493
597 51 11 14.4705 7.48314 0.567005 -0.0488602 0.0129516 -0.0158547
335 28 11 15.2509 7.58578 4.50616 -0.0163888 -0.0886492 0.0122098
336 28 11 13.8948 7.50225 3.42038 0.0452167 0.0283457 0.068984
334 28 11 15.2307 6.4843 2.82452 -0.007163 -0.0652695 -0.00116806
592 51 20 17.4463 5.96492 18.791 0.00171004 0.00672534 -0.0151717
332 28 11 19.695 6.82236 3.18522 0.00621675 -0.0150854 0.00711314
331 28 11 18.2726 6.80637 3.8526 -0.0611767 -0.00091004 -0.00446188
329 28 1 18.6549 6.69822 2.83668 0.00913148 0.000847823 -0.000283337
328 28 19 15.5885 8.65063 2.76157 -0.00748012 0.0157202 0.026231
326 28 20 17.3489 9.1976 4.08742 -0.00973413 0.00273345 0.00577336
325 28 9 17.1095 8.50883 3.12232 -0.00984897 -0.0240243 -0.00990164
327 28 19 17.9711 7.84348 2.17111 -0.00891674 -0.0115871 0.00109616
330 28 1 14.9968 7.49849 3.36542 -0.00063285 0.0124412 -0.0112938
733 67 31 0.70797 6.71617 19.6385 0.0118879 0.0150616 -0.00885339
63 6 19 0.330719 10.5511 2.59079 -0.00360008 -2.62951e-05 0.00663801
577 49 11 3.69416 12.3176 3.15476 0.0353249 -0.0192281 0.0248033
576 49 2 4.36204 13.0239 2.7549 -0.00597626 0.00858308 -0.00457643
579 49 11 5.74326 14.6391 3.1527 -0.00721873 -0.0389022 -0.0358992
61 6 9 19.8136 11.4547 3.37087 0.00564256 -0.00733926 -0.01479
580 49 11 4.83029 13.9811 4.67241 -0.0257175 -0.0363515 -0.0394847
578 49 11 3.6722 13.6812 2.41992 0.0119148 0.0310227 -0.00333761
573 49 19 4.80678 11.6882 2.69783 0.0028184 -0.00267054 -0.014146
575 49 2 5.28287 13.7624 3.61245 0.00375675 0.00934523 0.0130585
62 6 20 0.422056 12.5886 3.26151 0.00680128 0.00205093 0.00913063
572 49 20 6.17189 10.5766 3.73329 -0.00931085 -0.0117613 -0.00320326
571 49 9 6.02955 11.6187 3.1628 -0.00218758 0.0052 -0.0052171
574 49 19 6.2789 12.8341 4.06728 -0.00580754 -0.00484924 -0.00948627
84 7 11 9.0236 13.131 2.03492 -0.0681818 -0.0426313 -0.0124251
78 7 1 10.0523 12.927 1.82613 -0.00663038 -0.0101348 -0.00454081
83 7 11 10.6518 13.5611 2.43399 3.82766e-05 -0.00519848 -0.0194432
654 57 19 7.59665 14.9648 4.95258 7.2234e-05 0.0120817 0.0087007
722 64 20 13.119 9.30615 1.52303 -0.0094448 0.0222363 0.0122623
82 7 11 10.2887 11.9243 2.14933 -0.00869379 -0.02215 0.0433833
727 64 11 12.5103 11.7504 4.90304 0.0329188 0.0257024 -0.0326272
726 64 2 12.5722 11.3378 3.84659 0.0140041 -0.00909448 -0.00573126
723 64 19 11.955 10.2687 3.04157 0.000970095 -0.00558674 0.0217834
721 64 9 12.8185 10.3075 2.06902 0.0236365 -0.00418867 0.00182649
728 64 11 11.7301 12.2251 3.53224 0.0184331 -0.0321003 -0.0242187
724 64 19 13.9974 11.1908 2.26184 0.00267387 -0.0133253 -0.00134269
725 64 2 14.1533 11.532 3.59587 -0.013601 -0.00874893 -0.00553239
76 7 19 10.3445 13.3341 0.436724 -0.00470196 -0.0085512 -0.000652607
74 7 20 12.3889 12.5726 0.251119 0.00335873 -0.00958977 0.00646623
659 57 11 8.69154 13.7786 5.68714 -0.0115674 0.00101226 -0.0703731
655 57 2 9.03072 14.6132 4.87006 -0.00984567 -0.000696328 0.00601591
660 57 11 9.02346 14.7187 3.81565 0.0142978 -0.0405927 0.00851905
639 55 11 15.3914 16.3804 5.66064 -0.0257998 0.0259258 -0.0176348
68 6 11 0.0317176 10.7244 0.489053 -0.0075679 0.0253145 0.0331372
65 6 1 19.558 10.4462 1.38715 0.0087099 0.00390584 0.00948167
67 6 11 19.3386 9.48713 1.01096 0.0146587 -0.0146919 0.0150198
729 64 11 13.8658 12.8018 3.5372 0.00585417 0.0656318 0.0191376
383 32 11 18.0917 14.2215 2.24604 0.00234676 -0.00560385 0.0281526
382 32 11 16.5058 14.857 1.98278 -0.061063 -0.0562349 0.0254247
378 32 1 17.3895 15.012 2.23195 -3.55688e-05 0.00880911 -0.00712499
384 32 11 17.4633 15.5164 1.17772 0.0558909 0.0284362 0.00666376
70 6 11 19.0162 12.4724 6.05543 -0.0602446 0.0319146 0.0367333
64 6 19 18.604 11.4047 3.9991 0.00238293 0.0114645 -0.0140103
66 6 1 18.4691 11.68 5.51272 -5.44266e-05 -0.00302103 -0.00328994
54 5 1 1.81388 0.641936 4.15939 0.00387873 0.00444687 -0.00652168
104 9 11 2.38239 15.309 1.7282 -0.0552534 -0.0208683 0.0062969
240 20 11 3.39249 17.8645 2.92679 -0.00496977 -0.0172246 -0.0326231
239 20 11 4.356 19.1954 2.27549 0.00753794 0.0220498 0.00478847
238 20 11 5.31733 18.0327 3.21698 0.0263096 0.027796 0.0308225
234 20 1 4.45894 18.097 2.50806 0.00238525 0.0164548 -0.000943671
232 20 19 4.72423 17.3617 1.37879 -0.00325349 0.0019001 0.0129311
105 9 11 1.8111 13.9038 0.868827 0.00430873 -0.0109577 -0.03024
103 9 11 0.740009 15.3437 1.48469 -0.00578953 -0.0530483 -0.0223217
380 32 11 0.430172 16.6787 3.52012 0.0236569 -0.00931159 -0.018405
377 32 1 19.6324 17.4184 3.54423 0.00442563 -0.00746546 -0.00415962
379 32 11 19.2607 17.8374 4.50478 0.0169373 0.0100479 -0.0303939
60 5 11 1.9463 0.585846 3.0328 -0.0385646 -0.036037 0.0148036
58 5 11 2.75204 0.403244 4.66453 -0.0670713 -0.0196125 0.0288873
242 21 20 2.37042 16.4572 4.60706 0.00244849 -0.00652104 -0.000307527
101 9 1 1.62414 15.0088 1.00037 -0.00239475 0.0109728 -0.00421268
516 43 11 7.04802 0.24598 4.12838 -0.0114556 -0.00285995 0.0419032
652 57 20 6.39317 16.7913 5.23509 0.0082161 0.000803772 -0.0049349
515 43 11 8.12033 19.13 4.94377 0.0691375 -0.00659112 -0.00917738
230 20 20 6.91548 17.0361 1.63727 -0.00962311 0.00779895 0.00392276
229 20 9 5.93882 17.1115 0.781555 0.00013943 0.0103501 -0.00255997
514 43 11 7.68187 19.0838 3.3185 -0.0176902 -0.0297059 0.0286525
510 43 1 7.84969 19.7629 4.06786 -0.00858835 -0.000852879 0.0220723
191 16 11 9.18339 15.9248 1.91886 -0.039292 -0.0033337 -0.00884327
662 58 20 7.08627 13.5731 0.455029 0.000809338 0.00570296 0.00373523
231 20 19 6.21334 17.4093 19.4419 0.000693304 -0.0105142 -0.00519081
73 7 9 11.5576 13.481 0.172898 0.00203422 0.00259501 -0.0106513
182 16 20 12.8831 16.3311 3.9837 0.00424192 0.00178231 -0.0148198
186 16 1 10.1194 16.4165 1.88636 -0.00680439 0.0016527 0.00627276
192 16 11 10.1031 16.6736 0.768373 -0.0160078 0.00664251 -0.0467511
190 16 11 9.94195 17.2264 2.54479 0.017088 -0.0528481 -0.0358251
184 16 19 11.1474 15.8296 2.67788 0.00565708 -0.00824262 0.00346229
181 16 9 12.3676 16.6511 2.94241 -0.000149335 -0.00897081 -0.00299276
183 16 19 13.1396 17.1676 1.86558 -0.00519024 0.000133571 0.00479812
185 16 1 13.9949 16.259 1.29766 -0.0107222 -0.00463371 0.0269439
187 16 11 14.9693 16.2804 1.70998 0.0541498 -0.0554394 -0.034891
188 16 11 13.7835 15.2396 1.68886 0.0316151 -0.0548771 0.0199107
640 55 11 14.6633 14.8618 4.91972 0.0148283 -0.00566963 -0.00793326
376 32 19 17.3153 15.6219 3.50638 0.00624335 -0.0140693 0.00433864
189 16 11 14.0799 16.2824 0.161758 -0.024529 -0.0203568 0.041333
755 72 26 16.1908 18.4256 0.103377 0.00747152 0.000896938 0.00615588
373 32 9 17.5038 17.0084 3.25081 -0.00104008 0.0110563 0.00328759
375 32 19 18.4659 17.5807 2.58536 0.00782735 -0.003691 0.00535021
125 11 1 15.6643 0.088092 3.03706 0.00151881 -0.00623203 0.0201937
127 11 11 16.3831 0.197495 3.81979 0.0122946 0.00412271 0.025243
381 32 11 0.235058 18.3289 3.7368 0.000649524 -0.0227036 0.000460723
129 11 11 16.304 19.662 2.17307 0.0147097 -0.0236276 -0.018304
374 32 20 17.0818 17.5556 4.25127 -0.0120859 0.0101457 -0.00133412
57 5 11 4.92558 4.00211 4.95161 -0.0286285 0.0234498 0.0146806
691 61 9 2.3391 2.42973 7.54078 0.00410782 0.00347187 0.000653482
693 61 19 1.0868 2.9101 7.14012 -0.0121395 0.0096439 -0.00524755
692 61 20 2.67621 1.24618 7.2977 -0.00237651 0.000497479 0.00892089
694 61 19 3.30126 3.47213 7.80282 -0.000124493 0.00639259 0.0047566
698 61 11 1.09301 4.89721 6.113 -0.0678436 -0.0174884 0.0203064
696 61 2 1.18989 4.34382 7.05484 0.000163711 -0.00237875 -0.00146245
695 61 2 2.47361 4.61026 7.77269 0.000191192 0.00786843 -0.00789237
53 5 1 4.71482 2.79425 4.96136 0.0085093 0.00613833 -0.00209315
699 61 11 3.2375 4.9043 7.08477 -0.0144319 -0.0286374 0.0183708
506 43 20 8.12177 2.55619 3.52058 0.00225499 -0.0013899 -0.00666488
511 43 11 9.9649 3.36238 5.86427 0.0440754 0.0603855 0.00943284
512 43 11 9.95821 3.81299 3.96877 -0.000773319 -0.0328894 -0.0280914
55 5 11 4.34398 2.49316 5.90785 -0.038714 0.0685871 0.016406
86 8 20 6.62043 2.04582 7.37563 -3.36782e-05 -0.0059851 -0.00591679
85 8 9 6.40978 1.1945 8.28246 0.00585235 -0.00286118 0.000256217
87 8 19 7.38 1.2685 9.35441 0.00315179 -0.00672601 -0.00286045
481 41 9 7.65632 6.27622 6.46159 -0.00159335 -0.000207903 -0.00119895
482 41 20 8.17879 5.27443 6.26736 0.00108986 0.0083753 0.00301779
483 41 19 8.27238 7.53324 6.42001 -0.00559695 -0.00010101 -0.00382015
91 8 11 5.97902 0.724252 11.0727 -0.0393599 0.038826 0.0520426
509 43 1 10.4041 3.29139 4.82143 0.00676236 0.00478446 -0.00137417
122 11 20 14.4075 1.41881 5.08565 -0.00254905 -0.00868109 -0.012361
556 47 2 11.5089 1.11175 7.52413 0.00797152 0.00210459 -0.00351783
553 47 19 11.9216 0.0316341 6.59697 0.000502822 -0.00711069 0.00321736
558 47 11 11.4264 1.31928 6.40263 0.0788008 -0.0292862 0.00561733
557 47 11 11.9174 2.02787 8.1003 -0.0349986 0.00958613 -0.0104054
364 31 19 13.8572 5.16918 8.28087 0.00924556 0.0136411 0.00511231
361 31 9 12.9295 5.11328 7.17896 -0.0132748 0.00222548 0.00162452
362 31 20 12.0299 4.29215 7.06607 0.00973697 -0.00208154 -0.00401417
370 31 11 13.5146 3.02656 9.31325 0.000342264 -0.00980509 -0.00417728
570 48 11 10.8521 6.26132 10.7887 -0.00682867 -0.0352958 -0.0238875
565 48 2 10.5712 5.34496 10.2203 0.0052398 -0.0176202 0.00774718
560 47 11 10.0658 0.119913 8.89968 -0.0183347 0.0210969 0.0212218
282 24 1 14.3711 19.4297 8.01312 0.00661757 0.00644139 -0.00948389
551 47 9 10.9089 19.055 6.78002 0.0177916 0.0027726 0.0211052
286 24 11 13.6106 19.0012 8.77558 -0.0517632 0.0489871 0.0132661
569 48 11 11.1276 5.07379 9.21991 -0.0359317 -0.00010087 -0.0359485
119 10 11 15.9244 3.20448 5.8319 -0.0250502 -0.0297109 -0.0177181
118 10 11 16.9785 3.89045 6.69581 -0.0266054 -0.022942 0.0521887
114 10 1 16.5041 4.00568 5.77409 -0.00670869 -0.0126353 0.0071391
112 10 19 17.0632 4.40693 4.59525 -0.00191045 -0.0115256 0.00869311
120 10 11 15.5924 4.55675 5.78165 -0.0833041 -0.00237514 0.0256562
110 10 20 19.3053 4.16022 4.50944 -0.000675715 0.00966716 0.00688612
301 26 9 0.457927 0.935357 10.0514 0.00437442 0.000392849 0.0107861
372 31 11 15.0001 3.90202 9.69621 0.0561402 0.00830033 0.0221796
366 31 1 14.1687 3.90301 8.85805 -0.0064836 -0.0117118 0.00260074
371 31 11 14.7925 3.61604 7.96377 0.0309924 -0.0641966 0.010006
280 24 19 15.6804 19.3242 8.34787 0.0125577 -0.0067277 0.00327642
277 24 9 16.5935 0.247729 7.71855 -0.0185234 -0.00205164 -0.0070276
279 24 19 16.8252 0.14391 6.39069 0.00306188 0.000165166 0.00704052
285 24 11 18.5036 1.4246 6.03993 -0.0161691 0.0147071 0.0334237
278 24 20 16.6912 1.42028 8.11435 0.00725065 0.00698432 -0.00132946
310 26 11 18.9221 3.9086 10.2696 -0.0115472 0.00144203 0.00701235
304 26 19 0.158294 2.3067 10.1809 0.0101696 0.00601714 0.00146909
312 26 11 18.7408 2.75582 8.79375 -0.0313445 -0.0251219 -0.00699532
306 26 1 18.9806 2.87639 9.88514 -0.00337512 -0.0113397 -0.00210771
43 4 11 1.9805 10.6519 4.97011 0.0171315 0.00319986 0.00742157
700 61 11 2.2123 5.35874 8.62083 -0.0347416 0.00672653 -0.0284157
697 61 11 0.182266 4.19079 7.58194 0.0424347 0.000420084 -0.0461309
354 30 1 2.25783 9.73188 9.66445 -0.00436858 0.00645527 -0.00961471
492 41 11 4.41515 6.77421 6.36506 0.00513975 0.0578275 -0.0644877
357 30 11 6.12378 7.47544 9.23651 -0.0037761 0.000505029 0.00612426
40 4 19 1.36778 7.4287 5.86558 -0.00198887 0.00180175 -0.00758922
358 30 11 1.46548 10.3458 9.87477 -0.00855295 -0.0197983 -0.00947111
356 30 11 5.78318 6.58199 10.7898 0.0168904 0.0612623 0.0468033
355 30 11 4.81088 7.33228 9.39302 -0.0680153 0.00257966 -0.000543411
484 41 19 6.38848 6.3095 6.7328 -0.0141666 0.00617931 0.0028216
486 41 1 5.52406 7.14927 6.04217 -0.00223603 -0.0110493 0.00224312
485 41 1 9.16485 7.48534 7.53385 -0.00353886 0.0130325 0.00711587
353 30 1 5.53519 7.38125 10.0837 0.0058889 -0.00115686 -0.000205367
487 41 11 9.50169 6.48553 7.98769 0.0309957 0.0330219 -0.00491921
489 41 11 10.0588 7.86052 7.46485 0.0215345 -0.0403736 0.0523212
488 41 11 8.5803 7.93662 8.46163 -0.012048 -0.0256326 -0.0328178
479 40 11 7.82065 11.6671 6.24354 0.0515954 0.0145776 0.0493344
472 40 19 9.13878 10.5749 7.33947 -0.00415117 0.00474544 -0.0145272
568 48 11 8.55349 6.42771 9.62122 0.00919528 -0.0687061 0.0352421
363 31 19 12.9456 5.98877 6.13378 0.00262003 -0.00496116 0.011361
473 40 1 11.9791 10.3555 8.13314 -0.0191517 -0.00582019 -0.0104994
476 40 11 12.9162 9.99102 7.60345 0.0335856 0.0134361 0.0427688
475 40 11 11.7791 9.35547 8.53938 -0.00597822 -0.00833303 0.00165664
365 31 1 13.1271 7.28164 6.50521 0.0123384 0.00484308 -0.0145298
368 31 11 13.1226 8.21395 6.10501 -0.0250602 -0.0127991 -0.0150153
369 31 11 12.1544 7.71312 6.82545 -0.0174465 0.0214326 -0.00561581
367 31 11 13.9 7.3714 7.25238 -0.0142148 0.0290769 0.0680605
548 46 11 16.5724 7.55806 10.6179 0.0203099 -0.019947 -0.0217294
547 46 11 15.304 6.83625 10.9771 0.0341133 -0.0314626 -0.0289514
546 46 2 16.0629 6.74026 10.0712 0.00224828 -0.00785579 -0.00960912
609 52 11 12.6858 9.14996 10.2158 0.0268221 0.0270712 -0.0150953
542 46 20 17.3286 6.56321 6.82978 -0.00445968 -0.0018625 -0.00546816
46 4 11 0.364085 7.95856 7.68162 0.0208715 0.0646995 -0.0194064
48 4 11 0.610313 9.45163 6.42433 -0.00981079 -0.0209374 0.0183742
42 4 1 0.352898 8.3002 6.61815 -0.00465103 0.00711265 -0.0124692
543 46 19 15.8598 6.98155 8.69241 -0.00518317 -0.00344722 0.00958523
47 4 11 19.2185 8.29361 6.23573 -0.000173783 -0.0119501 0.0246347
541 46 9 17.1842 6.59649 8.0471 0.000765601 0.00837236 -0.0019108
6 1 1 16.2867 9.6395 7.75406 0.00175514 0.00955028 0.00892958
12 1 11 16.024 8.82121 6.91356 -0.016775 -0.0072598 -0.0163377
1 1 9 18.3023 9.83114 8.9678 -0.000263002 0.00139838 -0.0299968
2 1 20 18.3326 9.1559 10.0006 -1.49744e-05 0.00472343 0.00121923
11 1 11 15.5777 9.5168 8.64242 -0.0205802 -0.0145733 -0.0645481
248 21 11 2.14108 13.8736 5.17398 0.0101002 -0.0330671 -0.0160531
360 30 11 2.00239 8.697 9.33793 0.0101743 0.0591206 0.0708735
245 21 1 1.26571 14.3575 5.60279 -0.0186402 0.00191556 0.000605603
247 21 11 0.950453 13.6494 6.40973 0.0258245 0.0143869 -0.011548
612 53 20 2.86972 12.0211 6.94662 0.00367828 0.00433423 -0.00563405
249 21 11 0.551562 14.9532 5.08755 0.0349895 -0.00887865 -0.0465589
613 53 19 4.01753 13.9009 7.28266 -0.0176659 1.24211e-05 -0.00553104
582 50 20 0.165731 14.541 10.2286 0.00122412 -0.00515112 -0.00047796
581 50 9 1.15121 14.1968 9.76025 -0.00157379 0.0103525 -0.00271301
584 50 19 1.7292 12.9619 10.1859 -0.00542279 0.0126927 -0.00316447
616 53 2 5.4752 14.1936 7.41038 0.00495572 0.000717662 0.00330382
478 40 11 7.30637 10.0597 7.18379 -0.00344917 0.0409653 -0.00936051
474 40 1 8.03253 10.4793 6.50881 0.00929366 0.00391997 -0.0103687
480 40 11 7.89603 9.80653 5.52035 -0.00454921 -0.0379632 0.0108157
611 53 9 4.00925 12.4636 7.06823 -0.00213433 0.01133 0.00124784
615 53 2 6.16039 12.9367 7.16628 -0.00295115 -0.00539055 0.0060081
614 53 19 5.35921 11.9171 7.04685 -0.00772572 0.0109619 -0.000553779
620 53 11 6.78039 12.4237 7.894 0.0264972 0.00483482 -0.0215016
619 53 11 6.67603 13.0249 6.33907 0.0103777 -0.0127438 0.0546905
730 64 11 14.7284 11.1631 4.49237 0.0937317 0.047894 -0.0133949
469 40 9 10.3059 10.6356 6.71598 -0.014145 -0.00447433 -0.0129817
471 40 19 11.2961 11.3575 7.48959 -0.00184978 0.00438533 -0.0131033
477 40 11 12.7444 11.002 8.65821 0.0149417 -0.0529842 -0.0358361
470 40 20 10.6907 9.89027 5.76861 -0.000270156 -0.00488143 0.000119073
631 55 9 14.299 13.5707 7.0601 -0.00142877 -0.0170802 -0.0160456
634 55 19 14.9606 14.0412 5.92107 0.0169885 -0.00401164 -0.0140067
632 55 20 13.9042 12.3963 7.17731 0.00527952 -0.00174708 0.00798088
633 55 19 13.4028 14.5731 7.69755 -0.00480359 0.00259736 -0.00620328
152 13 11 11.3222 13.8805 12.27 -0.0269106 0.0235002 0.000311224
4 1 19 17.7993 9.38144 7.82978 -0.0231947 -0.018256 0.00838038
10 1 11 16.2217 10.713 7.50067 0.0305382 -0.0290738 -0.0161159
71 6 11 18.4192 10.7952 5.96943 0.0842689 -0.0015978 -0.0410744
72 6 11 17.5503 12.3237 5.18441 0.0330947 -0.0741895 0.0132516
3 1 19 18.5591 11.2349 9.02811 -0.00630168 -0.00157616 0.0184143
8 1 11 17.6809 12.9832 8.45234 0.00817875 -0.0170158 0.0354815
682 60 20 18.1649 14.8698 6.0376 0.00627571 0.00923106 -0.00518316
243 21 19 2.04184 15.1836 6.30438 0.00504621 0.00700805 -0.00472261
241 21 9 2.24796 16.3686 5.78261 -0.0155093 0.0199328 -0.00258788
244 21 19 2.57771 17.4894 6.37784 0.0105413 0.00440956 0.00569852
251 21 11 1.74526 17.3014 8.33005 -0.0272672 -0.00921031 -0.031067
246 21 1 1.59645 17.9083 7.31143 0.0059723 -0.0127387 0.0105756
252 21 11 0.512447 18.1111 7.13184 -0.0196495 0.00979464 -0.0207124
250 21 11 2.05567 18.8081 7.72927 -0.0336863 0.0640257 0.053318
524 44 11 18.5668 18.3359 11.0823 -0.0353195 0.0460354 0.0462257
88 8 19 5.99622 19.9332 8.17114 -0.000494344 0.00223378 -0.00281399
523 44 11 19.848 18.5627 12.3052 0.0123514 0.0217145 -0.00651617
521 44 1 19.4181 18.019 11.4618 -0.0184875 -0.00315952 -0.00376129
651 57 9 7.51492 16.4219 5.00313 0.00740702 -0.0146515 -1.67687e-05
653 57 19 8.7046 16.9763 5.34668 0.0029819 0.00324871 -0.00183153
94 8 11 4.94582 0.407116 6.28614 -0.0133853 -0.0373669 -0.018679
617 53 11 5.123 14.2988 8.41258 0.0291769 -0.00882276 0.0382124
656 57 2 9.53542 15.8955 5.50367 -0.0112296 0.00441792 0.00745708
95 8 11 5.40937 19.0458 6.43307 -0.0224831 -0.011103 0.0123568
96 8 11 4.28188 19.1464 7.65714 0.00493998 0.0229906 0.0116266
90 8 1 5.04438 19.7225 7.14217 0.00948886 0.00596382 0.000958003
618 53 11 5.29309 14.8492 6.59308 0.0047458 -0.0137173 -0.00749417
503 42 11 6.45015 17.3061 7.53449 -0.0107016 0.0311421 -0.0265219
498 42 1 7.28689 17.2291 8.13644 0.00198343 -0.00294017 -0.00240513
502 42 11 7.06588 17.5974 9.13782 -0.0360638 0.0488945 -0.0115493
554 47 19 10.0753 19.3102 7.84291 -0.0099022 -0.00164942 0.0057471
493 42 9 8.51224 15.8585 9.27399 0.0108874 -0.00234707 -0.00414118
504 42 11 8.06158 17.772 7.53066 -0.0372353 0.0197575 0.00301598
496 42 19 7.61998 15.8717 8.29481 0.00922536 0.00317421 0.00490566
495 42 19 9.47076 16.7166 9.51294 0.00641586 -0.0129386 -0.0128989
555 47 2 10.0502 0.790303 8.01392 0.00709544 0.00209844 -0.00197174
559 47 11 9.49896 1.7251 7.8636 0.0205617 0.0275886 0.0240575
288 24 11 13.8555 0.348273 7.72707 -0.000897921 0.0589968 0.0165499
287 24 11 14.438 18.5936 7.18991 0.0257257 -0.0138519 0.036121
636 55 2 13.748 15.7208 6.85782 -0.00701864 -0.00390291 0.000642452
635 55 2 14.8202 15.4572 5.86489 -0.00309823 0.0123628 -0.0143681
657 57 11 10.6065 15.98 5.28176 -0.0194574 0.0929809 -0.0306868
658 57 11 9.40345 15.9685 6.58395 0.0135619 -0.000776338 -0.00126567
500 42 11 11.2889 15.2345 9.63354 -0.0693574 -0.00348955 0.00172752
638 55 11 12.723 15.7056 6.37095 0.0386847 -0.0308835 -0.0138304
637 55 11 13.872 16.6801 7.15858 0.0299267 -0.00642793 0.0234831
552 47 20 10.8461 17.8594 6.64917 -0.000590564 0.00107849 -0.00256589
497 42 1 10.7749 16.2366 9.39693 -0.0083592 0.0140884 0.0107584
499 42 11 11.2893 16.8146 10.0334 0.0147582 -0.0104194 0.000986107
501 42 11 10.8975 16.3154 8.34837 -0.00419464 -0.0430306 -0.0171801
703 62 19 12.9217 18.4536 12.1504 -0.0165271 -0.0086936 0.0133784
284 24 11 18.1485 0.0642171 5.11918 0.0244133 0.0115196 -0.00881344
281 24 1 18.1828 0.398248 6.16255 0.00591745 -0.00315546 -0.0101903
283 24 11 18.8834 19.7847 6.65816 -0.00934484 -0.0394965 -0.0232365
302 26 20 19.7909 0.378954 9.123 -0.00589941 -0.00280338 0.00271516
683 60 19 17.502 14.9417 8.11483 0.00559213 0.0268223 -0.00697259
681 60 9 18.2028 15.4678 6.97443 -0.00279735 0.0092578 -0.000987722
686 60 2 17.3174 16.0962 8.85344 0.00729179 0.0157392 0.00798821
685 60 2 18.4833 16.9708 8.36104 -0.00428045 0.00783784 0.00678556
690 60 11 18.1841 17.937 8.6561 0.00651287 0.0298163 0.00045947
688 60 11 16.714 16.7696 9.48708 0.0536195 -0.0207907 -0.0181945
687 60 11 17.8564 15.4605 9.53268 -0.0242802 -0.00782359 -0.0255187
684 60 19 19.2782 16.1365 7.42541 0.0179906 -0.00444837 -0.00545955
689 60 11 19.345 16.8392 9.00798 -0.000228267 0.058851 -0.0171789
525 44 11 0.285363 17.8831 10.783 0.0103631 -0.00561196 0.0482597
303 26 19 1.70891 0.418639 10.6487 0.00222261 -0.00580099 0.000835295
308 26 11 2.56385 2.32028 10.9313 0.00946909 -0.0534774 -0.0257293
305 26 1 2.70082 1.30272 10.4944 -0.00938154 -0.00455524 -0.00067736
309 26 11 3.5646 0.97496 11.0968 0.00980121 -0.00466412 0.0214526
307 26 11 3.11384 1.2989 9.53839 0.0573608 0.00752098 -0.00947643
226 19 11 2.42583 5.82652 10.9377 0.0139217 -0.0511381 -0.0364392
224 19 11 6.05811 3.95349 12.9233 -0.00938788 -0.024372 0.0711949
622 54 20 0.499252 1.11686 13.4565 0.00230599 -0.0104655 0.0049305
624 54 19 0.414077 3.16328 13.9938 0.0095662 -0.00616559 -0.00598756
219 19 19 4.35615 3.68318 12.2894 -0.00872204 -0.00832355 0.00219852
221 19 1 5.64106 3.70395 11.9119 -0.0146409 0.0040004 -0.002612
225 19 11 5.9483 4.414 11.2989 0.0268933 0.0077793 -0.0240917
223 19 11 5.89522 2.6791 11.9442 -0.024908 0.0135129 0.0399941
621 54 9 0.136015 1.87078 14.2924 0.00495997 -0.00122061 0.00123623
220 19 19 2.55044 5.0612 12.8291 0.000352518 -0.000449356 0.0155465
217 19 9 3.90101 4.96799 12.6025 -0.00748476 0.00733025 0.00758441
276 23 11 2.39686 6.43803 17.7942 0.0593796 0.00684289 0.040394
89 8 1 7.05449 0.627097 10.5793 -0.00808514 0.00577785 0.0122248
561 48 9 9.20544 3.75469 10.4654 0.00101975 0.0134763 -0.0117681
563 48 19 8.65283 4.61188 9.70641 0.00503135 -0.00436333 0.00509492
93 8 11 6.99085 19.6253 10.63 0.0123666 -0.0204028 0.040033
416 35 11 6.65736 2.23983 14.1953 0.0190738 -0.0474705 0.0361992
413 35 1 6.76697 1.21496 14.2185 -0.00461235 -0.0100876 0.00324862
415 35 11 7.278 1.07933 13.3479 0.000517718 -0.0327899 0.0028095
417 35 11 7.50223 1.2567 14.9819 -0.0210787 -0.0342469 0.0257936
562 48 20 8.80247 2.71798 11.0341 0.00442093 -0.00977753 -0.00470224
735 69 31 4.80017 5.92485 14.7959 0.00480158 -0.0131948 -0.0256793
564 48 19 10.522 4.0375 10.8653 0.0173486 -0.0160131 0.00339628
539 45 11 14.0615 4.90815 12.1403 0.00680563 -0.0092717 0.00730002
705 62 2 10.6203 18.1446 12.5943 -0.00971757 0.00595321 0.0181688
709 62 11 10.4964 18.9156 13.349 0.0331886 -0.00369543 0.00991213
168 14 11 11.9834 2.36118 16.6688 -0.0143296 -0.00582417 -0.0434745
293 25 1 10.9162 4.44648 13.7741 0.00698968 0.000482004 0.00959494
295 25 11 11.1201 5.14899 12.9846 -0.00525411 -0.040277 0.0214412
297 25 11 11.886 4.39153 14.3204 0.00886744 0.0440638 0.00144013
704 62 19 10.7044 19.1047 11.7549 -0.003015 -0.0126225 0.000459869
566 48 2 9.12605 5.8111 10.2704 -0.000273206 0.00974417 -0.00286908
702 62 20 12.3852 19.8102 10.6025 -0.0122721 0.00932681 -0.0111092
701 62 9 12.1618 19.521 11.6559 -0.0116959 0.00734501 0.00798418
167 14 11 11.5185 0.656716 16.9341 0.0177444 0.0295591 0.0617273
311 26 11 18.0207 2.55641 10.2602 -0.0193319 0.0174022 -0.00981362
534 45 1 14.753 4.37491 12.7132 0.00229864 0.000328194 0.00920338
540 45 11 14.1619 3.66713 13.2654 0.00830157 0.03863 0.0309356
538 45 11 15.5578 5.06242 13.2063 -0.00306692 -0.00460266 0.00811905
529 45 9 15.5837 2.38467 11.9663 0.00656933 -0.0111345 -0.0015937
530 45 20 14.6226 1.89959 11.2271 0.00966978 0.0052298 -0.00119711
532 45 19 15.5831 3.71994 11.9122 -0.00213063 0.00839887 -0.00140875
531 45 19 16.7376 1.45496 12.1446 -0.0121146 -0.00149698 -0.0060668
533 45 1 16.7326 0.265909 11.1982 -0.00282111 -0.0108119 0.00215019
627 54 11 17.3207 2.88435 14.4125 -0.00320154 -0.0768733 0.0245923
536 45 11 16.9249 0.662003 10.1884 -0.0329966 -0.0497481 -0.0285713
549 46 11 16.6971 4.83403 10.1231 0.0361741 0.00101696 0.0113474
630 54 11 18.6876 4.02045 13.1473 -0.0206143 0.0049661 -0.00297628
537 45 11 17.6084 19.7973 11.4968 0.0109474 0.0322774 -0.00886198
535 45 11 16.0682 19.4483 11.1608 0.0151865 -0.00787718 -0.0422284
625 54 2 19.091 3.68609 14.0889 -0.000533387 0.00416457 -0.00459371
629 54 11 19.6276 4.42715 14.5858 -0.00697855 -0.0548546 -0.0250077
349 30 9 4.57984 9.59139 10.1203 -0.0147549 0.00912254 0.0299478
351 30 19 5.55941 8.7781 10.6939 -0.00870979 -0.00975528 -0.013963
228 19 11 0.709042 5.58262 11.6923 5.27885e-05 -0.0170961 -0.0438133
222 19 1 1.76214 5.40595 11.7062 0.00276712 0.0136438 -0.00655384
352 30 19 3.26432 9.64548 10.6084 -0.00107053 0.00475498 -0.00837513
227 19 11 1.66331 4.53047 11.2962 0.00060545 0.0134233 -0.071027
218 19 20 4.53144 5.98714 12.9908 -0.000560708 0.00532814 -0.00735179
427 36 11 1.24158 9.40992 14.0929 -0.040308 0.0140484 0.038764
429 36 11 0.761497 9.09757 12.291 -0.104467 0.022981 0.0674808
428 36 11 2.19147 8.24567 13.1349 -0.027727 -0.0492292 0.00858608
425 36 1 1.21889 8.69906 13.2447 0.00857111 0.00235891 -0.00842724
347 29 11 6.23998 9.77991 15.0262 0.0607311 -0.0066183 -0.0072787
423 36 19 0.692159 7.45211 13.874 0.0036326 0.00492097 0.000938511
290 25 20 7.73642 5.74993 14.105 -0.0124354 0.011204 0.00866538
289 25 9 8.74339 4.91312 14.1096 0.011539 -0.00166887 0.00933168
342 29 1 6.31763 9.13183 14.1319 0.000235105 0.012598 -0.00826011
348 29 11 6.89138 8.13733 14.2116 0.0393962 -0.0492097 -0.0608486
346 29 11 5.62383 8.60827 13.446 0.0298976 -0.0606287 -0.00169379
337 29 9 8.79237 9.79875 13.805 0.00137305 -0.0043204 -0.00995713
338 29 20 9.26495 8.81162 14.5007 0.015406 0.010942 0.00559254
340 29 19 7.35229 9.96119 13.3914 -0.00137567 -0.000886059 -0.00377004
567 48 11 9.10708 6.1359 11.3941 0.00208073 -0.0518207 0.000370223
296 25 11 10.668 3.39298 13.2907 0.0135939 0.0149571 -0.0279131
291 25 19 10.0177 5.3984 14.4097 -0.00565864 -0.010091 -0.0108921
603 52 19 11.2935 7.88943 12.5571 -0.0135513 -0.00487794 0.0098754
601 52 9 12.6508 7.61125 12.2139 -0.00532016 -0.000409212 -0.0186709
605 52 2 11.9975 9.27553 11.1007 0.00137522 0.0106909 0.00257873
604 52 19 13.0364 8.36337 11.1808 0.024735 -0.00388291 0.00277923
608 52 11 10.1353 8.14962 10.5565 0.0289713 -0.000317567 -0.054401
606 52 2 10.6798 8.4573 11.3955 0.00157278 0.00176401 0.00537509
607 52 11 9.80589 8.88484 11.6803 -0.0104473 -0.0189051 0.0148132
610 52 11 12.0014 10.0831 11.8005 -0.00925745 -0.0182412 0.0265383
602 52 20 13.2292 6.69574 12.8947 0.00872768 -0.00429258 0.00749443
550 46 11 17.4407 5.76479 11.2509 0.00101289 0.0577618 -0.0169408
545 46 2 17.1188 5.75616 10.192 0.00259321 0.00381243 -0.00326572
544 46 19 17.9035 5.85999 9.00252 -0.00594281 -0.0115584 -0.00864757
422 36 20 18.9819 6.69667 12.6577 0.00658169 0.00327754 0.0118259
421 36 9 19.3931 7.29084 13.691 0.0163342 -0.00595244 -0.00404923
426 36 1 17.5726 6.84127 14.9428 -0.00738051 -0.00491482 0.0206628
430 36 11 16.7702 7.16127 15.5206 -0.0023741 0.00214885 -0.0509322
424 36 19 18.2229 7.87811 14.3592 -0.0144103 0.00524707 -0.0052517
431 36 11 18.4183 6.3416 15.6993 -0.0490229 -0.0142642 -0.0326508
359 30 11 2.63715 10.344 8.85264 0.000982882 -0.0254308 -0.0081589
590 50 11 3.2508 12.2003 10.1031 0.0031598 0.0285085 -0.00358599
589 50 11 2.42219 13.311 11.4165 -0.0114559 0.0285813 0.0165884
350 30 20 4.92383 9.772 8.89584 -0.00367114 8.41928e-06 -0.0074412
583 50 19 2.0719 15.152 9.36122 -0.0160438 0.0162996 -0.00557536
585 50 2 2.97118 13.2459 10.5305 -0.00597066 -0.00781284 0.00107903
588 50 11 4.21057 15.0137 10.2857 0.0366499 -0.0719329 0.0306068
586 50 2 3.21693 14.6192 10.0242 0.00131363 -0.00500775 -0.00965669
587 50 11 2.61615 15.5687 10.1786 -0.0138559 0.0337275 -0.00342702
318 27 1 2.14224 12.5932 14.6561 0.0158743 -0.0106528 0.000906369
323 27 11 1.93435 13.4877 13.9202 -0.0349069 -0.0367792 -0.0559805
316 27 19 3.64293 12.202 14.5808 -0.00553005 0.0140468 -6.6997e-05
322 27 11 1.41991 11.7672 14.4201 0.0204892 0.0265887 -0.00855611
314 27 20 4.76989 11.8674 12.8153 -0.0042187 0.010301 -2.21364e-05
313 27 9 4.32662 12.8137 13.465 -0.0105983 -0.00439487 0.0059984
315 27 19 4.85383 14.1686 13.2867 -0.00519533 -0.00206501 0.011801
154 13 11 7.05028 11.3093 11.2357 0.018206 -0.0469683 -0.00159554
339 29 19 9.50421 10.8586 13.3279 -0.00877342 0.00531714 -0.00564732
150 13 1 7.22449 12.2161 10.7295 -0.00698836 0.0110093 -0.00251374
148 13 19 8.09969 12.277 9.67031 -0.00529244 -0.00088793 0.00744475
146 13 20 9.58111 10.9772 10.5746 0.00831455 -0.0130369 -0.000352561
156 13 11 7.12234 12.9508 11.5528 -0.0739176 0.00647469 0.0332785
155 13 11 6.38265 12.4122 10.1585 0.0421611 0.00825312 0.0229181
341 29 1 10.12 11.5244 14.3426 -0.0015821 0.0160816 -0.0174222
456 38 11 6.29888 13.5827 15.2642 0.00697075 0.0492152 0.0205636
445 38 9 8.58 14.8098 14.9791 0.0111503 0.00229378 0.00450834
345 29 11 9.894 11.3514 15.2904 0.0197095 0.0163069 0.010897
452 38 11 11.233 14.1446 16.0447 -0.0225845 0.0164373 0.0148991
454 38 11 7.12483 12.0618 15.773 0.0304045 0.0286356 -0.012518
450 38 1 7.21363 13.0425 15.1418 0.0123947 -0.00424083 0.0053359
147 13 19 9.78894 13.2676 10.8291 0.000471203 0.00316418 -0.00673189
145 13 9 9.43091 12.0964 10.0789 0.0106443 0.00921431 -0.00154153
343 29 11 10.505 12.5103 14.1243 0.0520596 -0.0112948 -0.10535
36 3 11 14.418 10.5754 13.7307 -0.00277401 0.0150848 -0.00527883
149 13 1 11.1177 13.1207 11.6152 -0.00654047 -0.0156771 0.000954535
153 13 11 11.4713 12.1219 11.8103 0.0691378 0.0716371 0.0161583
151 13 11 11.9045 13.142 10.844 0.00942672 -0.0160069 0.000122799
35 3 11 13.856 11.6391 12.0224 -0.0250167 -0.00216864 -0.0141202
30 3 1 14.6577 11.402 12.8007 -0.000492713 -0.00561819 0.005391
34 3 11 14.7735 12.4761 13.0609 -0.0167948 -0.0260717 -0.0119883
26 3 20 15.6909 8.64312 12.8883 0.00872948 0.000228926 0.00148026
9 1 11 16.5174 11.8854 9.238 0.0935133 -0.0330732 -0.117242
5 1 1 17.4993 12.2795 9.2401 0.00646575 0.00443454 0.000263264
7 1 11 17.5406 12.6444 10.2439 0.00522638 0.0300034 -0.00931596
25 3 9 16.1995 9.67559 12.5273 -0.00691938 -0.00422947 -0.00625008
32 3 11 18.5076 10.7156 14.0733 0.0139082 0.0584586 -0.0520571
31 3 11 17.7485 11.5089 12.6224 -0.0284679 -0.0108018 0.0519977
27 3 19 17.6258 9.54281 12.4353 0.00531701 -0.012059 0.0166888
29 3 1 18.3541 10.6868 12.9913 -0.0111714 0.000827032 -0.00139632
33 3 11 19.3305 10.9135 12.6447 -0.0335931 -0.071642 0.0671583
28 3 19 15.7341 10.887 11.9236 0.00549265 -0.000781044 0.0093465
526 44 11 19.4259 13.5726 12.9269 -0.0191208 0.0490509 0.0474762
522 44 1 18.7975 14.4138 13.1651 -0.00549579 -0.00368051 0.0150809
262 22 11 13.9961 14.4714 12.7341 -0.0730734 -0.00921417 -0.00510629
527 44 11 18.2502 14.1244 13.951 0.0405533 -0.0361021 0.0146148
434 37 20 4.63109 17.5562 10.6866 0.00331854 0.003611 -0.00408684
317 27 1 3.88964 15.0627 13.8575 -0.0122896 0.0017783 -0.00453713
321 27 11 4.13271 16.1686 13.81 -0.0263172 -0.00838656 0.0223065
443 37 11 2.91733 0.0226747 12.7248 0.000600674 -0.0122338 0.0562762
444 37 11 2.08742 18.8506 13.6159 0.0391792 -0.0242058 0.00377399
438 37 1 2.96826 19.0728 13.1015 -0.0103132 0.00664214 -0.00799527
442 37 11 3.64241 18.9472 13.906 0.0144741 0.00548113 -0.00263984
436 37 19 3.18696 18.057 12.2249 0.00733026 -0.00879947 -0.00460142
433 37 9 4.57325 18.1704 11.7137 -0.00776868 0.00393812 0.00520837
319 27 11 3.00963 15.3146 13.3262 0.0389172 -0.00362824 0.00170819
519 44 19 19.2334 16.7887 11.9642 0.00101531 0.000180867 0.0075315
92 8 11 7.88738 0.546787 11.3328 0.0136519 0.0252472 0.0524452
494 42 20 8.14805 15.2981 10.3796 -0.00787288 0.0211793 -0.00598952
447 38 19 9.89932 14.9573 14.51 0.0164095 0.0128455 0.0115674
435 37 19 5.64082 18.0982 12.6007 0.011855 0.00340967 -0.00159153
441 37 11 7.50865 17.6352 11.923 0.00595118 0.0184705 0.0180375
437 37 1 6.5863 17.1794 12.2966 -0.0183949 -0.00730967 0.00348927
439 37 11 6.83866 16.6781 13.241 0.0204846 0.0214238 -0.0266154
440 37 11 6.06939 16.3238 11.6729 -0.0371512 -0.0202965 -0.00670081
453 38 11 11.7418 15.7015 15.1855 -0.0112651 0.0358293 -0.0281006
710 62 11 10.0212 17.671 13.262 -0.028044 0.0149814 -0.0583003
449 38 1 11.0865 14.9225 15.2365 -0.0175951 -0.0188468 -0.00282769
451 38 11 11.6247 14.403 14.4284 0.050528 -0.00245675 -0.00167975
708 62 11 12.089 17.1256 13.5829 -0.0316133 -0.0475811 -0.020311
707 62 11 12.0568 16.7424 11.9928 -0.0111685 -0.000134555 0.0612605
706 62 2 12.0936 17.5811 12.6624 0.00119112 -0.0142692 0.000776314
157 14 9 13.8035 19.8905 15.5617 -0.000545419 -0.00735303 0.0047173
158 14 20 12.9923 18.9729 15.1372 -0.00860334 0.00270747 0.00833518
165 14 11 14.9166 18.4262 14.4792 -0.0181594 -0.0425522 0.0128866
164 14 11 14.7823 19.4412 12.9589 0.0556306 -0.00630221 -0.0142656
263 22 11 14.9112 15.6267 11.9559 -0.0595062 -0.0112028 0.0513359
528 44 11 19.4429 15.1275 13.6782 0.00315376 -0.0308441 -0.0211832
408 34 11 0.132991 19.3934 15.9525 -0.0163456 0.00824888 0.0277619
256 22 19 14.5753 16.064 13.8967 0.00212322 -0.00149913 -0.00763193
264 22 11 15.5253 14.5461 13.3608 0.00549355 0.0269018 -0.0589257
258 22 1 14.7448 15.0936 12.9115 0.00633705 -0.0117812 0.00189668
517 44 9 17.9992 16.3552 12.1695 0.0137396 -0.00657144 0.0157289
520 44 19 17.9157 14.9959 12.2971 0.00547073 0.00230895 0.00238592
518 44 20 17.0302 17.0646 12.3103 -0.000622724 -0.00804743 0.0021816
159 14 19 14.6366 0.441024 14.7119 0.00542478 0.00583447 0.00430648
161 14 1 15.2148 19.4053 13.9425 0.0014887 0.00128782 0.000437408
163 14 11 16.288 19.5333 13.7759 0.00158669 -0.0168527 -0.0289033
420 35 11 2.25128 0.43965 15.8597 0.00729069 0.000314799 0.021064
144 12 11 3.72658 1.37539 19.0706 -0.0419114 -0.0176306 0.0677999
138 12 1 3.99898 1.16686 0.0990295 -0.00809209 0.0059062 0.000665296
419 35 11 2.30621 2.3278 16.1552 0.00871998 0.00933517 -0.0037798
414 35 1 2.93536 1.3471 16.1394 0.00551147 -0.00498603 0.00387764
418 35 11 3.50425 1.28571 17.0031 -0.00700193 0.0069307 -0.0512109
412 35 19 3.99362 1.55577 15.2522 0.00216761 0.00296502 -0.00857099
647 56 11 4.44416 5.27031 18.8759 0.0175859 0.00333306 -0.0283199
646 56 2 4.50355 4.28583 18.5301 -0.0100729 0.00391135 -0.00750975
643 56 19 4.08951 4.16447 17.1985 0.00557099 0.00113329 -0.000944762
749 71 26 0.531669 3.13585 17.673 0.00662941 -0.000463849 -0.0109408
409 35 9 5.15661 0.59328 15.4059 0.00506188 -0.00805418 0.00550421
731 65 31 18.504 1.32308 18.361 -0.00198747 0.000978513 0.0192495
747 71 26 19.9093 1.80156 19.2531 -0.00135362 0.00357436 -0.00601473
743 71 27 0.189029 3.36185 19.2013 -0.00377148 -0.00608248 0.00431386
648 56 11 3.59078 3.65649 18.4612 0.0515335 0.00302795 0.016865
744 71 26 1.6707 3.20529 19.6118 0.00319685 0.00144823 -0.00404681
410 35 20 5.12573 19.7312 16.2992 -0.0106299 0.0115014 -0.000422627
300 25 11 9.70301 4.23 16.3702 -0.0171461 0.0367116 0.0233327
294 25 1 9.21596 3.40373 15.9078 -0.00997093 -0.00694638 -0.0111404
292 25 19 8.56204 3.73074 14.671 -0.00194516 0.00303893 -0.000831748
642 56 20 5.32348 4.60163 15.3127 0.00410771 0.00157996 -0.00490918
298 25 11 8.46828 3.12153 16.7112 0.0206916 0.0638688 -0.00346458
760 73 26 8.97669 3.09649 19.1105 -0.00740001 0.00251727 0.00845423
763 73 26 9.14716 0.701649 18.56 -0.0161323 0.00231225 -0.00458197
757 73 27 9.68232 1.8326 19.5986 0.00665078 -0.0145678 0.00385154
641 56 9 5.20481 4.01646 16.3083 -0.00675501 0.00130488 0.00106971
299 25 11 10.0299 2.66555 16.0531 0.00960449 0.0252925 0.021711
650 56 11 6.26495 2.78634 18.1907 -0.0142727 -0.0146076 -0.0145238
645 56 2 5.98063 3.9189 18.4869 -0.0101656 -0.0123802 -0.0127924
644 56 19 6.38136 3.55634 17.1681 -0.00742484 -0.00451859 -0.0100499
466 39 11 9.79128 19.7395 15.7178 0.0212867 0.0504365 0.00675161
468 39 11 8.47812 19.0152 16.4255 -0.0491506 -0.00676063 -0.0242218
162 14 1 12.0884 1.28947 16.4325 0.0218661 0.0134945 0.0013263
166 14 11 11.5952 1.28473 15.5544 -0.0225742 0.017427 -0.0255763
160 14 19 13.2591 0.61715 16.689 0.00248878 0.00306771 -0.00696065
758 73 26 11.0166 1.99377 18.8857 0.00248551 -0.00169329 -0.00543
194 17 20 13.9058 4.55418 17.7065 -0.00471942 6.48012e-05 -0.00711129
196 17 19 14.6051 5.68015 15.8979 0.00968236 0.0075167 0.00308855
195 17 19 14.8874 3.46842 15.8109 0.0127731 0.00819514 -0.00426012
193 17 9 14.3 4.50942 16.5179 0.00641284 -0.0070171 0.00511269
732 66 31 11.9541 2.0862 0.510335 -0.00152043 0.00844161 0.0040352
201 17 11 16.0718 3.13075 17.3448 -0.00952994 -0.00401388 -0.0608399
171 15 19 15.0863 3.06776 0.0244399 -0.00344912 0.00154239 0.00338423
173 15 1 16.3058 3.12175 0.67916 -0.0169407 0.00524136 0.00691456
177 15 11 16.9183 3.94095 0.305082 0.00898251 -0.0226392 -0.0136727
176 15 11 16.781 2.10516 0.505078 -0.000477251 0.0288819 0.0491532
623 54 19 18.92 1.67066 15.0081 -0.00106603 -0.00184426 0.00528613
626 54 2 18.1719 2.8524 15.0265 -0.0159761 -0.00495611 -0.00941781
628 54 11 17.8432 3.09797 16.0747 -0.00820323 0.0325651 0.00992231
748 71 26 19.7327 3.6589 0.67184 -0.00629833 -0.00614834 -0.00574219
200 17 11 14.6783 2.31622 17.7871 -0.0401585 -0.00724145 -0.00872731
199 17 11 15.8346 1.87599 16.2552 -0.0023156 -0.00449691 0.02322
753 72 26 17.4286 0.0693872 18.9377 0.0029738 -0.00360044 0.00203631
197 17 1 15.3205 2.52173 16.7794 0.0138799 0.0030393 0.00661527
745 71 26 18.7344 3.50338 18.8107 -0.00315052 -0.000762441 0.00493597
672 59 20 1.51769 8.0107 0.386411 -0.000706862 -0.00458216 -0.00730208
671 59 9 2.62362 8.09028 0.858577 0.00771957 -0.0183185 -0.00576891
673 59 19 3.48366 7.31075 0.296331 -0.00116644 0.00626256 0.01145
676 59 2 4.72158 7.37001 0.922779 -0.0117499 -0.00048447 -0.00186834
678 59 11 4.87956 7.75272 19.8652 0.046851 0.0253807 0.0363573
275 23 11 1.02563 7.11618 16.6477 0.0267115 -0.0684233 -0.0536918
270 23 1 1.80186 6.44292 16.899 -0.00425585 -0.0134576 0.00977245
274 23 11 1.35257 5.39201 17.0578 0.00554601 -0.00172655 0.0157628
268 23 19 2.71413 6.24397 15.9123 0.00330467 0.013307 0.00492504
265 23 9 3.44798 7.49431 16.0316 -0.0176721 0.00595992 0.00421242
266 23 20 3.02781 8.43002 15.3317 0.00370558 0.00853536 0.00418287
768 74 26 0.393414 9.23716 18.3987 -0.00737359 0.00863769 0.0050246
766 74 26 19.0814 9.21006 16.7431 0.00148611 -0.00845299 0.010447
267 23 19 4.82483 7.22779 15.6882 -0.00258593 0.00449999 -0.00103706
746 71 26 0.377257 4.99582 19.2358 0.00297814 -0.0172643 -0.00192589
649 56 11 6.58509 4.59492 17.8885 -0.0222405 0.0645191 -0.00750178
713 63 19 9.68398 7.09787 19.7574 0.00289951 -0.00644194 -0.00388069
716 63 2 10.1784 7.44418 18.4313 -0.0137953 0.0135235 0.00829637
717 63 11 9.42719 8.1401 17.9531 -0.0343324 -0.0389847 0.00857547
677 59 11 5.57877 6.87579 1.02955 -0.0104956 0.0708768 0.00405626
269 23 1 5.88666 7.36336 16.514 0.0137212 0.00330093 0.0122229
271 23 11 5.7751 8.46042 16.666 0.0313963 0.0361935 0.0305338
272 23 11 6.89257 6.90575 16.3399 -0.0720687 -0.00454819 0.0504655
273 23 11 5.50962 6.8682 17.4195 -0.0230587 0.00297938 -0.00107843
714 63 19 10.812 5.37182 18.4697 0.00816374 -0.0214627 0.0058154
715 63 2 10.3763 6.28581 17.5748 0.00448697 0.0108472 0.00377432
720 63 11 9.32826 6.35095 17.0214 -0.0173061 -0.0570781 -0.018268
719 63 11 10.7474 6.68899 16.6451 -0.00498152 -0.0381175 0.00830919
711 63 9 10.3049 5.837 19.7059 0.00781081 -0.00105879 -0.00908596
386 33 20 6.51615 9.40982 18.6214 -0.0136244 -0.0087346 -0.00533281
599 51 11 15.3513 9.77128 18.9451 -0.0410162 -0.0223967 0.0414963
712 63 20 10.4476 5.12237 0.603976 -0.0031653 -0.00853806 0.0116453
202 17 11 13.8917 7.44911 15.3292 -0.0336311 0.03553 0.0180346
204 17 11 13.8508 7.17456 17.2738 -0.0247463 -0.0106326 -0.0519706
203 17 11 12.5778 6.39399 15.9443 -0.0166639 0.0234888 -0.0524802
198 17 1 13.7 6.72624 16.2006 0.00549732 -0.00613844 -0.00860174
598 51 11 13.8264 8.21037 19.0646 0.00795467 -0.0333125 0.0313997
596 51 2 14.7941 7.80456 19.4166 0.00764149 -0.0017603 -0.000366123
22 2 11 15.1224 9.33136 15.2855 0.0650324 -0.0139392 0.0103659
741 70 26 12.8813 9.51656 17.1339 2.20997e-05 -0.00248303 0.00137179
591 51 9 16.5452 7.00303 18.7429 0.0197682 0.016659 0.0136278
432 36 11 17.1158 6.16844 14.4096 0.0141006 0.0182457 0.020384
594 51 19 17.0122 8.16458 19.0462 -0.000508674 0.011064 0.00147404
595 51 2 15.849 8.95706 19.3634 0.0203481 -0.0181017 -0.0191716
600 51 11 16.0944 9.42533 0.395839 -0.0186765 0.0224877 -0.013008
24 2 11 14.9831 10.0472 16.7888 -0.0303857 -0.0468138 0.0784482
324 27 11 1.99739 13.1006 15.6087 0.0399726 -0.091551 -0.00286696
770 74 26 1.06833 10.0469 16.5341 0.0140361 -0.0195125 -0.0071683
395 33 11 3.43013 11.0395 18.9118 0.0418375 0.00366259 -0.0376174
396 33 11 4.10442 9.73279 18.2861 0.0214553 0.00292317 -0.00108281
765 74 26 0.527211 11.5675 18.0887 0.0019877 -0.00125332 -0.0130836
764 74 27 19.8089 10.381 17.4166 -0.00545119 -2.66879e-05 0.00823711
390 33 1 4.36201 10.815 18.3465 0.0112585 -0.00294038 0.00445338
663 58 19 4.82804 14.3898 19.9296 -0.00720703 0.00364447 0.0066508
394 33 11 4.20166 11.2166 17.3432 -0.00997696 -0.0253604 -0.0492631
769 74 26 18.4426 10.9434 18.1129 0.00197913 0.0013341 -0.00308268
767 74 26 19.3379 11.1486 16.14 -0.012121 0.0188902 -0.00493226
99 9 19 1.73326 15.676 19.8529 -0.00229187 0.0118995 0.0135112
455 38 11 7.36074 12.7268 14.1428 0.0116227 0.0160462 -0.0442509
388 33 19 5.40945 11.3018 19.1854 -0.00751158 -0.00795981 0.000591577
448 38 19 8.26583 13.603 15.6996 -0.013933 0.00170141 0.0105361
385 33 9 6.56673 10.569 19.0726 -0.00404484 -0.00641935 0.00392534
387 33 19 7.65762 10.9208 19.8855 -0.00912949 0.00397679 -0.0106973
389 33 1 8.89421 11.0511 19.2931 -0.0095857 -0.00896517 -0.000225334
391 33 11 9.73401 10.6742 19.9771 0.0358241 -0.0440769 0.0195878
392 33 11 8.84832 12.0497 18.9101 0.0245768 -0.00736135 -0.0522828
393 33 11 8.85937 10.277 18.5476 -0.0395979 -0.0607485 0.031168
80 7 11 12.9231 14.3682 17.674 -0.00644005 0.0552316 -0.00143201
344 29 11 11.0863 11.0104 14.1979 -0.00632266 -0.00896366 0.0583143
738 70 26 11.5646 10.3719 18.6822 -0.001228 -0.00596409 0.0254968
739 70 26 10.8474 9.95774 16.686 0.0128323 0.00220979 -0.00708907
742 70 26 11.2065 11.9468 17.5461 -0.0015776 0.00122292 -0.00599292
736 70 27 12.0479 10.7348 17.2543 -0.00139162 -0.00937049 -0.0194872
740 70 26 13.3933 11.3664 17.9562 0.00564742 0.00653369 0.00754818
737 70 26 12.5471 11.1689 15.7316 0.00502226 -0.00382221 -0.0019167
20 2 11 14.7908 13.3412 18.0901 0.00828191 -0.0369503 0.0457684
77 7 1 12.0769 14.8849 18.3214 0.00598489 -0.00986846 -0.0128843
81 7 11 12.3103 15.9056 17.945 0.00920815 0.0174646 0.0250777
69 6 11 18.5931 10.7913 1.53449 -0.0570196 -0.0511028 -0.00610715
108 9 11 18.767 13.4795 17.94 -0.0122453 0.0299442 0.000643547
23 2 11 16.208 9.01746 16.4166 0.0247081 0.0228798 -0.0139947
18 2 1 15.6738 9.86487 16.0748 0.00869815 0.00258724 -0.00615905
13 2 9 16.4059 12.0425 16.2608 0.00465397 -0.000833558 -0.0137688
16 2 19 16.1086 11.0934 15.3373 -0.00102925 -0.00619792 0.00331624
15 2 19 16.2263 11.9439 17.6757 0.00632331 0.0174288 -0.00953281
17 2 1 15.6412 13.0324 18.473 0.0139515 -0.00482254 0.00191394
19 2 11 15.4327 12.8887 19.4435 -0.0326146 -0.0188631 -0.0252918
14 2 20 17.0288 13.1488 15.9288 -0.00378238 -0.000291132 -0.00180435
107 9 11 18.2457 15.1315 18.0591 -0.0265486 -0.0505529 -0.00850838
102 9 1 18.8674 14.3011 18.57 0.00582334 -0.000977395 0.00410207
100 9 19 0.0811354 14.8644 18.2208 0.00247997 0.00716747 0.0149915
143 12 11 3.08061 1.43581 0.610636 0.0592384 0.0631554 -0.0277429
400 34 19 0.180843 17.3816 16.2371 -0.0035521 -0.00109885 0.0060717
320 27 11 3.37891 14.8903 14.8175 -0.0296125 -0.000635371 0.0130329
142 12 11 4.281 0.140114 0.245319 -0.00160201 -0.0420694 0.0331457
668 58 11 3.7648 13.8158 18.282 0.0234487 -0.0527693 -0.0219219
666 58 2 4.33175 14.81 18.6331 -0.00869419 0.00997024 -0.00743769
398 34 20 1.65364 16.45 14.6889 0.00544753 0.00169018 -0.00178142
397 34 9 1.48302 17.1005 15.7056 -0.00139329 0.00753212 0.0141473
399 34 19 2.71725 17.2981 16.2871 -0.00715946 -0.00863763 -0.00842973
401 34 1 2.8234 17.9878 17.5848 -0.0062788 0.00217369 -0.0011348
405 34 11 3.73772 18.0892 18.2254 -0.00817799 -0.0669138 -0.0207622
403 34 11 2.24146 18.875 17.5487 -0.0104739 -0.00343107 0.0370708
667 58 11 3.71369 15.5454 18.1384 0.00603602 -0.00696627 0.0302524
404 34 11 2.32207 17.4238 18.4093 0.0274434 -0.0232995 0.0224758
670 58 11 5.90372 15.5084 17.3522 -0.0257533 0.0365926 -0.00217491
406 34 11 18.7028 18.6919 16.4715 -0.0397868 0.074456 0.00737378
97 9 9 0.478419 15.8005 19.2943 0.00871025 0.00867036 0.0130142
98 9 20 0.0826727 16.9924 19.2842 0.0142426 -0.00387888 0.0038321
236 20 11 7.64073 18.1441 18.4442 -0.0295769 -0.0227271 0.0199261
411 35 19 5.71312 0.330847 14.297 0.00500875 0.00614416 -0.0117851
446 38 20 7.90481 15.831 15.5066 0.00279627 -0.00503041 -0.0128866
669 58 11 4.96719 14.4039 16.7729 0.0147103 0.0110049 -0.0114097
661 58 9 6.23486 14.0169 19.6233 -0.00649274 -0.00822666 -0.0025115
664 58 19 6.51266 13.9457 18.2528 -0.013113 -0.00862145 0.0114193
665 58 2 5.52347 14.6131 17.6435 0.0131749 0.00071542 -0.00353879
467 39 11 8.50321 18.9935 14.8447 0.0389432 -0.017054 0.074343
458 39 20 9.64489 17.3419 17.8286 -0.0054347 0.000692862 -0.00329365
237 20 11 6.57838 19.4225 18.9966 -0.0238238 -0.0200234 -0.00450795
235 20 11 8.20283 18.9155 19.8784 -0.0235483 -0.00945295 -0.0600001
233 20 1 7.14979 18.5891 19.38 0.0113301 -0.000340481 -0.00667079
460 39 19 10.0659 17.8051 15.5718 0.013522 -0.00616943 0.000189037
462 39 1 9.13338 18.9423 15.67 -0.00579013 0.00274167 0.0146261
457 39 9 10.4732 17.6498 16.938 -0.0012636 -0.00249441 -0.00274707
75 7 19 12.1815 14.6975 19.7808 0.00109114 -0.00279127 -0.0108812
752 72 26 15.2024 19.7751 18.9338 0.00247015 0.0128058 0.00133317
79 7 11 11.0913 14.7848 18.1571 0.0583271 -0.0177056 -0.0206905
459 39 19 11.8561 17.9183 17.3661 0.00384394 -0.00161765 0.00963461
465 39 11 11.2147 19.3709 18.5522 0.00653779 0.0599656 0.0322845
254 22 20 13.8918 14.5926 15.4547 0.00251272 -0.0077251 -0.00890736
464 39 11 12.9814 18.552 18.6537 0.0185906 0.00161959 0.0524957
461 39 1 11.8927 18.4138 18.6037 0.00776829 -0.0106963 0.00390872
463 39 11 11.7608 17.6366 19.3279 -0.039951 0.0697505 0.0291565
754 72 26 15.4234 17.7563 18.2417 0.000202425 0.000222532 0.00228851
402 34 1 19.5334 18.5876 15.8058 0.0159391 -0.00716258 -0.00843171
261 22 11 17.7099 16.3794 16.2729 0.00968937 -0.022433 0.016689
259 22 11 16.9218 15.4171 14.8219 -0.000285669 0.00134724 -0.0194171
21 2 11 16.4058 13.7609 18.3968 -0.0043915 0.0123627 0.00959696
407 34 11 19.1084 18.7613 14.8259 -0.0515961 0.00581604 -0.0269461
253 22 9 14.575 15.4929 15.1588 -0.00263204 -0.00023762 -6.17905e-06
255 22 19 15.4422 15.9193 16.1492 -0.00534428 0.00388982 -0.000531834
257 22 1 16.7622 16.2996 15.5076 -0.00753898 0.00114315 -0.00151691
260 22 11 16.8285 17.1595 14.7506 0.0241237 0.027051 -0.0246866
750 72 27 16.4444 18.8858 18.6351 0.00391714 0.00894473 -0.00167407
106 9 11 18.5449 14.3355 19.492 -0.00366848 -0.0161408 -0.0813208
756 72 26 16.5443 19.3205 17.1493 0.00691366 0.00843349 0.00179803
751 72 26 17.681 17.9412 18.4305 0.0163566 -0.00405508 -0.00349115
ITEM: TIMESTEP
1950
ITEM: NUMBER OF ATOMS
770
ITEM: BOX BOUNDS pp pp pp
0.0000000000000000e+00 2.0000000000000000e+01
0.0000000000000000e+00 2.0000000000000000e+01
0.0000000000000000e+00 2.0000000000000000e+01
ITEM: ATOMS id mol type x y z vx vy vz
136 12 19 4.91714 2.24543 0.346412 0.00464904 -0.00702145 0.000569002
59 5 11 0.987477 -0.110212 4.66983 0.0564721 -0.0429254 0.00182042
52 5 19 1.53033 1.96721 4.53373 0.00195296 -0.00235305 -0.00121614
49 5 9 2.62569 2.87144 4.29293 0.00884235 -0.011063 -0.00468857
51 5 19 3.86617 2.29835 4.13848 0.0073061 0.000160026 0.00421584
50 5 20 2.44496 4.04694 4.11073 -0.00191385 0.0028822 -0.00378885
133 12 9 5.6426 2.14034 1.52756 -0.0065608 -0.0114609 -0.00901154
135 12 19 5.94412 3.29903 2.186 -0.00130501 0.00273555 0.00147075
116 10 11 19.2219 1.03118 3.2979 -0.0217065 0.0111394 0.0243543
134 12 20 6.14207 1.10384 1.97583 -0.0135636 0.00550477 0.00697845
508 43 19 8.73329 0.501809 3.52284 -0.00746888 -0.00380669 0.00141819
505 43 9 8.94865 1.90872 3.76466 -0.0150184 0.0183495 -0.0210459
137 12 1 4.87571 4.20241 1.95812 -0.00850189 -0.00669387 -0.00111273
140 12 11 4.71487 4.76568 2.91217 -0.0217935 0.0472008 -0.0022272
56 5 11 5.77021 2.1806 4.85602 -0.0305278 -0.0328473 0.0103622
762 73 26 10.306 2.59361 0.735315 -0.000976613 -0.00465945 0.000565636
141 12 11 5.27149 4.90417 1.19103 -0.0583068 -0.0434433 -0.0391997
139 12 11 3.78406 3.93404 1.67299 0.0330086 0.0328051 -0.0191967
734 68 31 7.9948 3.83957 2.13598 -0.0106016 -0.00145202 -0.0245995
759 73 26 8.41446 1.45104 0.558083 0.00206254 -0.0125542 0.0123364
761 73 26 10.3729 0.463388 0.229076 -0.0116557 -0.00861181 -0.00690277
507 43 19 10.3272 2.27795 4.10538 0.00613121 0.00569661 -0.00218062
132 11 11 11.8536 18.9593 4.52191 0.0155768 0.0163871 0.0183878
170 15 20 13.1568 2.50858 1.34439 -0.00561561 -0.00611038 0.00085648
169 15 9 13.7688 3.41999 0.703645 0.00121297 0.00479907 -0.0119576
174 15 1 13.0481 5.20891 2.09382 -0.00238901 0.00998126 -0.0219185
172 15 19 13.7634 4.82953 0.973236 -0.0105675 -0.00169106 0.00676645
130 11 11 12.8827 18.8921 3.08981 0.0336438 0.00147988 0.0243129
124 11 19 12.7229 0.89676 3.86544 -0.00612793 0.000839803 -0.00192927
513 43 11 11.8494 3.79185 4.95485 -0.0163864 0.0113778 -0.0445839
178 15 11 12.2883 4.44924 2.32275 0.00896689 -0.0743557 -0.00368175
126 11 1 12.7001 19.4619 4.02263 -0.00125719 0.0163555 0.00973832
121 11 9 14.0132 1.5017 3.98109 0.0077861 -0.00195728 0.00771183
179 15 11 12.7964 6.32971 2.12588 0.0202821 0.000891766 0.00282543
131 11 11 13.3771 18.74 4.55407 0.0252455 0.0150343 -0.0293741
180 15 11 13.806 5.13435 2.86831 -0.00365586 -0.00937163 0.0623948
113 10 1 19.0025 1.9573 2.78774 -0.00267324 -0.0155375 0.00216605
115 10 11 18.8671 1.57671 1.79682 0.0318905 -0.0397009 -0.0246269
117 10 11 20.0635 2.43916 2.56479 0.0088704 0.0112312 0.0418886
175 15 11 15.9709 3.48625 1.91726 -0.0192431 -0.018604 0.0413847
109 10 9 18.1016 3.63574 4.38834 -0.00513089 0.00664207 0.00613497
111 10 19 17.9703 2.80248 3.21141 -0.000383703 -0.000914415 0.0122722
123 11 19 14.8468 1.27025 2.87557 0.000894715 0.00109571 -0.00178701
128 11 11 15.0456 19.289 2.91678 -0.0381661 0.00905427 -0.0467506
38 4 20 1.83544 7.36479 3.56987 0.0164188 -0.00459986 0.0140947
674 59 19 3.17222 9.11809 1.46092 -0.0176316 0.00524257 0.00342841
680 59 11 4.85679 9.6297 1.46683 -0.00923703 -0.011382 -0.0262357
675 59 2 4.42191 8.77044 1.91641 -0.00783242 0.0086231 -0.000510426
37 4 9 1.91648 8.06937 4.62654 0.0130184 -0.00792953 -0.0295064
39 4 19 3.04241 8.92526 4.76209 -0.00536815 -0.00848017 -0.0036024
44 4 11 3.49787 10.7963 5.05216 -0.0416717 0.0799576 -0.044679
41 4 1 2.63396 10.2195 4.72572 0.000382685 0.00664509 0.00319995
333 28 11 18.4593 5.82923 2.28771 -0.016727 -0.016142 0.107329
45 4 11 2.63777 10.705 3.7241 0.0185693 0.0468279 0.0312571
679 59 11 4.7291 8.62069 2.88235 -0.0300347 0.0617436 0.0396908
205 18 9 8.34721 6.81204 3.01603 -0.00497777 0.00757185 -0.00487441
206 18 20 7.69742 5.84221 2.69017 0.00595032 -0.00832805 -0.0105033
210 18 1 8.52544 9.13714 2.95741 0.00587315 -0.00663097 -0.00145607
215 18 11 9.56532 9.02192 3.07746 0.0130334 0.0253694 -0.0270379
208 18 19 7.70609 8.05655 3.36606 0.00567529 0.0037963 -0.00511229
216 18 11 8.48163 9.47856 2.00097 -0.0203092 -0.0176582 -0.00107954
214 18 11 8.21237 10.0432 3.18348 0.016353 -0.0137793 -0.0250518
718 63 11 10.4654 8.44847 18.272 0.00162847 -0.0337696 -0.00244332
491 41 11 5.57998 8.27012 6.02595 -0.0713823 -0.00852551 -0.00891611
490 41 11 5.34472 7.06231 4.9589 -0.0438946 -0.00853348 0.0124957
207 18 19 9.79844 6.6081 2.95108 -0.00609632 -0.000305977 0.00568559
209 18 1 10.6702 7.14835 4.03149 0.00731905 0.00995876 -0.00688517
213 18 11 11.6291 6.51144 4.17949 0.0354931 0.0268465 0.0487654
212 18 11 11.2669 7.9034 3.94633 -0.021449 0.0374008 -0.00665459
593 51 19 15.4878 6.63601 19.0662 0.00241605 0.00351328 -0.00395563
211 18 11 10.3352 6.85379 4.93599 0.0614792 -0.00450298 -0.0371456
597 51 11 14.6207 7.95798 0.471859 -0.0456341 0.0191347 -0.0655042
335 28 11 15.2359 6.81354 4.12899 -0.0350465 -0.0235341 -0.0506265
336 28 11 13.9115 7.48725 3.548 -0.0226584 -0.00757254 0.0614236
334 28 11 14.7012 7.17477 2.3252 0.0151839 -0.070171 0.0283086
592 51 20 17.6526 6.15263 18.3717 0.00443565 0.0141963 -0.00552613
332 28 11 19.4789 7.17021 2.84166 -0.0359401 0.0326405 0.0597274
331 28 11 18.3299 6.40159 3.93172 0.00239536 0.0246004 -0.0271362
329 28 1 18.4971 6.71236 2.85437 -0.00681008 -0.000942163 -0.0184136
328 28 19 15.5608 8.71351 3.11194 -0.0041236 -0.0043425 0.00273515
326 28 20 17.3783 9.0409 4.14935 0.021156 6.05997e-05 0.0188718
325 28 9 16.9706 8.45216 3.14707 -0.00433107 0.000441579 -0.00158957
327 28 19 17.5746 7.70705 2.37924 -0.0203848 -0.00213839 0.00975401
330 28 1 14.9304 7.54136 3.32197 -0.00757269 0.00110967 -0.00357738
733 67 31 0.601293 7.03293 19.4941 -0.0163103 0.0124188 -0.00265027
63 6 19 0.255111 10.4145 2.71669 -0.00594399 0.00133773 0.0100385
577 49 11 3.391 12.7223 3.19688 -0.0231501 0.00170501 0.00911809
576 49 2 4.28654 13.1099 2.67597 -0.009739 0.00406317 -0.001424
579 49 11 5.8708 14.4834 3.16128 0.0379583 -0.0493749 -0.0532101
61 6 9 19.9037 11.5937 3.38977 0.014854 0.0100039 -0.00455156
580 49 11 4.69979 14.2778 4.38577 -0.0153931 -0.0619627 -0.00963219
578 49 11 3.99334 13.9255 1.99107 0.0450932 0.0403612 -0.0487551
573 49 19 4.76822 11.8804 2.24589 -0.00192932 0.00805223 -0.0177146
575 49 2 5.24491 13.7425 3.67315 0.00217071 0.00097364 0.00470463
62 6 20 0.649098 12.6704 3.40469 0.00556194 -0.0042685 0.00108423
572 49 20 5.95404 10.4592 3.74803 -0.0105001 -0.00664323 0.00350577
571 49 9 5.71344 11.5626 3.14888 -0.0134404 0.00893586 -0.000143926
574 49 19 6.28557 12.7126 3.87762 -0.000768037 -0.00188585 -0.00577937
84 7 11 8.69208 12.5893 1.78665 -0.0241138 -0.0283408 -0.00968281
78 7 1 9.85288 12.6921 1.65463 -0.000122012 -0.00869216 -0.0144914
83 7 11 10.3573 13.197 2.48861 0.015493 -0.00959662 -0.00205289
654 57 19 7.48665 14.912 5.12078 -0.011997 0.000631916 0.0041636
722 64 20 12.9549 9.23209 1.45974 -0.0107825 -0.0135802 -0.00478251
82 7 11 10.3356 11.6781 1.75159 -0.0124751 -0.0315393 0.0240161
727 64 11 12.7777 11.3831 5.35952 0.0756407 -0.0452521 -0.00673813
726 64 2 12.6626 11.4158 4.2601 0.00233417 0.0214649 0.0146507
723 64 19 12.2528 10.3141 3.41896 0.00913346 -3.26705e-05 0.012499
721 64 9 13.0026 10.1473 2.20985 0.0192841 -0.00836198 -0.00876199
728 64 11 11.8766 12.1171 4.17562 0.0560484 -0.0532063 0.0435676
724 64 19 14.2535 10.9954 2.19637 0.00109909 -0.0115184 -0.00242829
725 64 2 14.0918 11.6604 3.43558 -0.011623 0.0162471 0.00564484
76 7 19 10.2571 13.2253 0.358671 -0.000174585 0.000969393 -0.00536059
74 7 20 12.512 12.501 0.463135 -0.000963011 0.00642817 0.00790302
659 57 11 9.02381 14.13 5.69542 0.0361145 -0.00475741 -0.0313913
655 57 2 8.90144 14.7011 4.90352 0.0114076 0.00405738 0.00919644
660 57 11 9.72721 14.4031 4.23304 0.0389892 -0.0347459 0.0233183
639 55 11 15.051 16.3198 5.21335 0.0320982 -0.00732818 0.00892462
68 6 11 19.7458 11.2029 0.850538 -0.0292746 0.020624 -0.010042
65 6 1 19.626 10.3582 1.43549 0.00707232 -0.00362681 -0.00109966
67 6 11 19.8077 9.6457 0.668548 -0.0303818 -0.00592459 -0.00359373
729 64 11 14.0229 12.7749 3.28575 0.0589239 -0.0614848 0.0464948
383 32 11 18.2121 14.0862 2.25957 0.00692439 -0.0516824 -0.0137697
382 32 11 16.2359 14.6376 2.00522 -0.069354 -0.0176833 0.0390165
378 32 1 17.4279 14.8529 2.10342 0.0106088 -0.00554555 -0.00677259
384 32 11 17.5436 15.5083 1.28455 -0.00804716 0.0255012 0.0188573
70 6 11 18.3474 12.5579 5.51067 -0.0854246 -0.0364733 0.0388168
64 6 19 18.5455 11.7558 3.79468 -0.0112497 0.0107704 -0.0128659
66 6 1 18.5502 11.4812 5.19375 0.0111902 -0.00399819 -0.00715659
54 5 1 1.75345 0.56706 4.27435 -0.0113974 0.00397199 0.0064945
104 9 11 1.90535 15.2194 2.08225 -0.0452804 -0.00527088 0.0159582
240 20 11 3.59061 18.4337 3.10258 0.016067 -0.00688813 -0.0142422
239 20 11 4.67648 19.3894 2.32692 0.0438834 -0.0356734 -0.0247159
238 20 11 5.4475 18.0969 3.26312 0.00458503 -0.000796226 -0.0298236
234 20 1 4.53314 18.3202 2.55732 -0.00334745 0.000889427 0.00501703
232 20 19 4.56848 17.4364 1.40727 -0.00677763 0.0117026 0.000792012
105 9 11 2.22826 13.982 1.02284 -0.0208647 0.000484093 0.0226702
103 9 11 0.583118 14.6575 1.43621 -0.00901686 -0.00739665 -0.00122039
380 32 11 20.1128 16.3027 3.01967 0.0516158 -0.00469504 0.00080993
377 32 1 19.8762 17.349 3.38433 0.0160209 -0.0148233 -0.00862758
379 32 11 19.9622 17.3371 4.46248 0.0069057 0.0473798 -0.0258088
60 5 11 1.76695 0.583477 3.22697 0.000361824 0.0226325 0.0322233
58 5 11 2.67079 0.17665 4.56874 -0.0116428 -0.00400037 0.0253915
242 21 20 2.46966 16.4986 4.39699 0.00245555 0.0118717 -0.0018937
101 9 1 1.57277 14.8828 1.14782 0.0126031 -0.00530359 0.0023167
516 43 11 7.26708 0.634387 4.74057 -0.044454 0.0651683 -0.0199203
652 57 20 6.47491 16.9353 5.10934 -0.00779657 0.0129076 -0.00393248
515 43 11 8.56383 19.3385 5.19968 0.0247012 -0.0127751 -0.0116372
230 20 20 6.86146 17.177 1.75457 -0.00390413 0.00663149 0.00317339
229 20 9 5.92559 17.471 0.960169 0.0136882 0.00978738 0.0151869
514 43 11 7.47506 19.0073 3.89061 -0.0132742 0.0103628 -0.0251292
510 43 1 7.97223 19.8255 4.44348 0.0159226 0.00691262 0.0226583
191 16 11 9.19923 15.7046 1.89119 -0.0324942 0.00614409 0.0139938
662 58 20 6.88509 13.8201 0.596178 -0.0119348 0.0107908 0.00994217
231 20 19 6.2237 17.3219 19.5788 -0.0130213 -0.00802714 0.00587279
73 7 9 11.5785 13.2871 0.0573495 0.00786857 -0.00794768 0.000361967
182 16 20 12.9448 16.367 3.88451 -0.00516421 -0.00147551 0.00942018
186 16 1 10.1033 16.3915 1.98234 6.02262e-05 -0.00421034 -0.0135276
192 16 11 10.3523 16.3259 0.842032 -0.024788 0.0193016 0.0107145
190 16 11 9.92161 17.3124 2.34238 0.0435582 0.000118191 0.0551701
184 16 19 11.0914 15.6647 2.55726 0.000101615 -0.00681867 0.00149543
181 16 9 12.3021 16.4486 2.87504 -0.00866277 -0.00379739 0.000826922
183 16 19 12.9853 16.9666 1.86287 -0.00339733 -0.0159928 -0.0106513
185 16 1 13.9581 16.082 1.57475 0.00461975 -0.00157579 -0.00911586
187 16 11 15.0432 16.3889 1.86787 -0.00441566 0.00950287 0.0250655
188 16 11 14.1731 15.1152 2.19508 -0.00116447 0.03178 0.0300858
640 55 11 14.4448 14.7766 4.89917 0.0207093 -0.00511624 0.0072689
376 32 19 17.4058 15.6186 3.42734 -0.00629656 0.00520756 -0.00242417
189 16 11 13.9994 15.7973 0.53811 0.0531149 -0.0155397 0.0188767
755 72 26 16.5097 18.5066 0.150576 0.0115701 0.00282296 0.000560765
373 32 9 17.5161 17.0925 3.49183 0.0051585 0.0110274 0.0136593
375 32 19 18.5433 17.482 2.81297 -0.00911932 0.00507693 0.00800911
125 11 1 15.6252 0.234657 3.13684 0.013282 0.00770071 -0.00466046
127 11 11 16.0184 0.438353 4.15914 0.00649217 0.00810128 -0.00138373
381 32 11 0.810108 17.8452 3.12089 -0.00903601 -0.0210321 0.031794
129 11 11 16.6395 0.361055 2.61193 -0.00754737 -0.0114475 0.0181996
374 32 20 16.7699 17.7961 4.21093 -0.00292611 -0.00559248 -0.00995362
57 5 11 5.49108 3.70033 4.56559 -0.0322007 0.00208747 0.0592981
691 61 9 2.23997 2.56952 7.49923 0.00062046 0.00472231 0.00302687
693 61 19 0.979307 2.89778 7.14498 -0.00349692 0.00203091 0.00179514
692 61 20 2.5712 1.43808 7.48149 -0.00497887 0.00683403 0.00449236
694 61 19 3.0838 3.57124 7.93841 -0.0150487 0.00690832 0.00533936
698 61 11 0.807695 5.30182 6.48507 -0.0249866 -0.00151955 0.000574624
696 61 2 1.16016 4.37607 6.91908 0.0015126 0.00582927 0.00832516
695 61 2 2.44954 4.79929 7.62219 -0.00141903 0.00714202 -0.0121823
53 5 1 4.87837 2.85529 4.98344 0.018784 -0.00175258 -0.000469432
699 61 11 3.15068 4.86584 6.85735 -0.00076218 -0.0306681 -0.0280212
506 43 20 8.2008 2.81305 3.41124 0.0210935 -0.000310902 0.00677485
511 43 11 10.4403 3.16814 5.66717 0.00794988 0.018937 0.00457343
512 43 11 10.1717 4.34964 4.28288 -0.00794584 -0.0662296 0.00334625
55 5 11 4.55716 2.90271 6.1061 0.00832369 0.0320792 0.00385441
86 8 20 6.65391 1.88166 7.34971 0.00680359 -0.00331588 0.00667473
85 8 9 6.5226 1.10546 8.33083 0.00344091 -0.0057056 0.0019459
87 8 19 7.45845 1.15435 9.4906 0.00370903 0.00181424 -0.00345313
481 41 9 7.49163 6.28499 6.4067 -0.00570302 0.00988946 0.00867141
482 41 20 8.2368 5.3468 6.26825 -0.00399225 -0.00129198 -0.000683873
483 41 19 8.2749 7.54118 6.47789 -0.0129067 -0.00802949 0.0014329
91 8 11 5.75241 0.625192 10.605 -0.00776191 0.00708467 -0.013795
509 43 1 10.7695 3.5175 4.68164 0.00979409 0.00137789 0.000593358
122 11 20 14.3208 1.34458 5.09064 -0.00128683 0.00626885 0.0101036
556 47 2 11.6714 1.0625 7.51354 -0.00136696 0.00176275 0.000515858
553 47 19 11.8406 19.9095 6.79763 -0.00535759 -0.00736433 0.0107521
558 47 11 11.542 1.02466 6.46486 -0.032815 0.0180283 0.0204495
557 47 11 12.0945 1.98635 7.82923 0.0342359 -0.0443683 -0.00408265
364 31 19 13.857 5.06089 8.31814 -3.22357e-05 -0.000830232 -0.00223455
361 31 9 12.8441 5.18281 7.32336 -6.6353e-05 0.00128698 -0.00622721
362 31 20 12.215 4.19 7.167 0.00693574 0.00245569 0.00842341
370 31 11 13.2898 3.56985 9.3932 0.0184012 -0.0333563 -0.02491
570 48 11 11.522 5.51608 10.8139 -0.0672152 0.0279036 0.0585156
565 48 2 10.748 5.13974 10.2081 0.013616 -0.00501743 -0.0046478
560 47 11 10.3974 0.472276 8.91418 -0.0418375 0.0317565 0.016675
282 24 1 14.535 19.5573 7.9407 4.81313e-05 -0.00266473 0.00227528
551 47 9 11.0849 18.9273 7.34089 0.0103286 -0.00369933 0.00910731
286 24 11 13.954 19.2804 8.92364 0.0196856 -0.0167218 -0.023826
569 48 11 10.9924 5.08271 9.14175 0.0230244 -0.0185657 0.0404692
119 10 11 15.8977 2.64737 6.01718 -0.0105506 -0.0461353 -0.00515974
118 10 11 16.9278 3.66643 6.82193 -0.00617691 -0.00348787 0.0500057
114 10 1 16.2725 3.67126 5.91214 0.00289037 -0.0136 0.00629554
112 10 19 16.8879 4.30149 4.8861 -0.00501684 -0.00457196 0.00609108
120 10 11 15.1906 4.01605 6.18977 -0.00971022 -0.00326888 -0.0234028
110 10 20 19.214 4.33607 4.67208 -0.0113595 -0.00537513 0.000384591
301 26 9 0.471339 0.998423 10.0819 0.000900884 0.000762077 -0.00427724
372 31 11 14.9056 3.79862 9.70299 0.0156232 0.00639123 -0.0847656
366 31 1 14.1493 3.89184 8.80235 -0.00969079 -0.0046925 0.0100273
371 31 11 14.3193 3.22078 7.89655 -0.0225129 0.0306224 0.00525377
280 24 19 15.8623 19.3912 8.34352 0.00135567 0.0156372 -0.0107946
277 24 9 16.4905 0.362276 7.60509 0.011563 -0.00315961 -0.00426432
279 24 19 16.8984 -0.00418236 6.27285 0.00368575 -0.00394219 -0.00655078
285 24 11 18.692 1.20972 6.54072 -0.0100303 0.014615 0.00907885
278 24 20 16.763 1.51233 8.18375 -0.000741542 0.000604424 0.000348865
310 26 11 18.8079 3.74382 10.0897 0.0152367 -0.0153631 0.0108533
304 26 19 0.253932 2.37655 10.228 -0.000154149 -0.00159529 -0.000341952
312 26 11 18.798 2.37048 8.82685 0.0415631 -0.0207445 0.0177028
306 26 1 19.0656 2.70281 9.85207 0.00611556 -0.00223755 -0.000342651
43 4 11 1.80225 10.5432 5.27083 0.00226594 -0.00229388 -0.00598223
700 61 11 2.317 5.80148 8.03024 -0.00617429 -0.0369379 -0.0136204
697 61 11 0.394871 4.29584 7.59272 -0.013139 0.0169828 -0.0593518
354 30 1 2.11715 9.8071 9.53984 -0.00248892 -0.00412366 -2.79099e-05
492 41 11 4.31029 6.95315 6.01615 0.0348938 0.0406895 -0.036363
357 30 11 6.09765 7.31201 9.15993 -0.0395498 0.0435279 -0.0604159
40 4 19 1.22694 7.53339 5.72496 0.00176894 0.00117194 -0.0054803
358 30 11 1.48649 10.6456 9.70043 4.19917e-05 0.0233865 -0.0146078
356 30 11 6.20014 7.0759 10.7749 0.0276382 -0.0190172 -0.0115691
355 30 11 4.61991 6.55944 10.0174 -0.0395574 -0.017393 -0.0280865
484 41 19 6.05436 6.32648 6.92484 0.00110166 0.00313337 -0.00694109
486 41 1 5.34613 7.14393 5.98949 0.000314424 -0.00486871 0.0073509
485 41 1 9.0317 7.67607 7.63778 -0.0036735 0.000185922 0.0148077
353 30 1 5.48814 7.34631 10.0458 0.00246905 -0.00903243 0.00845658
487 41 11 9.75615 6.93549 7.90888 -0.00538656 0.0334641 -0.0230553
489 41 11 9.91524 8.34414 7.29568 0.0468383 0.0105903 0.00649528
488 41 11 8.51555 8.02098 8.47485 -0.0177919 0.00309101 -0.053716
479 40 11 7.97486 11.2334 5.26574 0.0366571 -0.00201461 0.0530928
472 40 19 9.11609 10.5443 7.18374 -0.00243834 0.00624965 -0.0119921
568 48 11 8.67059 5.46734 9.62741 -0.0665424 0.0378031 0.0167994
363 31 19 13.2016 6.07051 6.2276 0.0128488 5.69099e-05 0.00754983
473 40 1 11.8541 10.4155 7.9449 -0.00686259 -0.0016128 0.00504367
476 40 11 12.6856 9.68709 7.6276 0.0168806 0.0636579 0.0409853
475 40 11 11.3233 9.58396 8.38028 -0.00572812 0.0221919 -0.0186612
365 31 1 13.146 7.40588 6.46569 -0.00522465 0.00364554 -0.0014839
368 31 11 13.6052 7.91181 5.71343 0.00733337 0.0326379 -0.030174
369 31 11 12.2584 8.06891 6.30894 0.0400372 0.0135149 -0.0247805
367 31 11 14.088 7.63868 7.03667 0.00264991 -0.0422152 0.022145
548 46 11 15.9075 7.73618 10.1744 0.0425894 -0.00401363 0.00164183
547 46 11 15.2487 6.33754 10.6115 0.0444419 -0.0162338 -0.029271
546 46 2 16.0307 6.67397 10.0335 -0.00899896 -0.00461413 -0.00348842
609 52 11 13.0451 9.05164 10.5031 0.0250915 0.0524474 0.0196493
542 46 20 17.1213 6.54912 6.90401 -0.00788797 6.81036e-05 -0.0059633
46 4 11 0.549927 8.36146 7.41105 -0.0195209 0.0631596 -0.00675984
48 4 11 0.115174 9.29204 5.87301 -0.0281572 -0.0145316 0.0461278
42 4 1 0.345057 8.38153 6.35203 -0.0130802 4.58674e-05 -0.0112121
543 46 19 15.891 6.93659 8.61789 -0.00123664 -0.00113992 0.00197789
47 4 11 19.3511 7.97857 6.18518 0.0338187 0.0140237 0.0194055
541 46 9 17.0212 6.34153 8.05205 -0.0128347 -0.0173908 0.000673415
6 1 1 16.0949 9.80415 7.55589 -0.00922696 0.00244583 -0.00489884
12 1 11 15.6463 8.91832 6.99318 -0.0308064 0.0720159 0.0200656
1 1 9 18.1564 9.89091 8.9377 -0.0108454 -0.00396511 0.00933599
2 1 20 18.4008 9.16751 9.92986 0.00477531 -0.0117835 0.00702174
11 1 11 15.6099 10.0436 8.45122 -0.0374726 0.0217145 -0.0417659
248 21 11 1.94686 13.6189 5.38574 -0.022279 0.0287249 0.0105841
360 30 11 1.63708 8.95937 9.50946 -0.0201102 0.0245373 0.0251107
245 21 1 1.16448 14.3517 5.64453 0.00537487 0.0102223 0.0138119
247 21 11 0.592931 13.8673 6.37478 0.0476613 0.00601895 0.00477523
612 53 20 2.92095 12.0024 6.83949 -0.0106209 -0.000569318 -0.00228252
249 21 11 0.725793 14.9237 4.88031 0.0253675 -0.0141862 -0.0518479
613 53 19 4.02149 14.0512 7.22625 -0.0102816 0.00592809 -0.00512665
582 50 20 19.9312 14.5509 10.2238 -0.0131385 0.00675839 -0.00388677
581 50 9 0.950228 14.3006 9.61525 0.00270145 0.000781417 0.00236304
584 50 19 1.51798 13.0624 10.0419 -0.00731935 0.00122601 -0.009585
616 53 2 5.32209 14.2458 7.62578 0.0182765 0.00573926 0.00416273
478 40 11 6.96236 10.4882 6.65982 -0.0059437 0.0093979 0.00324538
474 40 1 7.94873 10.6883 6.18098 -0.0100547 -0.000914858 -0.0215329
480 40 11 7.87728 9.66248 5.79897 -0.0298154 0.0548934 0.0208171
611 53 9 3.94223 12.6158 7.11254 0.00135175 0.00335828 0.0038975
615 53 2 6.03632 12.9957 7.22994 -0.0268393 0.00775927 0.00897943
614 53 19 5.08175 11.9886 6.9943 0.00979904 0.00280732 -0.0019891
620 53 11 6.79882 13.0974 7.96055 0.00103996 -0.0192264 -0.0245523
619 53 11 6.71518 13.0728 6.45745 0.00257707 -0.0180201 -0.0356447
730 64 11 14.6407 10.9296 4.0988 0.0700625 0.0311211 0.0378606
469 40 9 10.1952 10.7349 6.36213 -0.00860901 -0.0066264 -0.0104054
471 40 19 11.2697 11.3256 7.16652 0.00427299 0.00486774 -0.0120891
477 40 11 12.3519 10.892 8.81087 0.0428394 0.0221203 -0.0665479
470 40 20 10.6218 9.74528 5.74029 -0.00457137 -0.000307988 -0.00468752
631 55 9 14.1996 13.4527 6.71803 -0.000698252 -0.00943987 -0.0107555
634 55 19 15.0896 14.0242 5.84611 -0.00307002 -0.00469587 0.00531695
632 55 20 14.1681 12.3923 7.20938 0.0161294 0.00482539 -0.00570118
633 55 19 13.4946 14.4689 7.4252 0.00126062 -0.00131027 -0.00853626
152 13 11 11.0921 13.7868 12.3195 0.0371633 0.0259376 0.0198949
4 1 19 17.4693 9.27521 7.93439 -0.000174085 0.0211752 -0.000670246
10 1 11 16.1468 10.7745 7.27907 -0.00734068 -0.0317756 -0.0279371
71 6 11 19.5966 11.4065 5.54679 0.0455033 0.0267559 0.0510832
72 6 11 17.8721 10.929 5.52432 0.00904141 0.0114063 -0.0355685
3 1 19 18.6497 11.1682 9.285 0.00169664 -0.00260237 -0.00618577
8 1 11 18.1565 13.0447 8.68434 -0.0581207 0.043762 -0.00734519
682 60 20 18.345 15.0002 5.86735 0.0105746 0.00392583 -0.00513897
243 21 19 1.90696 15.3514 6.26099 -0.0181525 0.00135868 -0.00535685
241 21 9 2.22512 16.5991 5.63249 0.0252562 0.00308641 0.00142386
244 21 19 2.6999 17.6316 6.58112 -0.00550981 -0.00478073 -0.00675032
251 21 11 1.61421 17.1861 8.13101 0.0333345 0.0338056 -0.00184254
246 21 1 1.70486 17.9766 7.54148 0.00189985 0.0114512 0.00763381
252 21 11 0.715208 18.4762 7.20697 0.0185188 0.0228591 0.0431102
250 21 11 2.2398 18.7237 8.33733 0.0549851 -0.0258553 0.0035247
524 44 11 18.4636 18.0099 10.8018 0.00209841 0.0160422 0.00571967
88 8 19 6.00515 19.8849 8.10488 -0.00234159 -0.0136667 -0.00241976
523 44 11 19.1491 18.8889 12.1545 0.00927481 -0.0130495 0.0151065
521 44 1 19.3702 18.0696 11.4288 0.00505701 -0.00870658 -7.39472e-05
651 57 9 7.53359 16.3651 4.89859 -0.00625364 -0.0119972 -0.00640997
653 57 19 8.71465 16.9668 5.25449 0.0072925 -0.00473543 -0.00206541
94 8 11 5.05382 0.348647 6.17774 -0.0208828 -0.0312201 -0.0152345
617 53 11 5.97325 14.8445 8.29057 0.0183119 -0.00498881 0.0187281
656 57 2 9.50173 15.865 5.5854 -0.00233589 0.00556957 -0.00208026
95 8 11 5.1399 18.9288 6.31947 -0.00137203 -0.000944829 -0.0126455
96 8 11 4.09268 19.4729 7.52122 0.00206084 -0.00303995 -0.022159
90 8 1 5.03977 19.6953 7.06032 -0.00263696 0.00395513 -0.00210206
618 53 11 5.26068 14.8059 6.69065 -0.0111411 -0.0168065 -0.024216
503 42 11 6.21564 17.2554 7.48968 -0.0358774 0.0329128 0.00445667
498 42 1 7.19006 17.2484 8.12505 0.00192561 -0.0128303 0.0017266
502 42 11 6.89617 17.5669 9.16299 -0.010063 0.0214992 0.021183
554 47 19 9.84019 19.4799 8.01356 -0.000373375 -0.000589965 0.000915271
493 42 9 8.54057 15.8093 9.31869 -0.0119783 0.0213969 0.0141972
504 42 11 7.73822 17.9803 7.57615 -0.0392659 0.0176567 0.0112965
496 42 19 7.75626 15.9808 8.15403 0.00350094 0.0036708 -0.0139124
495 42 19 9.56507 16.7704 9.26646 0.0120502 -0.00670764 -0.00301587
555 47 2 10.2373 0.899506 7.93555 0.00788175 0.0147402 0.00284549
559 47 11 9.63869 1.81004 7.74487 -0.00841534 0.00134673 -0.0196337
288 24 11 14.1898 0.6837 7.78948 0.039199 0.0423186 0.0382744
287 24 11 14.3282 18.7884 7.10185 0.0681241 -0.0168404 0.0562569
636 55 2 13.6645 15.6786 6.70347 -0.00252483 -0.00367848 -0.00928402
635 55 2 14.8418 15.3836 5.74203 -0.00786472 -0.00187331 -0.00231123
657 57 11 9.93132 16.7376 5.03579 0.0130275 -0.00133009 0.00384143
658 57 11 10.3927 15.5912 6.14403 0.0289377 -0.0426731 -0.0682944
500 42 11 11.3621 15.702 10.2892 -0.00941392 -0.00819869 0.0194024
638 55 11 12.7385 15.8647 6.26028 0.0282872 -0.00274659 -0.0421165
637 55 11 13.9787 16.4611 7.4634 0.064836 0.0075753 0.00096321
552 47 20 11.1648 17.9587 6.57132 0.0109651 0.00291052 0.00512748
497 42 1 10.9832 16.1956 9.47596 0.00656272 0.00398564 -0.00130992
499 42 11 11.3043 17.1929 9.66191 0.0125169 0.0478807 -0.0417053
501 42 11 11.3999 15.8187 8.50382 0.00695975 -0.0278272 0.00181654
703 62 19 12.6178 18.39 12.335 -0.01118 -0.00902132 0.00149048
284 24 11 18.3318 0.474618 5.03949 -0.0340627 -0.00699964 0.0126701
281 24 1 18.2811 0.306 6.07915 0.00458619 -0.00276979 0.00687974
283 24 11 18.9034 19.416 6.28023 0.0121726 -0.0319833 -0.0442538
302 26 20 19.7765 0.257276 9.34864 -0.00314741 -0.00443331 0.00811543
683 60 19 17.2846 15.4199 7.97562 -0.0137273 0.013905 -0.00911284
681 60 9 18.3098 15.6347 6.92903 -0.0112859 0.00443154 0.0164213
686 60 2 17.5877 16.4509 8.994 0.0112887 0.0116399 -0.00863126
685 60 2 18.7586 17.1848 8.35877 0.000568608 0.0103003 0.0148514
690 60 11 18.695 18.2136 7.92761 0.038497 0.0238184 -0.0037734
688 60 11 17.0917 16.9603 9.68092 0.0338687 0.00136027 -0.016265
687 60 11 17.7527 15.4508 9.27373 0.0223529 0.0189475 0.0113028
684 60 19 19.354 16.3561 7.46716 0.00695852 0.00630621 -0.0104704
689 60 11 19.6149 17.1495 8.98311 0.0278796 0.036379 0.0011246
525 44 11 0.347271 18.3187 10.9933 0.00255557 0.0122779 0.0456713
303 26 19 1.58681 0.349087 10.5276 0.00876172 0.0082729 -0.0013789
308 26 11 2.70936 2.1242 10.4559 -0.0128681 -0.0303413 -0.0305861
305 26 1 2.78945 1.13857 10.5659 -0.00158451 -0.00906416 0.00290456
309 26 11 3.6346 1.11254 11.3422 -0.0217816 -0.0215603 -0.00694641
307 26 11 3.33836 0.847667 9.60365 0.00593178 -0.03849 -0.00283075
226 19 11 2.57998 6.16871 11.1718 0.0232685 -0.0169196 -0.0386205
224 19 11 6.31321 4.4056 12.7193 -0.0212858 -0.00609987 -0.00289333
622 54 20 0.543904 0.788042 13.6359 -3.23233e-05 -0.00957727 0.0101127
624 54 19 0.316798 3.11602 13.9668 -0.00660378 -0.00823508 0.000283444
219 19 19 4.13751 3.79636 12.3402 0.00582041 0.00191025 0.00288395
221 19 1 5.58334 3.70981 12.0994 -0.0109546 0.00230685 0.00538917
225 19 11 5.53647 4.38076 11.2182 0.0134991 0.0314733 -0.058988
223 19 11 5.97029 2.7451 11.9462 0.00383327 -0.0320215 0.0296194
621 54 9 0.0781121 1.7486 14.2712 -0.00749253 0.000149584 -0.00188311
220 19 19 2.27037 5.24968 12.854 -0.00655908 0.0100442 -0.00794454
217 19 9 3.66051 5.02027 12.7206 -0.00871478 0.00454334 0.00888854
276 23 11 2.02553 6.57158 18.1687 0.0549249 -0.0310332 -0.0110253
89 8 1 6.86965 0.61219 10.5969 -0.0159457 -0.00979273 -0.00219186
561 48 9 9.4258 3.57713 10.3223 -0.00656189 -0.0162015 -0.0136926
563 48 19 8.63164 4.57133 9.92236 0.00640359 -0.00780002 0.0181488
93 8 11 6.98789 19.4893 10.532 0.0380622 -0.0593129 -0.0435658
416 35 11 6.89952 1.97 14.3475 -0.00981009 0.00642612 0.00631008
413 35 1 7.04594 1.00954 14.3245 0.0115589 -0.00990432 0.00587251
415 35 11 7.841 0.984071 13.5745 0.0159576 -0.0302696 -0.01068
417 35 11 7.50903 0.99407 15.2929 -0.00317606 0.0266015 0.0138597
562 48 20 8.84329 2.65829 10.9808 0.00629243 -0.000491461 0.00493215
735 69 31 4.9613 5.84506 14.4458 0.018758 -0.0026247 0.0144034
564 48 19 10.8331 3.84268 10.7642 0.00659183 -0.0017806 -0.0088832
539 45 11 13.8835 4.52188 12.441 -0.00229454 -0.0265392 -0.0104053
705 62 2 10.5806 18.1287 12.86 -0.00437107 0.00250959 -0.0105445
709 62 11 10.4734 18.6764 13.7478 0.0247785 0.0226495 0.0130618
168 14 11 12.4678 2.43144 16.5487 -0.0276542 -0.00673679 0.0232131
293 25 1 11.1741 4.56206 13.8096 7.42666e-05 0.00179682 0.00782184
295 25 11 11.7723 4.7318 12.9713 0.0202748 -0.0371084 0.00741277
297 25 11 11.7734 4.53761 14.7256 -0.00162708 0.0402364 -0.00392554
704 62 19 10.5343 19.0083 11.8115 -0.0138672 -0.00518444 0.00721371
566 48 2 9.28065 5.68991 10.4191 0.0123815 -0.0008102 -0.000587552
702 62 20 12.1833 0.0897781 10.5603 0.000751597 0.0111979 0.00131687
701 62 9 11.8926 19.2484 11.4698 -0.0177378 -0.0297441 0.00441807
167 14 11 11.3039 1.28309 16.6467 -0.0396156 0.00135783 0.0132772
311 26 11 18.264 2.25158 10.4316 0.00544083 0.00621485 -0.00533857
534 45 1 14.8427 4.34066 12.8619 0.0090338 -0.00814713 -0.00802417
540 45 11 14.4885 3.65284 13.5942 0.0321814 0.00701315 0.0497027
538 45 11 15.1671 5.27819 13.2786 0.0153187 -0.0611083 -0.00211706
529 45 9 15.4931 2.35744 11.7906 -0.0119468 -0.0131367 -0.0174719
530 45 20 14.5671 1.90483 11.0622 -0.0102197 0.00513077 -0.00779115
532 45 19 15.841 3.70793 12.0596 0.00865459 0.00670204 0.0170124
531 45 19 16.5307 1.44765 12.1128 0.00246665 0.0105618 0.0168379
533 45 1 16.7762 0.336884 11.272 0.00206054 -0.00253932 -0.00485284
627 54 11 17.6666 2.27192 14.0944 0.0426442 0.0104128 -0.0797561
536 45 11 16.5966 0.592553 10.2529 -0.0333398 -0.0202525 0.0150774
549 46 11 16.9832 4.87111 10.0472 -0.0110217 -0.00582727 -0.0108826
630 54 11 18.3609 4.33302 13.3429 -0.0252699 -0.00834647 -0.0107034
537 45 11 17.6669 19.9182 11.304 0.0362169 0.0325017 -0.0186985
535 45 11 16.1788 19.4278 11.4371 -0.0396944 -0.00568647 -0.0443857
625 54 2 19.0574 3.67116 13.8593 -0.00570353 0.00186356 -0.0125611
629 54 11 19.4973 4.24805 14.5356 0.00929309 -0.00728875 0.00933184
349 30 9 4.49447 9.59004 10.149 -0.0200373 -0.00286695 -0.0093687
351 30 19 5.34125 8.69596 10.7298 -0.00458093 0.000259396 0.0112681
228 19 11 1.06393 5.96003 11.6162 -0.0299388 -0.0184391 -0.0268164
222 19 1 1.96664 5.37514 11.6346 0.00200836 0.00646155 0.00775217
352 30 19 3.25061 9.79867 10.5316 -0.00228705 0.00711106 -0.00469498
227 19 11 1.73468 4.53857 10.8853 -0.00278042 -0.0138029 -0.0637907
218 19 20 4.477 5.92975 12.672 -0.00881388 -0.00541806 -0.0157356
427 36 11 1.36915 9.66294 13.8983 -0.0478609 0.00973902 -0.00442202
429 36 11 0.355701 9.08616 12.357 -0.0498836 0.0428661 -0.00731737
428 36 11 2.19611 8.47227 12.7266 0.0102055 -0.0739395 0.0434761
425 36 1 1.15367 8.75426 13.181 -1.00645e-05 0.0101329 -0.0093519
347 29 11 6.4447 9.602 14.8448 0.0121838 -0.0195395 0.0097694
423 36 19 0.646338 7.55879 14.0513 -0.00855584 0.00135979 0.0112475
290 25 20 7.72504 5.83139 14.2662 0.00362869 -0.006271 0.00590674
289 25 9 8.68504 4.90165 14.3379 0.00475006 0.0111722 0.00070541
342 29 1 6.52796 9.04473 13.9844 0.00177662 -0.00320147 -0.00192006
348 29 11 6.46015 7.8299 13.8667 -0.0422029 0.0469138 -0.0282341
346 29 11 5.89494 9.3393 13.1551 -0.0151655 -0.0444171 -0.024706
337 29 9 8.76564 9.98071 13.7152 0.00256291 0.0158308 -5.81002e-05
338 29 20 9.28197 9.15323 14.4555 -0.00927869 0.00956991 -0.00436851
340 29 19 7.47692 9.86868 13.2677 0.00665599 -0.00737231 -0.00745336
567 48 11 8.71131 5.57062 11.3348 0.0820389 -0.0438052 -0.0168563
296 25 11 10.9178 3.48138 13.8563 0.0189995 0.0265264 -0.0414107
291 25 19 10.0301 5.49811 14.1379 0.00198299 0.00748968 -0.0107652
603 52 19 11.2061 7.64758 12.5067 0.00615939 -0.0120086 -0.0134493
601 52 9 12.5397 7.52254 12.1544 0.00541338 0.000486821 0.00382861
605 52 2 12.236 9.29394 11.279 0.00669772 0.00160123 0.00134506
604 52 19 13.079 8.40493 11.3769 -0.00955927 -0.00514608 0.0145379
608 52 11 10.5605 8.00502 10.4479 0.00337572 -0.0312012 -0.0179238
606 52 2 11.0282 8.43866 11.3674 0.0105355 -0.00106075 0.000579375
607 52 11 10.1729 9.06156 11.6395 -0.0101339 0.0262926 0.0255981
610 52 11 12.3502 10.0969 11.9428 0.0348275 0.00864672 -0.00446422
602 52 20 13.2684 6.84028 12.9242 -0.00268613 0.00478831 0.000471945
550 46 11 18.021 5.80021 10.9419 0.0107012 -0.00817347 -0.00545307
545 46 2 17.4209 5.83235 10.0873 0.0081534 0.010054 -0.00463233
544 46 19 17.8245 5.60494 8.75121 0.00316421 -0.0137935 -0.00505696
422 36 20 19.1508 6.55536 12.7319 0.00355144 -0.00439883 0.00762347
421 36 9 19.4052 7.25815 13.677 0.00759065 -0.0142219 -0.0102109
426 36 1 17.4137 6.86641 15.1543 0.00265068 -0.000458172 0.0102266
430 36 11 16.7114 7.43101 15.6289 0.00183055 0.033008 -0.00729328
424 36 19 18.28 7.73387 14.5972 0.00650294 -0.00558617 0.0198145
431 36 11 17.9943 6.52824 15.8696 -0.0223741 0.0202059 -0.0742726
359 30 11 2.50213 10.1351 8.59745 0.0235103 0.0212855 0.0397994
590 50 11 3.46177 12.6811 10.1491 -0.00662265 0.0393784 0.0182079
589 50 11 2.73557 13.6142 11.5766 0.000961393 0.0721464 -0.0175247
350 30 20 4.69003 9.91121 8.8645 -0.00352189 0.00799127 -0.00713786
583 50 19 2.07399 15.2451 9.45108 0.00111424 -0.00421617 0.00795141
585 50 2 2.79971 13.4276 10.4418 -0.00486173 0.00457013 -0.015187
588 50 11 4.15758 14.863 9.38524 -0.0541562 0.0538213 -0.0246252
586 50 2 3.28087 14.7338 9.9477 -0.00106323 0.0026897 0.0141375
587 50 11 3.29288 15.4744 10.8416 -0.00685782 0.00389738 -0.00177793
318 27 1 2.17273 12.2456 14.6431 0.00441754 -0.0107697 0.000500542
323 27 11 1.80665 12.9565 13.8482 -0.00875979 -0.071768 -0.0137675
316 27 19 3.68865 12.5212 14.7682 0.00189868 0.0041241 0.0139477
322 27 11 2.24887 11.2834 14.2388 -0.0642749 0.00362056 -0.0171592
314 27 20 4.74175 12.0585 12.6857 -0.00302045 0.0076718 -0.00238107
313 27 9 4.19382 12.8394 13.4749 -0.00464142 -0.00182588 -0.00138109
315 27 19 4.65108 14.0719 13.6405 0.00447447 0.00243962 0.00623443
154 13 11 6.97701 11.4802 11.5451 0.00733956 -0.0181987 0.0169562
339 29 19 9.32227 11.0171 13.1356 0.00345752 0.0134054 -0.00971822
150 13 1 7.01164 12.2487 10.7097 0.00241974 -0.00224243 0.0023359
148 13 19 8.07363 12.3263 9.79742 -0.0101756 -0.00216477 0.00173549
146 13 20 9.90738 10.9453 10.3468 0.0116379 -0.00293904 -0.0160028
156 13 11 7.26549 13.0487 11.4937 -0.0409052 0.0237557 -0.00989363
155 13 11 6.08234 12.4721 10.4108 -0.00504766 0.0530148 -0.0321032
341 29 1 10.1792 11.6778 14.0246 -0.00236017 -0.000636941 -0.00905512
456 38 11 6.21871 13.3332 15.0759 0.00307727 0.0260891 0.0210587
445 38 9 8.79925 15.0392 15.3821 -0.00406974 0.0237979 0.00866583
345 29 11 9.46508 12.1692 14.7514 0.0168046 -0.0169623 0.023973
452 38 11 10.9795 13.5257 15.6706 0.00189128 -0.0221284 -0.0433507
454 38 11 7.14077 11.9593 15.3627 0.0565877 0.0278655 0.0154951
450 38 1 7.27632 12.9566 15.1047 0.00483221 0.000699462 0.000813135
147 13 19 9.96349 13.1576 10.7605 -0.00406721 0.00331505 -0.00985756
145 13 9 9.29809 12.0587 10.4053 -0.00517639 -0.000900946 0.0186032
343 29 11 10.9239 12.3553 13.5074 0.00686447 -0.0246717 -0.0344496
36 3 11 14.2725 10.5365 13.6027 -0.0714803 0.0672857 -0.0323491
149 13 1 11.1686 13.1732 11.3928 0.0153129 0.00520023 -0.00783465
153 13 11 11.5419 12.2614 11.781 0.11133 -0.0191241 0.0164372
151 13 11 12.0947 13.3301 10.8278 0.016156 -0.00432662 0.0131692
35 3 11 13.8563 11.7061 12.1631 0.0247593 -0.0204393 0.0539953
30 3 1 14.5965 11.2577 12.8658 0.00486677 -0.00996402 0.00576533
34 3 11 14.8958 12.1732 13.325 -0.0115876 -0.032521 0.0350113
26 3 20 15.5969 8.65895 12.8501 -0.00889137 -0.00721601 -0.00101276
9 1 11 16.6917 12.0177 8.64968 0.0107884 -0.0188632 -0.0328856
5 1 1 17.6608 12.2799 9.10944 0.0134684 0.00449142 0.000435987
7 1 11 17.6218 12.4454 10.1578 0.0108273 -0.0077677 -0.00711176
25 3 9 16.2657 9.53976 12.4526 -0.0074458 0.0053134 -0.00148193
32 3 11 18.2271 10.7659 14.1434 0.0314104 0.0902443 0.0193331
31 3 11 17.6258 11.5143 12.688 0.00323017 0.0211612 0.0470993
27 3 19 17.7181 9.55621 12.6781 0.00408916 0.00451647 -0.00119338
29 3 1 18.1917 10.779 13.0842 0.000227301 0.00208968 0.00480816
33 3 11 19.1996 10.8686 12.8148 0.0400643 0.00332348 0.0376945
28 3 19 15.7177 10.7379 12.1006 -0.00330764 -0.0069721 -0.00251768
526 44 11 19.4368 13.5693 13.003 0.0412157 0.00318335 0.0545101
522 44 1 18.8331 14.2901 13.3935 0.00646217 -0.0106173 -0.00897885
262 22 11 13.9092 14.0268 12.977 -0.0356143 -0.0394732 -0.000753549
527 44 11 18.2943 13.6566 14.0794 -0.0236294 -0.0367742 0.00668541
434 37 20 4.72236 17.7703 10.4385 0.00652439 0.00984635 -0.0131429
317 27 1 3.73199 15.0979 13.7765 -0.0101575 0.0101766 0.000655446
321 27 11 4.25175 16.0109 13.7655 -0.0218651 -0.0310012 -0.0128908
443 37 11 2.75734 19.8243 12.7291 0.0164197 0.0297084 0.00269266
444 37 11 1.87016 18.7057 13.4242 -0.0217204 -0.0433074 -0.0105338
438 37 1 2.84819 18.9195 13.1886 -0.00388892 -0.0133962 0.00490407
442 37 11 3.3554 18.9098 14.1648 -0.0206561 -0.0195084 0.0164872
436 37 19 3.2348 18.002 12.2503 -0.000880352 -0.0028809 0.00206132
433 37 9 4.56639 18.0821 11.653 -0.0115585 -0.000751109 -0.0026907
319 27 11 3.09438 15.3478 13.0732 0.00897103 0.00172107 -0.0274193
519 44 19 19.4139 16.8247 12.1857 0.00222653 0.00918964 0.00763882
92 8 11 7.42588 0.636425 11.5738 -0.0243474 0.00737504 -0.00771256
494 42 20 7.88168 15.635 10.4008 -0.00166 0.00242526 -0.00689094
447 38 19 9.86519 15.1365 14.473 0.00336662 -0.00848059 0.0042199
435 37 19 5.61538 18.1555 12.5126 0.00640477 -0.0124249 -0.00620023
441 37 11 7.31385 17.2398 11.691 0.00619784 0.017202 0.0278243
437 37 1 6.46575 17.0209 12.427 -0.0164024 0.00782687 0.00557004
439 37 11 6.97708 16.6952 13.2678 0.00814483 0.0136695 0.00245066
440 37 11 5.7967 16.154 12.2251 0.0270041 0.0181106 0.0475724
453 38 11 11.811 15.0286 15.8998 0.00182724 0.0029984 -0.0425986
710 62 11 9.7431 17.747 12.4813 -0.0408709 0.000389756 -0.0189121
449 38 1 10.9819 14.555 15.288 -0.00709212 -0.0141039 0.0027011
451 38 11 11.7409 14.2869 14.4803 -0.0166938 0.0365783 -0.0427623
708 62 11 12.2088 16.8843 13.8239 -0.00252329 -0.0142562 0.00909793
707 62 11 11.7057 16.5882 12.2125 -0.00710713 -0.0345238 0.0335368
706 62 2 11.8441 17.3408 12.8705 0.00631691 0.0199188 0.00134917
157 14 9 13.7605 19.8294 15.5867 -0.0128642 -0.00828255 0.00398532
158 14 20 12.8374 19.0651 15.2631 0.00466539 0.00752507 0.000388053
165 14 11 15.1109 18.4169 14.3697 0.0542418 -0.00842567 -0.0221109
164 14 11 14.8844 19.6547 13.0326 0.0262454 0.00180526 -0.033375
263 22 11 14.2948 15.2622 11.8533 -0.0143593 -0.0210241 -0.00542984
528 44 11 19.44 14.8733 13.9825 -0.0236097 0.00665446 -0.00843996
408 34 11 0.461259 19.3003 15.4018 0.0347468 0.0593165 0.0104624
256 22 19 14.6131 15.9625 13.8022 -0.000165674 -0.00955572 -0.00613307
264 22 11 15.5532 14.5915 12.9494 0.0255981 0.0359045 0.039658
258 22 1 14.61 14.9301 12.7494 -0.00889469 0.000545404 -0.0115124
517 44 9 18.1121 16.2379 12.5183 0.00812014 -0.00525489 0.00429498
520 44 19 17.9868 14.8109 12.4827 0.00341884 -0.00305559 0.0171325
518 44 20 17.0408 16.9334 12.3463 0.00376286 -0.00423938 0.00195811
159 14 19 14.7116 0.278724 14.7526 0.00362942 -0.00985633 -0.00272243
161 14 1 15.3558 19.4436 13.9798 -0.00191228 0.00472017 0.0118124
163 14 11 16.4376 19.7114 13.8588 0.00320818 -0.0194571 -0.0309162
420 35 11 2.54112 0.457862 15.8498 0.0118994 0.0273931 0.0354694
144 12 11 3.59639 1.27628 19.3954 -0.0244087 0.0376985 0.000183442
138 12 1 3.81107 1.32236 0.37422 -0.00218431 -0.00690544 0.0158593
419 35 11 2.26385 2.16468 15.8167 0.0267158 -0.0162609 0.0156231
414 35 1 3.00852 1.39758 16.1159 -0.0125582 0.00428413 -0.0119696
418 35 11 3.38987 1.50507 17.0802 0.0250742 0.0197571 0.0113367
412 35 19 4.00692 1.54087 15.1698 -0.00633341 0.00628471 -0.000735381
647 56 11 4.53357 5.26188 18.8948 0.0605654 -0.00522712 0.00627469
646 56 2 4.49609 4.34362 18.3119 0.00113866 -9.11885e-05 -0.0057689
643 56 19 3.97398 4.26099 16.9852 -0.00898008 0.00574806 -0.0116283
749 71 26 0.600559 3.16959 17.7159 0.00104749 -0.000676938 -0.00217463
409 35 9 5.00089 0.493885 15.3044 -0.00349214 -0.0130659 -0.00249494
731 65 31 18.3393 1.38933 18.8265 -0.0066871 0.0114226 0.015145
747 71 26 19.9207 1.78574 19.1999 0.00144877 -0.00805118 -0.000139066
743 71 27 0.152107 3.29283 19.1037 -0.00437609 -0.0034256 0.00123795
648 56 11 3.88032 3.69857 18.7464 -0.00585831 0.00465061 -0.0112689
744 71 26 1.61521 3.16712 19.5598 -0.00486854 -0.00532044 -0.00131382
410 35 20 4.95182 19.9089 16.3363 0.00156362 0.00559137 -0.00363994
300 25 11 9.99583 3.82154 16.3295 -0.0083699 -0.0288913 0.0032762
294 25 1 9.01625 3.36762 15.8831 -0.00672047 -0.0154689 -0.00421769
292 25 19 8.3418 3.60212 14.6447 -0.00676833 -0.00176389 0.00553864
642 56 20 5.42083 4.5341 15.2466 0.000871794 0.0067706 -0.0160476
298 25 11 8.52151 2.83705 16.6013 -0.00317323 0.0158436 -0.0024024
760 73 26 8.8943 2.93571 19.0015 -0.00406399 -0.000696378 -0.013284
763 73 26 8.97818 0.963553 18.3991 0.000573215 0.0135601 -0.0059253
757 73 27 9.63311 1.79534 19.6235 0.00377043 -0.00569177 0.0116373
641 56 9 5.07594 3.97674 16.2607 -0.0111415 -0.00662414 0.00281416
299 25 11 9.50373 2.43962 15.606 -0.0167778 0.00424888 -0.00735472
650 56 11 6.05781 2.73549 18.324 -0.0367257 0.0512896 0.00777731
645 56 2 6.04496 3.85463 18.2724 0.0102835 -0.0015871 -0.00497851
644 56 19 6.17459 3.45907 16.9636 0.00195781 -0.00884867 -0.000628366
466 39 11 9.6996 19.8065 16.1821 0.0088209 0.000622624 0.0102471
468 39 11 8.22089 18.6301 16.2152 -0.0598049 -0.0127792 0.00435308
162 14 1 12.3388 1.45916 16.2155 0.0130849 0.00811578 -0.0143895
166 14 11 12.2132 1.896 15.1779 0.061407 0.0307613 -0.0355509
160 14 19 13.4365 0.693807 16.6841 0.00354707 0.00418092 0.00376774
758 73 26 10.9648 2.07318 18.8745 -0.0105071 0.00533779 -0.000319945
194 17 20 13.7946 4.44789 17.5039 -0.00471289 -2.17132e-05 -0.0120703
196 17 19 14.8133 5.92894 15.9705 0.00113432 0.010589 0.00533418
195 17 19 15.0906 3.49734 15.9452 0.00752617 0.00318671 0.00674461
193 17 9 14.467 4.58958 16.5065 0.00837148 -0.00293808 0.00481247
732 66 31 11.8178 2.07784 0.604997 0.0132313 -0.0144046 0.00538176
201 17 11 16.51 3.04315 17.4844 0.0542961 0.0203187 -0.0661252
171 15 19 15.0588 3.00649 19.9356 -0.00701735 -0.00329254 0.00747993
173 15 1 16.1145 3.24464 0.873142 -0.00795812 0.00544386 -0.000878521
177 15 11 16.8344 4.01556 0.544051 0.012703 -0.0145974 -0.000865041
176 15 11 16.6843 2.35761 1.06072 0.00223476 0.0453857 0.0399968
623 54 19 18.9884 1.616 15.1291 0.00695708 -0.00280419 0.00213211
626 54 2 18.2734 2.77497 14.7997 0.00942477 7.19122e-05 -0.000714918
628 54 11 17.512 3.31502 15.3708 -0.000500689 -0.0297752 -0.0378976
748 71 26 19.6837 3.47636 0.545912 0.00163644 -0.00680471 -0.00566349
200 17 11 14.9881 2.38047 17.7127 0.0100796 -0.0714195 -0.0227265
199 17 11 15.9265 1.74205 16.358 0.0430791 -0.0215828 -0.0121959
753 72 26 17.5008 0.0375446 19.0904 0.00210096 -0.00193152 0.00872807
197 17 1 15.7154 2.61577 16.9523 0.0107695 0.0051154 0.0183087
745 71 26 18.611 3.39227 18.7672 -0.000313859 -0.00721832 -0.00851306
672 59 20 1.57391 8.04231 0.370716 -0.00747808 0.00198834 -0.00335936
671 59 9 2.71855 7.90753 0.839284 0.0169696 -0.0192907 -0.00251134
673 59 19 3.68036 7.08888 0.349008 0.0201855 -0.00539891 0.0111083
676 59 2 4.84962 7.61237 1.04 -0.00294033 -0.00157843 -0.0137718
678 59 11 4.95689 7.75729 -0.00460099 0.0242063 -0.0209273 -0.0118869
275 23 11 0.80465 6.41701 16.6232 -0.0276731 -0.0352873 -0.0392081
270 23 1 1.75259 6.21577 17.0303 -0.00503451 0.00378735 -0.00293294
274 23 11 1.76117 5.16906 17.0497 0.0443665 0.0331775 0.00804181
268 23 19 2.74556 6.48034 16.0194 0.00130039 0.00468199 0.00278607
265 23 9 3.59749 7.63601 15.9754 -0.00515586 0.00535007 0.00571111
266 23 20 3.14495 8.65906 15.487 0.0106693 0.008488 0.00608929
768 74 26 0.133741 9.64622 18.5746 -0.00324877 0.0132046 -0.00020402
766 74 26 19.0189 9.01221 16.8879 -0.000205637 -0.000885492 -0.00164804
267 23 19 4.93464 7.29621 15.7034 0.0158852 8.92399e-05 0.000966347
746 71 26 0.466347 4.80969 19.0825 0.00134463 0.0114222 -0.00899217
649 56 11 6.63974 4.12085 19.2871 -0.0504011 -0.00917634 0.0468252
713 63 19 9.78988 6.86129 19.676 0.00305321 -0.00534954 0.00228725
716 63 2 10.0169 7.55537 18.4156 -0.00813965 -0.0171121 0.00331156
717 63 11 8.99448 7.70205 18.0328 -0.000540585 -0.0810671 -0.00172194
677 59 11 5.72132 7.19711 1.41058 0.0540524 -0.00341695 0.00603883
269 23 1 5.73746 7.40422 16.7634 -0.000876457 -0.00651495 -0.00455545
271 23 11 6.52878 8.18548 16.4624 -0.0168072 0.00317118 0.0180616
272 23 11 6.12655 6.49804 16.8537 -0.0515102 -0.0139814 0.0742036
273 23 11 5.33798 7.49651 17.8047 -0.0707523 -0.00479825 -0.0239807
714 63 19 10.8066 5.21557 18.4712 -0.00506674 -0.000613188 0.0124162
715 63 2 10.4332 6.3335 17.7707 0.00228545 4.95076e-05 -0.00383282
720 63 11 9.52048 5.73741 17.4927 0.0416338 0.0256101 -0.0242344
719 63 11 10.7522 6.43673 16.7953 -0.0258892 0.000300205 -0.0131474
711 63 9 10.5423 5.72495 19.7754 0.00652993 0.0102113 -0.00231191
386 33 20 6.44602 9.24882 18.741 0.00452813 -0.00154584 0.012087
599 51 11 15.433 9.98546 19.1119 -0.00136365 0.0333255 0.0344827
712 63 20 10.3801 5.09177 0.892579 -0.000328836 -0.00127051 0.00681392
202 17 11 13.9607 7.71645 15.4683 -0.0433823 0.00519546 0.0112828
204 17 11 13.0588 6.85891 16.7521 -0.0133874 0.0449789 -0.0624681
203 17 11 12.985 6.36946 15.0242 0.0386085 0.0273559 0.018919
198 17 1 13.6643 6.7137 15.8824 0.000890215 -0.0090736 -0.0129771
598 51 11 13.8385 7.92996 19.0332 -0.0242595 -0.0235346 0.051187
596 51 2 14.8174 7.78335 19.491 0.00362185 0.00196618 -0.000749533
22 2 11 15.6866 9.11527 15.3198 0.0228123 0.0233443 -0.0329138
741 70 26 12.9535 9.27581 17.1352 0.00198186 0.000413605 0.00750305
591 51 9 16.9468 6.94851 19.063 0.0340209 -0.0189954 -0.00776093
432 36 11 16.8979 6.10014 14.675 -0.02441 -0.0333203 0.012231
594 51 19 17.1957 8.32822 19.0856 -0.0131894 0.00185834 0.00486311
595 51 2 15.8169 8.92991 19.2294 0.0194917 0.00449649 -0.00159823
600 51 11 16.601 9.08645 0.0192251 0.00212215 0.0291689 -0.0227723
24 2 11 15.2672 9.91594 16.8784 0.0347274 -0.0327076 -0.0147149
324 27 11 1.65958 12.4735 15.5004 -0.0247828 -0.0462719 0.0117424
770 74 26 1.03074 9.77892 16.6266 -0.00454856 -0.00315715 -0.0015369
395 33 11 3.45638 11.4549 18.1453 0.028608 0.0282213 -0.029194
396 33 11 3.7756 9.78699 18.2738 -0.00142828 -0.000251845 0.00029688
765 74 26 0.670812 11.5495 17.7767 0.00804187 -0.00217631 -0.0145778
764 74 27 19.8328 10.3506 17.2757 -0.00297634 -0.00159924 0.0130621
390 33 1 4.21901 10.7653 18.2392 -0.0127627 0.00333927 -0.00912895
663 58 19 4.82656 14.4713 19.8961 -0.000669059 0.00382939 0.00487984
394 33 11 4.7079 10.8388 17.1548 -0.0334371 -0.034054 -0.0196664
769 74 26 18.7043 10.6945 18.1938 0.00944556 -0.00885373 0.002396
767 74 26 19.2922 11.4166 16.2592 0.007787 -0.00333581 -0.00175425
99 9 19 1.77573 15.8436 0.135609 0.000804799 -0.00762174 0.0213349
455 38 11 7.62556 12.8498 14.0035 0.0258525 0.00843535 -0.0202142
388 33 19 5.21923 11.0881 19.2219 -0.0165053 -0.0102527 0.0026375
448 38 19 8.33053 13.6835 15.9369 0.00227493 -0.00535319 0.00474629
385 33 9 6.43298 10.4542 19.0551 -0.00018083 -0.00470698 -0.00139705
387 33 19 7.46221 10.9349 19.812 0.000345163 -0.00729871 -0.00423623
389 33 1 8.71776 10.7147 19.1825 -0.00998837 -0.00227148 0.00582947
391 33 11 9.58475 10.8036 19.9878 0.00271777 -0.0206861 -0.0470928
392 33 11 8.71093 11.5911 18.517 -0.0249754 0.000300039 -0.0293817
393 33 11 8.90485 9.68659 18.7547 -0.0450198 -0.0111892 -0.00683033
80 7 11 12.8274 14.0328 17.8672 -0.0447241 0.00673096 -0.00371033
344 29 11 10.7997 11.2464 14.7236 -0.0302574 -0.00124921 0.00948153
738 70 26 11.731 10.2341 18.657 0.00537369 -0.00228021 -0.00408114
739 70 26 10.9906 9.95816 16.5331 0.00514026 0.00159636 0.00517491
742 70 26 11.2679 12.0032 17.1959 0.00890677 -0.0035143 -0.00817436
736 70 27 12.1105 10.6521 17.3133 -0.00345908 -0.0100956 -0.017584
740 70 26 13.2485 11.4558 17.8669 0.00438956 0.00816981 0.00280587
737 70 26 12.7007 11.066 15.9855 0.00734035 -0.00315806 0.0172705
20 2 11 14.7716 13.2672 18.1821 -0.0578641 0.0249778 0.0215123
77 7 1 12.2382 14.7726 18.2333 0.00898799 -0.00322384 -0.00541698
81 7 11 12.7136 15.6701 17.8394 0.0388646 -0.0736951 -0.0333793
69 6 11 18.5178 10.1537 1.64212 -0.0244947 -0.0389983 0.00122499
108 9 11 18.9757 13.5195 17.8225 -0.0311642 0.0189085 -0.0381038
23 2 11 16.9894 9.27606 16.2109 -0.0192997 -0.0611118 0.0353312
18 2 1 16.0855 9.81053 15.989 0.0200276 0.00592024 -2.58934e-05
13 2 9 16.2982 12.2542 16.1625 -0.00449516 0.0194783 -0.013899
16 2 19 16.0464 11.1295 15.4019 -0.00547694 0.00898872 -0.00254318
15 2 19 16.3505 12.0512 17.6121 0.00835123 -0.0029994 0.00809028
17 2 1 15.76 13.0396 18.4112 0.00517751 -0.0021056 -0.00702339
19 2 11 15.6017 12.5766 19.3544 -0.0504454 0.0193635 0.0431286
14 2 20 16.9307 13.2148 15.6777 -0.0108226 -0.00162823 -0.00669093
107 9 11 18.198 14.9403 18.1647 0.0413497 -0.0150707 0.0178195
102 9 1 18.9957 14.366 18.5215 0.0203965 0.0105206 0.0032618
100 9 19 0.209328 14.9596 18.4999 0.00211173 -0.00418224 0.00090839
143 12 11 2.99232 1.36476 1.01121 -0.0153899 0.0176457 0.00200544
400 34 19 0.217984 17.399 16.3439 0.00649991 0.00306978 0.00243677
320 27 11 3.10649 15.0707 14.6605 0.023708 -0.00133237 -0.00163705
142 12 11 4.47801 0.376615 0.368884 -0.0289555 -0.000226455 -0.0222965
668 58 11 3.76035 13.702 18.7275 0.0472195 0.0214138 -0.0247712
666 58 2 4.35757 14.7397 18.6446 -0.00767887 -0.000600427 0.00341295
398 34 20 1.43703 16.5221 14.6159 -0.0171761 0.00358734 -0.00374157
397 34 9 1.43253 17.0957 15.7743 -0.00110372 -0.00657242 0.00259271
399 34 19 2.64882 17.2998 16.3622 -0.0008632 -0.00408546 -0.00757362
401 34 1 2.74603 17.9177 17.5661 0.00524543 0.0100059 0.0082364
405 34 11 3.79174 18.0888 17.8231 -0.00050741 -0.0114486 0.0511292
403 34 11 2.15312 18.8319 17.411 -0.0550599 -0.0136326 -0.00225419
667 58 11 3.75188 15.5015 18.3006 -0.00358864 0.0201498 -0.0110776
404 34 11 2.54262 17.3466 18.4578 0.024023 0.0391974 0.00119157
670 58 11 5.94861 15.7937 17.5103 0.00684632 0.0305033 0.00127674
406 34 11 18.7838 18.9768 16.1548 0.00998989 0.0179654 -0.0187373
97 9 9 0.555018 16.0089 19.5051 -0.00445937 0.0145236 0.00841679
98 9 20 0.184751 17.1575 19.3195 -0.0050363 0.0139413 -1.69314e-05
236 20 11 7.36678 18.3956 18.0003 -0.0454398 -0.02492 0.0142412
411 35 19 5.73326 0.355814 14.1673 0.00594254 -0.000235499 0.00213767
446 38 20 7.9259 15.8235 15.0791 -0.0046367 0.00367214 -0.0122445
669 58 11 5.2384 14.4354 16.7865 -0.00316785 0.0104739 0.0102155
661 58 9 6.05375 13.9004 19.6564 0.00214911 -0.00375276 -0.00770216
664 58 19 6.31428 13.7715 18.302 -0.00682239 -0.00064894 -0.00719113
665 58 2 5.60135 14.7675 17.7537 0.00825112 -0.00933644 0.0136836
467 39 11 8.66279 18.9228 14.9504 -0.00759056 0.0287036 -0.0149179
458 39 20 9.63259 17.2546 17.8088 0.00172701 -0.0097592 0.00949657
237 20 11 6.58064 19.2969 19.442 -0.00875372 -0.0136523 -0.00504205
235 20 11 8.04645 18.3125 19.496 0.00698743 0.0133889 -0.114907
233 20 1 7.06815 18.3639 19.0434 0.00474454 0.00114162 0.00238622
460 39 19 10.2023 17.9873 15.8532 0.00810732 0.00761163 0.00930551
462 39 1 9.16547 18.8734 15.7557 -0.00510804 0.00190502 -0.00366475
457 39 9 10.5155 17.6001 17.0589 9.14117e-05 0.00092728 0.0123835
75 7 19 12.1399 14.5723 19.6111 -0.00773473 -0.0146746 0.0104387
752 72 26 15.4044 0.0194209 18.8412 0.0122809 0.00107553 -0.00376218
79 7 11 11.3086 14.6576 17.7736 -0.0365946 -0.0050679 -0.0471118
459 39 19 11.8529 17.851 17.5487 0.00562003 0.00057114 0.0206486
465 39 11 12.2592 19.536 18.5543 0.0300693 -0.0381995 0.0479864
254 22 20 13.9793 14.3924 15.3058 0.00812259 -0.00302443 -0.00131787
464 39 11 12.8143 17.8195 19.288 -0.0155009 -0.0372838 -0.0176693
461 39 1 12.0271 18.4036 18.7936 0.000779561 -0.00285276 -0.013636
463 39 11 11.2924 18.3044 19.5731 -0.00870047 0.0453011 0.0269641
754 72 26 15.4977 17.8413 18.2803 0.00206494 0.00370867 -6.68369e-05
402 34 1 19.7763 18.5214 15.7103 0.00773058 -0.0102848 -0.0060354
261 22 11 17.4382 16.0512 16.4825 -0.00245057 -0.0195335 -0.046713
259 22 11 16.8952 15.6838 14.684 0.0072984 0.0230735 0.0203307
21 2 11 16.4672 13.7685 18.6543 0.0225514 -0.0092555 -0.0291154
407 34 11 19.4235 18.3061 14.6265 -0.0343934 -0.010814 -0.0116087
253 22 9 14.479 15.4867 15.1091 0.00170028 -9.34948e-05 -0.00335841
255 22 19 15.3815 16.0692 16.0476 -0.0157746 -0.00177113 -0.00348108
257 22 1 16.7156 16.2697 15.6103 0.00769814 0.00501705 0.012628
260 22 11 16.8011 17.4142 15.3451 0.0237405 -0.0206793 -0.0181677
750 72 27 16.5217 18.9635 18.6674 0.00387049 0.0113027 0.000492647
106 9 11 18.5616 14.1189 19.3817 -0.0508635 -0.00648894 0.0203502
756 72 26 16.6454 19.4973 17.2124 0.000872383 0.0016071 0.00515642
751 72 26 17.6624 18.0492 18.4003 -0.00875724 0.00451505 0.000357346
ITEM: TIMESTEP
2000
ITEM: NUMBER OF ATOMS
770
ITEM: BOX BOUNDS pp pp pp
0.0000000000000000e+00 2.0000000000000000e+01
0.0000000000000000e+00 2.0000000000000000e+01
0.0000000000000000e+00 2.0000000000000000e+01
ITEM: ATOMS id mol type x y z vx vy vz
136 12 19 4.95577 1.90192 0.285463 0.00296709 -0.0129365 -0.00251169
59 5 11 0.940095 0.304122 4.96115 0.00243117 -0.0290202 0.0105625
52 5 19 1.56918 1.9772 4.5674 0.00805046 -0.000713779 -0.00246059
49 5 9 2.71053 2.74898 4.2512 0.00855205 -0.0109152 0.00481024
51 5 19 4.07203 2.26334 4.18389 0.00209123 -0.00423312 0.00158876
50 5 20 2.45399 3.9594 4.02324 0.00115411 -0.00230202 -0.00235033
133 12 9 5.60034 2.09919 1.55373 -0.00401107 -0.0100185 -0.0068897
135 12 19 5.83106 3.48984 2.0665 -0.00321796 0.0115013 -0.00800689
116 10 11 19.1376 0.912764 3.41764 -0.0134708 -0.0144972 0.007706
134 12 20 5.88052 1.07941 2.16606 -0.00504612 0.0025121 0.0109941
508 43 19 8.67779 0.712175 3.52854 -0.00419892 0.00907404 0.00879414
505 43 9 9.05796 2.08165 3.70634 -0.00759698 0.00641753 0.00474177
137 12 1 4.70985 4.29734 1.93203 0.00152985 0.00725063 0.000816662
140 12 11 4.87544 5.11915 2.71415 0.0191823 -0.00869927 -0.00769631
56 5 11 6.06243 2.4256 5.04569 -0.023982 -0.0254458 -0.00998153
762 73 26 10.225 2.36636 0.880859 -0.00592592 -0.0131295 0.00369182
141 12 11 4.53187 4.68607 0.936657 -0.0588953 -0.0102205 0.00263964
139 12 11 3.80394 3.96643 2.17976 -0.0218568 0.0201837 -0.0451382
734 68 31 7.77953 3.87962 2.06679 -0.00352486 0.00461148 0.0178377
759 73 26 8.42586 1.27465 0.609919 -0.00698364 -0.00120204 -0.00937026
761 73 26 10.226 0.407202 0.124432 -0.000293499 0.00469835 -0.00292964
507 43 19 10.5007 2.19616 3.97959 0.00438831 -0.00106768 -0.00149817
132 11 11 11.6735 19.5132 4.49414 -0.0126112 0.0335419 -0.0244258
170 15 20 13.0841 2.60761 1.18301 -0.0166576 -0.0024088 -0.00314683
169 15 9 13.7771 3.49272 0.604564 0.0035173 0.00157764 -0.0054481
174 15 1 12.8759 5.15315 2.02717 -0.000236312 -0.00972853 -0.0170947
172 15 19 13.6521 4.75694 0.840195 -0.0105927 0.0109553 0.00378498
130 11 11 12.7616 18.9066 3.29547 0.0250967 0.00324573 0.0202094
124 11 19 12.6653 1.00103 3.79868 0.00815306 0.00521424 0.00293617
513 43 11 11.6424 3.68207 4.48025 -0.0322712 0.0145395 0.0529192
178 15 11 11.9724 4.41923 2.43031 0.0244337 -0.0137533 0.00572723
126 11 1 12.6831 19.6081 4.11591 -0.017926 -0.0118119 -0.00402204
121 11 9 14.0096 1.39443 4.13048 0.00806341 -0.00263361 -0.00393791
179 15 11 12.6856 6.19906 1.85385 -0.0120388 -0.0186663 0.0339139
131 11 11 13.1059 19.0865 4.90896 0.0282807 0.0406914 0.0242001
180 15 11 13.5227 5.29313 3.00454 0.00374364 -0.0124399 0.00877736
113 10 1 18.9981 1.92481 3.10893 0.00833618 0.00810116 0.0111455
115 10 11 18.5779 1.71761 2.06286 -0.0457238 0.013982 0.0182379
117 10 11 19.8992 2.36692 2.76101 -0.0272938 0.011019 0.0214865
175 15 11 15.9858 3.74122 2.05292 -0.0329619 -0.0126257 0.0219796
109 10 9 18.0053 3.57353 4.45277 0.00890387 -0.00105621 0.00825137
111 10 19 17.8695 2.70495 3.38551 -0.0125765 -0.00928534 -0.00104247
123 11 19 14.9141 1.38553 3.06297 0.00930943 -0.00188741 0.0144829
128 11 11 15.3973 19.2944 2.51301 0.00261056 0.0233794 -0.0188199
38 4 20 2.22093 7.13285 3.61769 0.00873499 -0.000459474 0.0103427
674 59 19 2.92283 9.03427 1.49776 -0.0013042 -0.00643661 -3.60193e-05
680 59 11 4.84034 9.76803 1.43855 0.0357271 0.0070082 -0.0151178
675 59 2 4.32357 8.85782 1.64026 0.000566884 0.00360273 -0.00669274
37 4 9 1.95834 7.98257 4.42484 0.0128316 -0.00610417 -0.0159224
39 4 19 3.00695 8.99692 4.76702 -0.00407213 0.00200198 0.00523802
44 4 11 3.61523 10.731 4.7774 0.00293221 0.00334817 -0.0286577
41 4 1 2.67045 10.2162 4.61409 0.000452897 -0.00862424 -0.011955
333 28 11 18.3617 6.09257 2.22754 -0.0117762 -0.0154528 -0.0424825
45 4 11 2.46873 10.4957 3.55913 0.0399728 0.0308108 0.01652
679 59 11 4.41138 8.5424 2.7264 -0.00497414 0.00465393 0.0344846
205 18 9 8.46373 6.71833 3.01821 0.00804278 -0.0005238 0.00659323
206 18 20 7.79492 5.76537 2.47138 0.00501634 0.0017105 -0.00617394
210 18 1 8.48143 9.19465 2.62526 -0.00921492 -0.00053287 -0.0197635
215 18 11 9.56682 9.21918 2.52236 -0.000159604 -0.0200784 -0.00290468
208 18 19 7.92613 7.99098 3.26443 0.0089077 -0.00554934 -0.00490134
216 18 11 8.18594 9.57373 1.69764 -0.0332914 0.0264906 -0.0168883
214 18 11 8.15041 10.1404 2.95154 -0.00818159 0.0344228 -0.0208727
718 63 11 10.2408 8.12257 18.4779 0.0268137 0.00693818 0.0345426
491 41 11 5.45604 8.1265 6.1241 -0.0434155 -0.0201578 0.012928
490 41 11 5.18658 7.06893 4.9 -0.0484601 -0.00329063 -0.00113411
207 18 19 9.86223 6.62317 3.05954 0.00791624 -0.00990436 -0.00795707
209 18 1 10.6503 7.25829 3.97702 -0.00489719 0.00918915 0.0029844
213 18 11 11.6634 6.74224 3.90207 -0.0500584 -0.0105437 0.0593059
212 18 11 11.2048 8.12789 3.63239 0.0205054 0.0285004 -0.0334889
593 51 19 15.6699 6.60421 19.0465 -0.0017359 -0.00369964 0.00079544
211 18 11 10.5044 7.10989 5.00449 0.0243076 -0.0423474 0.0383916
597 51 11 14.8349 7.52961 0.356774 -0.0428962 -0.0266011 0.023591
335 28 11 14.8511 6.85453 4.1906 -0.0325093 -0.0250085 -0.034068
336 28 11 13.7137 7.33158 3.31029 -0.00963985 0.0192859 0.00109064
334 28 11 14.8881 6.85588 2.40176 0.0701804 -0.0208673 -0.00483148
592 51 20 17.8268 6.41838 18.3068 0.00306855 0.00776656 0.00514102
332 28 11 19.2545 7.20668 2.61042 -0.0128296 0.0280732 0.00665669
331 28 11 18.3497 6.33628 3.92224 0.048527 -0.00853508 -0.0416354
329 28 1 18.3356 6.79762 2.94722 -0.0120639 0.00131418 0.0077485
328 28 19 15.4331 8.67359 3.29436 0.00178908 -0.00104642 0.0177507
326 28 20 17.683 8.84785 4.34957 -0.00659865 -0.0135747 -0.00728503
325 28 9 16.951 8.4422 3.28993 -0.00186783 -0.0117127 -0.00376973
327 28 19 17.2673 7.61516 2.37003 0.00283158 0.00141588 0.00850093
330 28 1 14.8391 7.41358 3.30841 0.00250537 0.00415012 0.00821902
733 67 31 0.0811638 7.50756 19.5104 -0.0241907 0.0256496 0.00158767
63 6 19 0.135941 10.5315 2.78682 -0.0061785 0.00302302 0.00177985
577 49 11 3.27308 13.2656 3.29782 0.0142 -0.0305023 0.0177019
576 49 2 4.16991 13.1812 2.61096 -0.00256175 0.00696523 0.00103082
579 49 11 6.07716 14.0926 3.01837 0.00396142 -0.0290692 -0.0369745
61 6 9 19.901 11.7761 3.15346 0.0130508 0.0117418 -0.0116979
580 49 11 4.82124 14.4202 4.29773 -0.0656793 0.0195542 0.0150517
578 49 11 4.18451 14.1513 1.97091 0.0201517 -0.00692432 0.00564973
573 49 19 4.76284 12.0165 2.16086 -0.00431986 0.00308495 0.00256782
575 49 2 5.22145 13.6509 3.65977 0.00229423 0.00667305 0.00125036
62 6 20 0.77915 12.5132 3.35839 -0.000492791 -0.00712861 -0.00314564
572 49 20 5.61167 10.5487 3.67947 -0.0149821 0.00457605 -0.00667427
571 49 9 5.56445 11.6532 3.08657 0.00527578 -5.93685e-05 -0.00310054
574 49 19 6.25607 12.6623 3.74882 0.000530859 -0.00220804 -0.00350179
84 7 11 8.74698 12.4315 1.3676 0.0265519 -0.038454 0.00227087
78 7 1 9.90382 12.4937 1.40387 -0.000205029 -0.00202207 -0.00808062
83 7 11 10.304 12.9235 2.3788 0.010169 -0.024426 -0.00177171
654 57 19 7.54295 14.979 5.12699 -0.00464696 0.00679633 -0.000677629
722 64 20 12.7497 9.15445 1.59598 -0.00612167 0.00279351 0.0135075
82 7 11 10.3662 11.4589 1.45788 -0.00516232 -0.00410459 0.00914928
727 64 11 13.1745 10.6306 4.96731 0.0306531 -0.0399932 -0.0458693
726 64 2 13.0555 11.3727 4.1873 0.019981 -0.000167762 -0.00897313
723 64 19 12.4537 10.2417 3.54791 -0.00862514 -0.0144578 0.00925672
721 64 9 13.0266 10.0276 2.43442 0.0117286 0.0150388 0.009108
728 64 11 12.8078 12.0449 4.7764 -0.00632685 -0.0154447 0.0304269
724 64 19 14.2061 10.8821 2.39661 -0.00253421 -0.00629457 0.00351889
725 64 2 14.213 11.9312 3.31495 0.00163401 -0.000584742 -0.00876552
76 7 19 10.291 13.112 0.220853 -0.000733245 -0.00755532 -0.00660343
74 7 20 12.4605 12.5977 0.761416 -0.00727201 0.00612303 0.00926697
659 57 11 8.42972 14.0173 5.86202 -0.0346932 -0.00813776 0.0509309
655 57 2 8.88845 14.6117 5.14525 0.00973858 -0.000810414 0.00630045
660 57 11 8.95452 14.2252 4.07606 -0.0659753 -0.021607 0.016195
639 55 11 15.6875 15.9938 5.67873 0.0289715 -0.0277796 -0.0203392
68 6 11 19.9428 10.9569 0.837832 0.019892 0.0233625 -0.00465958
65 6 1 19.5477 10.2605 1.61181 -0.00548431 -0.00777429 0.00442492
67 6 11 0.0706969 9.49175 1.15942 -0.0248653 -0.0359886 0.0166617
729 64 11 14.0262 12.839 3.2559 0.0536016 0.0457308 -0.0599945
383 32 11 18.4218 14.6467 2.56518 -0.0083206 0.028046 0.000533671
382 32 11 16.441 14.3387 1.9374 0.0749509 -0.00759191 0.00731716
378 32 1 17.4471 14.9696 2.15869 -0.00296771 0.0028735 -0.00262901
384 32 11 17.4597 15.7663 1.38033 0.0186979 0.0503156 0.010003
70 6 11 17.6433 12.0989 5.54928 -0.0201862 -0.00816174 0.0087066
64 6 19 18.6113 12.0074 3.76867 -0.00245262 0.0109856 0.00770909
66 6 1 18.5141 11.7208 5.09413 0.000763915 0.0210901 -0.00723921
54 5 1 1.79969 0.574239 4.40547 0.00590783 0.00483784 0.0113841
104 9 11 2.00398 14.7686 2.34464 0.0010367 0.00186225 0.0204256
240 20 11 3.3833 18.219 2.7339 -0.00257922 -0.0344732 -0.000691359
239 20 11 4.49688 19.4192 2.90697 0.0119123 -0.00535168 0.0356342
238 20 11 4.86703 17.8629 3.4674 -0.0476001 0.00537869 -0.0331686
234 20 1 4.42762 18.3757 2.69546 -0.012541 0.00404755 0.011253
232 20 19 4.65471 17.6932 1.4254 0.00180569 0.00877083 0.000930624
105 9 11 2.25558 13.9962 0.864041 -0.0271657 0.00142212 -0.00734403
103 9 11 0.684213 14.1688 1.7074 0.00214177 -0.00404563 0.0168795
380 32 11 19.7492 16.1794 2.95701 -0.0252356 0.0388364 -0.0158953
377 32 1 19.8907 17.2269 3.261 0.00613395 -0.00462843 -0.00440402
379 32 11 0.243248 17.4602 4.23843 0.0233397 0.0180102 -0.00808381
60 5 11 1.76192 0.153048 3.45748 -0.0171758 0.0101894 -0.00705348
58 5 11 2.58544 0.0426203 4.97085 -0.00962393 -0.0354848 0.0255495
242 21 20 2.54854 16.7716 4.51991 0.000717419 -0.00186718 0.00846233
101 9 1 1.61626 14.6559 1.33839 -0.00223985 -0.00282147 -0.00677842
516 43 11 7.46981 0.899813 5.33925 0.0252706 0.0124407 -0.0328482
652 57 20 6.38304 17.0447 5.02517 6.84628e-05 -0.00409165 0.000796325
515 43 11 9.00272 19.8202 5.25959 0.0362071 0.0181174 -0.00777535
230 20 20 6.82854 17.3267 1.8595 -0.00352735 0.00716443 0.00306795
229 20 9 5.9803 17.51 1.10682 0.0102557 -0.000396767 0.0100693
514 43 11 7.60556 19.0165 4.64709 -0.00704115 0.0167693 0.0179675
510 43 1 8.09892 0.0530774 4.73375 0.0111121 0.0148998 0.00331194
191 16 11 9.11332 15.7551 1.80775 0.0463793 -0.0195272 -0.02036
662 58 20 6.78241 13.9496 0.64344 0.00252082 6.98784e-05 -0.00192686
231 20 19 6.15294 17.3384 19.7437 -0.0047213 -0.00189651 0.00569689
73 7 9 11.6483 13.204 0.0675594 0.0144167 -0.000323683 0.00882144
182 16 20 12.5938 16.3637 3.96291 -0.0142883 0.00465693 -0.00648861
186 16 1 10.0789 16.326 1.91444 -0.000356331 -0.00699511 -0.00114406
192 16 11 10.3892 16.3 0.908918 0.0093375 -0.0643375 0.0494238
190 16 11 9.96198 17.393 2.27859 -0.00583347 0.0516676 0.0248474
184 16 19 11.0407 15.5302 2.60022 -0.00890969 0.00275372 -0.00261259
181 16 9 12.204 16.3158 2.75714 -0.00595485 -0.0150566 -0.0136057
183 16 19 12.9144 16.592 1.58072 0.00708382 -0.0186642 -0.00016507
185 16 1 14.2345 16.0566 1.4726 0.00919509 0.00437824 -0.00485923
187 16 11 15.1407 16.5694 1.80285 -0.038847 -0.0197085 0.00229522
188 16 11 14.4244 15.0848 1.91991 -0.0332758 0.0318364 -0.00542119
640 55 11 14.5466 15.3148 4.57669 0.0132917 0.0448203 0.00541224
376 32 19 17.1867 15.5727 3.4338 -0.00665814 -0.000360543 0.00549749
189 16 11 14.3502 16.0044 0.407639 -0.0133404 0.0255449 -0.0119833
755 72 26 16.5698 18.5985 0.182837 -0.00579855 0.00184337 0.00418648
373 32 9 17.6416 17.0279 3.57159 -0.00230604 0.00403534 -0.00398002
375 32 19 18.7101 17.6716 2.90441 -0.00452225 0.000660616 0.00363865
125 11 1 15.8796 0.293254 2.903 -0.00387315 0.00834357 -0.00963752
127 11 11 16.334 0.202502 3.90648 0.032035 0.0365292 -0.0492133
381 32 11 0.696718 17.4394 2.63911 0.0235669 -0.0552784 0.0244664
129 11 11 16.7595 0.540312 2.36346 -0.0178471 0.014291 0.0422214
374 32 20 16.7123 17.6128 4.01493 0.00301257 -0.0115765 -0.00790201
57 5 11 5.33346 3.72341 4.69039 -0.0455018 0.037966 0.0388289
691 61 9 2.15672 2.6766 7.60501 -0.000994348 0.00746704 0.00706556
693 61 19 0.845088 3.0973 7.17776 -0.00696996 -0.00302872 0.00248313
692 61 20 2.51924 1.49495 7.57566 -0.00363131 0.00755244 0.00250312
694 61 19 2.91712 3.74977 8.14926 -0.00453958 0.00459702 0.0049282
698 61 11 0.523449 4.96752 6.03897 -0.0124367 0.0193575 0.0158955
696 61 2 0.96158 4.49508 6.89828 0.00232341 0.0110294 -0.00307508
695 61 2 2.38533 4.86832 7.34611 -0.00497462 0.00173298 -0.00751243
53 5 1 5.08634 2.8228 5.09527 0.00119612 0.00178356 0.00422787
699 61 11 2.97007 4.88303 6.39418 -0.0165185 -0.0129141 -0.0446154
506 43 20 8.4535 2.94021 3.31123 0.00876433 0.00210151 -0.0105436
511 43 11 10.6132 3.22356 5.64925 -0.0433846 -0.0380794 -0.0469708
512 43 11 10.065 4.33695 4.27595 -0.0238227 -0.0243165 -0.00189932
55 5 11 4.66764 2.88505 6.13594 0.0457976 0.0311092 -0.0224587
86 8 20 6.80096 1.83606 7.49304 0.00207094 -0.00377395 -9.76378e-05
85 8 9 6.63992 0.865793 8.2211 0.00728193 -0.00218042 -0.00837844
87 8 19 7.26716 1.07813 9.44288 -0.0087097 -0.00930333 -0.000399912
481 41 9 7.46563 6.34168 6.58303 -0.00729212 0.0115106 -1.75828e-07
482 41 20 8.00568 5.2434 6.25844 -0.00337656 -0.0130689 -0.00334638
483 41 19 8.12239 7.60439 6.59198 -0.00104598 0.00638846 0.00203849
91 8 11 5.69087 0.342852 10.32 -0.000680286 0.00754475 -0.0033758
509 43 1 10.6312 3.49898 4.58668 0.000343136 -0.00136667 -0.0111224
122 11 20 14.3415 1.60097 5.24734 -0.00234636 0.010102 -5.00221e-05
556 47 2 11.5239 1.14654 7.53588 -0.0119132 0.000852325 0.00864139
553 47 19 12.0437 19.9175 6.95556 0.0168151 0.0117788 0.00329926
558 47 11 11.6974 1.84905 6.77542 -0.0130733 0.0373775 0.024823
557 47 11 12.0294 1.40136 8.40765 0.00646952 -0.0119241 0.0170083
364 31 19 13.8698 5.14258 8.46822 0.00189841 -0.00958903 0.0115341
361 31 9 13.0199 5.1822 7.28169 0.0112236 0.00448518 -0.00587307
362 31 20 12.1797 4.33066 7.15837 -0.00774469 0.00800965 -0.00422177
370 31 11 13.3472 3.86705 9.47943 -0.0023462 0.0343186 -0.0438646
570 48 11 11.7299 5.0488 11.0296 0.0176438 -0.0462062 0.0299111
565 48 2 10.973 5.09608 10.2052 0.0140336 -0.00610645 -0.0051454
560 47 11 10.336 1.19163 9.10682 0.00367511 -0.00436018 0.0100569
282 24 1 14.5154 19.5081 8.00652 -0.00324287 0.00473773 -0.00311517
551 47 9 11.2126 18.994 7.39234 0.00951087 0.00483145 -0.00643161
286 24 11 14.0069 18.9731 8.80203 0.0298452 0.0124004 -0.0366941
569 48 11 11.0862 5.86524 9.49663 -0.0392656 0.0266373 0.0174078
119 10 11 16.4342 2.37565 5.99683 0.0204056 0.0162293 -0.0414226
118 10 11 16.8699 3.69408 6.98034 0.021383 0.0296704 -0.0266097
114 10 1 16.3247 3.44235 6.01399 -0.00307587 -0.0140752 0.00715735
112 10 19 16.8 4.1694 5.0003 -0.00437613 -0.00189966 -0.000448753
120 10 11 15.3164 3.30146 6.17696 0.0348547 0.0152302 0.0157244
110 10 20 19.0391 4.20566 4.68559 -0.00673754 -0.00645267 -0.00100288
301 26 9 0.605193 0.915114 9.93123 -0.0021948 -0.0041277 -0.00849921
372 31 11 14.9088 3.65259 9.25725 -0.000194996 0.0175049 -0.0345285
366 31 1 14.114 3.77037 8.75022 0.00156936 0.00448933 -0.00224293
371 31 11 13.8628 3.01096 8.01039 -0.0151323 0.0419474 0.0222581
280 24 19 15.9728 19.4936 8.31912 -0.000604665 -0.0128871 0.00994251
277 24 9 16.7068 0.346967 7.60786 -0.000495677 0.00716802 0.009492
279 24 19 17.0335 0.0217036 6.34175 0.00409796 -0.00113786 -0.000394949
285 24 11 18.9469 0.837861 6.83325 0.014245 -0.0235083 0.0216205
278 24 20 16.8169 1.53059 7.95718 0.00612528 0.00387038 -0.0102138
310 26 11 19.1476 3.79465 10.1595 0.0136388 -0.0145657 0.00575126
304 26 19 0.331869 2.25928 10.2695 -0.0047254 -0.00564682 -0.00194215
312 26 11 18.8328 2.69967 8.76721 0.0462017 -0.00701251 0.00518165
306 26 1 19.0836 2.80051 9.7877 0.0056346 0.00996569 -0.000360023
43 4 11 2.01237 10.6742 5.30935 0.00276185 -0.000188045 0.0122095
700 61 11 2.34996 5.80309 7.75829 -0.0144199 -0.0032014 -0.00711304
697 61 11 0.239952 4.69352 7.64443 -0.0486169 0.0677247 -0.00544165
354 30 1 1.9225 9.88659 9.58408 -0.0117828 0.00225475 0.00418483
492 41 11 4.26315 6.83555 6.23241 -0.0237588 0.0525424 -0.0325184
357 30 11 5.74231 7.43621 8.99555 -0.0111687 -0.0144047 -0.0307178
40 4 19 1.2323 7.63875 5.71536 -0.0051759 -0.00103546 0.0088247
358 30 11 1.1324 10.6386 9.81816 -0.0358273 0.00463059 -0.0334526
356 30 11 6.34993 7.11167 10.7198 -0.016491 0.0796951 0.0594335
355 30 11 4.55995 6.77191 10.3988 0.0345291 -0.0227788 -0.0381503
484 41 19 6.11732 6.35133 6.78077 -0.00649325 -0.00457116 0.00210811
486 41 1 5.28912 7.07012 6.00239 0.0112054 -0.00373959 -0.00200646
485 41 1 8.84245 7.64276 7.72822 -0.00129354 -0.000643002 0.0068757
353 30 1 5.42964 7.43454 10.0782 -0.00813753 -0.00462308 -0.0051047
487 41 11 9.44362 6.70819 7.89131 0.0310219 0.00856541 -0.032945
489 41 11 9.82602 8.16525 7.47297 -0.0532896 -0.0414502 0.00151402
488 41 11 8.26888 8.04558 8.48482 -0.033457 0.0185767 0.00995123
479 40 11 7.82159 11.4577 5.27187 -0.0340508 -0.00439168 -0.038892
472 40 19 8.94209 10.7562 6.821 0.00477743 0.00851257 -0.00209727
568 48 11 8.88462 5.54677 9.57634 -0.0219761 -0.0319448 -0.0374935
363 31 19 13.3594 6.05597 6.18635 0.0071964 0.00344973 -0.0011046
473 40 1 11.9269 10.7509 7.93394 0.00190633 0.0110549 -0.000967523
476 40 11 12.5979 10.0174 7.70472 0.0480606 0.0512036 0.0115028
475 40 11 11.2529 9.98243 8.22055 -0.0497361 0.03419 -0.0537448
365 31 1 13.2769 7.39338 6.56951 -0.00397498 -0.0102799 0.0105792
368 31 11 13.8123 8.26204 5.95145 -0.00409302 0.0139353 -0.0148936
369 31 11 12.3196 7.55643 6.10549 0.0445833 0.0331927 -0.045183
367 31 11 13.3815 7.69681 7.63633 0.0155011 -0.0692196 0.00817335
548 46 11 16.2011 7.54734 10.4725 -0.0077217 0.0221284 -0.015304
547 46 11 15.5838 6.08213 10.7028 -0.00608301 -0.0505055 0.00892124
546 46 2 16.1534 6.57238 10.0411 -0.00250277 0.00381573 0.00316073
609 52 11 12.8716 9.48922 10.4682 -0.012653 0.0126985 0.00852148
542 46 20 16.9853 6.49388 6.70185 -0.00405666 -0.00578042 -0.00328148
46 4 11 0.437403 8.87576 7.02339 -0.0168953 0.0474279 -0.0313124
48 4 11 19.8026 8.90578 5.2968 -0.0193163 0.002007 -0.0172019
42 4 1 0.175796 8.32036 6.10401 0.00191047 -0.00796537 -0.0144166
543 46 19 15.8477 6.8928 8.65488 0.00430171 -0.00669184 -0.00589955
47 4 11 19.3465 7.82067 6.31312 0.0185732 -0.0181685 -0.0160769
541 46 9 16.773 6.0948 7.87809 -0.00819504 0.00324951 -0.00229048
6 1 1 16.0849 9.93531 7.49638 0.0143449 0.00099472 0.00207126
12 1 11 15.824 9.00393 7.41845 -0.0298566 0.0217477 0.0244491
1 1 9 17.9116 9.90705 9.22982 0.0027774 -0.00597583 0.000872162
2 1 20 18.4176 8.93227 9.94143 -0.010811 0.0118491 -0.0163702
11 1 11 15.5317 10.3736 8.25924 -0.0157049 0.00177187 0.000687341
248 21 11 1.99724 13.8525 5.16873 -0.0254171 0.0244799 -0.0411078
360 30 11 1.61464 8.93754 9.83051 -0.0379986 -0.0500642 0.0135251
245 21 1 1.25369 14.4196 5.633 0.00907911 0.0134843 0.00944219
247 21 11 0.832865 13.6963 6.25444 0.0192296 -0.0320371 -0.0104648
612 53 20 2.73368 12.1613 6.98619 -0.00307244 0.0079247 0.00987202
249 21 11 0.644371 14.8095 4.79459 0.0176089 0.0139264 -0.0336273
613 53 19 3.96705 14.0482 7.16865 -0.00928098 -0.00191276 -0.00264612
582 50 20 19.8256 14.7136 10.0168 -0.00861836 0.00486827 -0.00588878
581 50 9 0.982698 14.4031 9.77154 0.00843016 0.00411881 -0.000661225
584 50 19 1.49545 13.0867 9.83634 0.00908569 0.00114227 -0.00153513
616 53 2 5.21748 14.4199 7.54926 0.00472614 0.000140475 0.0032002
478 40 11 7.00833 10.3994 6.57815 0.0141863 -0.0491059 -0.0634676
474 40 1 7.82046 10.6763 5.9039 -0.0153881 0.00180562 -0.0164228
480 40 11 7.79614 9.80151 5.44404 0.0267233 0.01665 0.0178465
611 53 9 3.86774 12.6843 7.14458 -0.00404326 0.00598944 0.00184394
615 53 2 6.07082 13.0692 7.29833 -0.00462977 0.0024944 -0.00762758
614 53 19 5.03144 12.0672 6.94118 -0.00479953 0.00533324 -0.00138565
620 53 11 6.91765 12.829 7.94455 0.0183092 0.0535957 0.018431
619 53 11 6.29915 12.4905 6.2684 0.0365966 -0.018932 0.0103762
730 64 11 14.9419 11.2533 3.77773 0.02455 0.03173 -0.00874418
469 40 9 10.1716 10.5827 6.30103 -0.00731314 -0.00717042 -0.00646199
471 40 19 11.2831 11.3681 6.90331 -0.000231731 0.00237408 -0.00509683
477 40 11 12.2221 11.3268 8.81151 0.045323 0.0470168 -0.018926
470 40 20 10.478 9.71835 5.5236 -0.00413883 -0.00291025 -0.00996834
631 55 9 14.2136 13.3811 6.65107 0.0111603 0.00616625 -0.00289086
634 55 19 15.1368 13.9281 5.78524 0.00234548 -0.00599624 -0.00684909
632 55 20 14.5048 12.3392 7.13782 0.0052906 -0.00371019 0.00284201
633 55 19 13.3743 14.4372 7.35785 -0.00587425 -0.00564189 -0.000365157
152 13 11 11.604 13.7519 12.0312 -0.0247862 0.00430996 -0.024575
4 1 19 17.4218 9.73923 7.91922 0.00157193 0.0104306 0.00891224
10 1 11 15.9139 10.6991 6.86111 -0.0302682 -0.00697417 -0.0221332
71 6 11 19.2501 12.5256 5.43593 -0.0624084 0.0834772 0.00932162
72 6 11 18.9991 10.7537 5.55729 0.02477 -0.0261129 0.0507429
3 1 19 18.709 11.126 9.0129 -0.00207868 -0.00713182 0.00127878
8 1 11 18.5251 13.0376 8.77267 0.0396403 0.0584885 0.00660545
682 60 20 18.3949 15.0712 5.99585 -0.003248 -0.00249588 0.00349821
243 21 19 1.616 15.6375 6.38822 -0.013661 -0.00157842 -0.00250343
241 21 9 2.60229 16.5304 5.73729 0.00771316 0.0169775 0.0102411
244 21 19 2.64805 17.7551 6.34487 0.00817283 0.013329 -0.00547911
251 21 11 1.56084 17.2651 8.10522 -0.00566425 -0.033001 0.00268097
246 21 1 2.09807 18.0714 7.63988 0.0163523 0.00415227 -0.00277536
252 21 11 1.4416 18.835 7.29563 0.0266215 -0.0296377 0.0265564
250 21 11 2.71653 18.5112 8.46347 0.00628498 -0.0566549 -0.0401136
524 44 11 18.7118 18.0583 11.0463 0.0240345 0.00443369 0.0212088
88 8 19 5.92629 19.6999 8.01364 -0.0022097 -0.00319006 -0.00325201
523 44 11 19.5062 19.0482 12.2733 0.0357693 -0.00317327 -0.0103878
521 44 1 19.5391 18.0787 11.7227 0.00547641 0.000922341 0.017687
651 57 9 7.46458 16.379 4.95432 0.0010185 -0.00683837 0.00468408
653 57 19 8.67038 16.8941 5.09495 0.0102375 0.00286594 -0.00317985
94 8 11 5.14905 0.483274 6.27796 -0.00176218 -0.0155292 -0.0111697
617 53 11 5.36978 14.8392 8.54533 -0.0413329 -0.00933425 -0.00530602
656 57 2 9.69002 15.8768 5.49839 -0.0133258 0.00363636 -0.0166779
95 8 11 5.03452 19.037 6.10174 -0.0140503 0.0238745 -0.00666929
96 8 11 4.08013 19.6124 7.37744 0.00228685 0.00623239 -0.000376873
90 8 1 5.04079 19.6825 6.97348 0.00138092 0.00112636 -0.0081984
618 53 11 5.62558 15.1724 6.82794 0.0233472 -0.0250854 -0.0145662
503 42 11 6.07685 17.0077 7.51178 0.0195227 0.0138149 0.00354803
498 42 1 7.06205 17.1721 8.08355 -0.00482234 -0.0058156 -0.00875135
502 42 11 6.70254 17.6565 9.05676 0.00483235 -0.0202229 -0.021528
554 47 19 10.0072 19.5275 7.92293 -0.00563954 -0.00384806 -0.000224154
493 42 9 8.57448 16.0155 9.28843 0.0134327 -0.0126041 0.0028385
504 42 11 7.3427 17.9721 7.37301 -0.0236265 0.0130611 -0.0174997
496 42 19 7.87736 16.0764 8.06591 -6.56812e-05 0.00897089 0.00230229
495 42 19 9.74256 16.8545 9.32716 0.000229985 0.0209951 0.00266711
555 47 2 10.129 0.905976 8.08262 0.00755946 0.000400042 -0.00838437
559 47 11 9.42027 1.53455 7.49811 -0.0444768 -0.0215194 0.0278926
288 24 11 14.1564 0.654968 8.09727 0.0522661 -0.0354363 0.0557357
287 24 11 14.2485 19.0537 7.04794 0.0249704 -0.0300686 0.0227254
636 55 2 13.7126 15.6397 6.61468 0.00663992 0.000137581 0.00223362
635 55 2 14.8893 15.2592 5.57601 0.000346653 4.50939e-05 -0.00216049
657 57 11 9.83365 16.6582 4.75571 0.0220622 0.00248502 0.00867394
658 57 11 10.7055 15.8252 5.8984 -0.0127323 -0.0132924 0.0148745
500 42 11 11.2284 15.9515 10.493 0.0479558 -0.030652 0.0350085
638 55 11 12.8602 16.1428 6.11771 -0.0152398 -0.00938205 -0.0444209
637 55 11 14.151 16.3281 7.44426 0.0103275 -0.0380664 0.0120482
552 47 20 11.2011 17.8549 6.93282 -0.00499814 -0.00729281 0.0199943
497 42 1 11.0659 16.1294 9.40502 -0.0043151 -0.0166925 0.00139487
499 42 11 11.9192 16.8852 9.27543 -0.00353069 -0.0112917 -0.0435921
501 42 11 11.0545 15.227 8.79123 0.0252627 -0.0212373 0.00967428
703 62 19 12.6123 18.3511 12.069 -0.0108145 -0.0138339 -0.00673997
284 24 11 18.4409 0.815704 5.15461 0.0411781 0.00613731 -0.01271
281 24 1 18.4048 0.23757 6.06492 0.0113893 -7.64685e-05 -0.000807969
283 24 11 18.8092 19.1917 6.0105 -0.0211057 -0.00537928 -0.0229494
302 26 20 19.6878 0.196852 9.53601 0.00292245 0.00184853 0.00921736
683 60 19 17.1089 15.8487 7.71681 0.00603211 0.0194864 -0.0111175
681 60 9 18.3383 15.745 7.07682 -0.00623529 0.00316516 0.00704735
686 60 2 17.6342 16.5975 8.86386 0.00194312 0.00552601 -0.00228556
685 60 2 18.9085 17.2595 8.37728 -0.0138317 0.00181276 0.0054438
690 60 11 18.75 18.3618 8.48661 0.0359416 -0.0125711 -0.00323985
688 60 11 16.8664 17.2657 9.10892 -0.044424 0.0350782 -0.0423467
687 60 11 17.7293 15.8727 9.66203 -0.0306631 -0.00281164 0.0173588
684 60 19 19.3213 16.6127 7.29629 0.000566719 0.0133343 -0.00935818
689 60 11 19.6509 17.2228 9.22321 0.0247602 -0.0239085 -0.00307579
525 44 11 0.482926 18.0192 11.2075 -0.00457254 0.022478 -0.00515957
303 26 19 1.67363 0.33575 10.6639 0.00504139 -0.00466176 0.00533276
308 26 11 2.99709 2.06912 10.0688 -0.021403 0.0298001 -0.043606
305 26 1 2.98406 1.0485 10.4207 0.00978503 -0.00756443 0.00268497
309 26 11 3.3847 1.19692 11.3928 0.0345722 0.00567648 -0.0354166
307 26 11 3.73517 0.499802 9.8159 -0.0165815 0.0102883 0.0241697
226 19 11 2.32498 6.25304 10.7431 0.00893419 0.0166722 0.0174838
224 19 11 6.25712 4.2957 12.5506 -0.023199 -0.0169182 -0.055708
622 54 20 0.58674 0.67559 13.8015 0.0041681 -0.00104314 0.000995027
624 54 19 0.332223 2.97283 13.7678 0.00738346 -0.004886 -0.0139634
219 19 19 4.06056 3.718 12.4302 -0.000299268 0.000482313 -0.000138979
221 19 1 5.50403 3.66416 12.1047 -0.00551853 -0.00959914 0.00697011
225 19 11 5.67454 3.85008 10.9249 -0.0420758 0.00502557 0.00943596
223 19 11 5.74879 2.55702 12.3211 0.0401181 -0.0399397 0.0024287
621 54 9 0.0580584 1.70213 14.2837 0.00368954 0.00300505 0.000940194
220 19 19 2.25457 5.37014 12.6913 -0.00301856 0.00256996 -0.0208742
217 19 9 3.64173 5.04938 12.8143 -0.0100893 0.00897062 -0.00848545
276 23 11 2.04244 6.95407 17.8417 0.0139726 -0.04894 -0.0297871
89 8 1 6.74887 0.351845 10.4286 -0.00389633 -0.0100737 0.00885149
561 48 9 9.40388 3.37455 10.3587 -0.01681 -0.00167944 0.0192987
563 48 19 8.74443 4.43972 10.233 0.00287302 0.00334374 0.00735008
93 8 11 7.08802 19.2479 10.6573 0.0455811 -0.00234043 -0.0421041
416 35 11 7.27363 1.95716 14.1028 0.00666132 0.0336793 -0.0130597
413 35 1 7.05762 0.942695 14.4355 0.00251217 -0.000764925 0.00454954
415 35 11 7.85564 0.407505 13.9163 0.0128523 0.000903182 0.0181161
417 35 11 7.25053 1.07277 15.4924 0.000383299 0.028272 0.00447156
562 48 20 9.07968 2.54714 11.1921 0.0138594 -0.00678443 0.00557732
735 69 31 5.38344 6.16874 14.2733 0.0147416 0.00491551 -0.0172553
564 48 19 10.8054 3.66466 10.4016 0.0108191 -0.00650163 -0.0157029
539 45 11 13.9393 4.23493 12.4012 -0.00897231 -0.0053697 0.000697266
705 62 2 10.3368 18.0905 12.8814 -0.0126241 0.00322544 -0.00795733
709 62 11 10.0809 19.1698 12.9841 -0.0518643 -0.00146672 0.00238804
168 14 11 12.0999 2.45048 16.7311 -0.0350527 0.00081833 0.0400049
293 25 1 11.037 4.57213 13.9732 -0.00791849 -0.00827962 0.0011074
295 25 11 11.8194 4.84211 13.2168 0.0497619 -0.0439442 0.0153089
297 25 11 11.4427 4.43716 14.9347 -0.0172918 0.0297141 0.0346185
704 62 19 10.2725 19.0113 11.7518 0.00142707 -0.00856697 0.00119776
566 48 2 9.52653 5.58962 10.5436 0.00183752 -0.0122672 0.0143573
702 62 20 12.1185 19.9862 10.9254 -0.00158979 0.00549099 0.00616021
701 62 9 11.6581 18.9205 11.3667 -0.00522671 -0.0132997 0.000881963
167 14 11 11.5879 1.2958 15.566 0.022943 0.0270664 0.00114952
311 26 11 18.1823 2.5348 10.3011 0.02346 0.0100076 0.0113104
534 45 1 14.9064 4.20292 12.8999 -0.00268262 -0.00396723 -0.00385362
540 45 11 14.4038 3.67974 13.7551 -0.0016003 0.01156 0.0279621
538 45 11 15.134 5.16786 13.1594 0.0206716 -0.00366651 0.0481728
529 45 9 15.5458 2.32625 11.6884 0.00431175 -0.0148394 0.0026988
530 45 20 14.5911 2.15736 11.0962 0.0110372 0.0127684 0.0109167
532 45 19 15.9198 3.55679 12.0774 0.00212392 0.00296712 -0.00376736
531 45 19 16.3934 1.34125 12.1801 -0.0140183 -0.00337877 -0.000804664
533 45 1 16.7321 0.500098 11.2081 0.00200427 2.11251e-05 -0.00985211
627 54 11 17.5619 1.71936 14.4146 0.00473238 -0.0125402 -0.00580034
536 45 11 16.4468 0.72367 10.2159 -0.0148783 -0.0386636 -0.0232712
549 46 11 17.2861 4.783 10.0198 -0.0230313 -0.0128806 0.0273939
630 54 11 18.4669 4.10343 13.0111 0.0249851 -0.00554571 -0.0262251
537 45 11 17.8153 0.315174 11.3229 0.0575824 0.0339122 0.0300151
535 45 11 16.4134 19.5163 11.5649 -0.0176938 0.00205921 -0.0167391
625 54 2 19.0998 3.60891 13.7411 0.000400489 -0.016259 -0.00870799
629 54 11 19.707 4.31415 14.4002 0.0113051 -0.0064995 0.055789
349 30 9 4.26287 9.41057 9.91572 -0.00376966 0.00913755 -0.0189335
351 30 19 5.12581 8.64601 10.7483 -0.00766011 0.0066233 -0.00150894
228 19 11 0.697453 5.70848 11.098 -0.018735 0.0102112 0.0405065
222 19 1 1.76263 5.49678 11.3535 -0.00369271 -0.0103952 -0.00012147
352 30 19 3.08156 9.92553 10.502 0.00172504 0.00200554 -0.00398381
227 19 11 1.82918 4.47574 10.687 -0.00207865 0.0520714 -0.014233
218 19 20 4.3102 6.06059 12.6081 0.00134807 0.00619541 0.00875988
427 36 11 0.766227 9.67572 13.6269 -0.0574769 -0.0155921 -0.063222
429 36 11 0.361488 8.46209 12.186 0.0333113 0.0472475 0.0131195
428 36 11 2.15214 8.67828 13.0816 -0.00197135 -0.0159294 0.00622165
425 36 1 0.982041 8.65253 13.1999 -3.94591e-05 0.0131681 -0.0146987
347 29 11 6.83853 9.36956 14.7713 -0.016458 0.0152975 0.0255845
423 36 19 0.586604 7.67397 14.0944 0.000926846 -0.0129552 0.0110334
290 25 20 7.77514 5.78961 14.3646 0.00615827 0.00172114 0.00170244
289 25 9 8.74624 5.04239 14.3646 -0.0108208 0.0188149 0.00517372
342 29 1 6.50475 9.07904 13.815 0.0116462 0.00124436 -0.00960323
348 29 11 6.69391 8.04559 13.6455 -0.108727 0.00923237 0.00113287
346 29 11 5.45653 9.24034 13.4306 0.016289 -0.0395357 -0.0131999
337 29 9 8.60017 10.1798 13.6804 -3.22644e-05 0.000433599 -0.00877613
338 29 20 9.15383 9.32537 14.3755 -0.00560329 0.00872141 -0.00478596
340 29 19 7.43236 9.69062 12.8926 -0.00892201 -0.00129643 -0.0165842
567 48 11 9.15881 6.13588 11.3114 0.00350413 0.0628027 0.00544402
296 25 11 10.7584 3.63208 13.6105 0.0126812 0.00691403 -0.0442148
291 25 19 10.0105 5.51617 13.8998 -0.006614 -0.00130533 -0.00324333
603 52 19 11.2034 7.39586 12.1738 -0.00102455 -0.0014413 -0.0156999
601 52 9 12.7068 7.52186 12.3512 0.0162505 -0.00252663 0.00843137
605 52 2 12.2072 9.39324 11.3234 0.00480675 -0.0144706 0.00877729
604 52 19 13.256 8.46009 11.4139 0.000936143 0.0171789 -0.00565984
608 52 11 10.6085 8.38571 10.2698 0.000392692 0.0262331 -0.00426897
606 52 2 10.9658 8.55988 11.3333 -0.0117454 -0.0043164 -0.00294033
607 52 11 9.95211 8.90451 11.7365 0.00915099 0.0377996 0.0148108
610 52 11 12.4088 10.2553 12.027 0.0218198 0.0224284 -0.0166557
602 52 20 13.3414 6.65987 13.0339 -0.00104776 -0.00796083 -0.00210812
550 46 11 17.8437 6.21502 10.9889 0.058878 -0.0219224 0.0199319
545 46 2 17.5026 5.89665 10.0023 0.0124782 -0.00126508 0.00202956
544 46 19 17.6879 5.43306 8.66214 -0.0159514 0.0019949 -0.0102702
422 36 20 19.1268 6.42158 12.9548 -0.00457929 -0.00356235 0.0123446
421 36 9 19.4477 7.12458 13.8267 0.00311535 -0.00352736 0.00848042
426 36 1 17.5734 6.65117 15.2374 0.00476455 -0.00706059 -0.00880347
430 36 11 16.8311 7.26977 15.6885 0.0198519 -0.0233563 0.0181684
424 36 19 18.4234 7.63525 14.7834 -0.0018768 -0.00477922 0.00847735
431 36 11 17.8823 5.86786 15.7176 0.0704717 -0.0530926 -0.00928133
359 30 11 2.24991 9.99482 8.58049 -0.0050571 0.0321537 0.0174717
590 50 11 3.78469 12.922 10.3271 0.0149773 -0.00769583 -0.0182747
589 50 11 2.13644 12.7398 11.0176 -0.000929492 0.00256974 -0.0571998
350 30 20 4.76811 9.99693 8.88493 -0.0005889 -0.00957626 0.0193505
583 50 19 1.84607 15.4066 9.53718 -0.0100594 0.0173814 0.000627953
585 50 2 2.8343 13.324 10.3713 -0.00173476 -0.00407127 0.000729978
588 50 11 3.30118 15.4802 9.31789 -0.0304985 0.0389059 0.0244618
586 50 2 3.01519 14.9288 10.2273 -0.019604 -0.0071409 0.0131314
587 50 11 3.08552 15.5731 11.0628 -0.00261474 -0.0301556 -0.0179033
318 27 1 2.28712 11.964 14.6763 0.00339819 -0.00658207 0.003818
323 27 11 1.79167 12.5469 13.9938 -0.0176959 -0.0541912 -0.0311056
316 27 19 3.58942 12.3791 14.8166 0.00609509 -0.00182068 -0.0021843
322 27 11 2.52256 10.9862 14.3629 -0.0339131 -0.0517378 -0.0298721
314 27 20 4.52598 12.2102 12.8298 -0.0117762 0.00473931 0.00962277
313 27 9 4.2603 12.9731 13.6888 0.00934289 0.00473042 0.00839056
315 27 19 4.71456 14.3018 13.6099 0.00154058 0.00836976 -0.00174685
154 13 11 6.74122 11.5058 11.487 0.0250972 0.026817 -0.0016828
339 29 19 9.3978 11.1583 13.0747 -0.00245616 -0.0036257 0.0102882
150 13 1 6.90863 12.3239 10.7529 -0.00391922 -0.00691712 0.00466789
148 13 19 8.06294 12.0965 9.92887 0.000637229 -0.00805899 0.00556583
146 13 20 9.97898 11.1021 10.0027 -0.000850891 0.00695409 -0.00961954
156 13 11 6.99909 13.0576 11.5414 0.0150442 0.00918886 -0.0277443
155 13 11 5.86842 12.4784 10.2263 -0.0505725 0.0528526 -0.0161208
341 29 1 10.3884 11.6621 14.0154 0.0164023 0.000203085 0.00154765
456 38 11 6.47665 13.3806 15.4432 0.00698223 -0.00564006 -0.00246133
445 38 9 8.62271 15.0531 15.3281 -0.00115928 0.00572692 -0.00527671
345 29 11 9.98438 11.8066 15.0434 0.0743002 -0.0354784 0.00327308
452 38 11 10.9863 13.702 15.7582 -0.0162881 -0.0135993 -0.010724
454 38 11 7.60429 12.118 15.4233 0.0430029 -0.0281723 0.00763526
450 38 1 7.50589 13.1493 15.2128 -0.00872145 0.00586559 -0.00521784
147 13 19 10.1116 13.2366 10.7275 -0.00184393 0.00150484 0.00446264
145 13 9 9.39575 12.1133 10.3678 0.019932 0.0142974 -0.013036
343 29 11 10.7982 12.5517 13.6232 -0.0517457 -0.0252445 -0.00478566
36 3 11 14.1041 10.5866 13.5821 -0.0379759 0.0418422 0.0456732
149 13 1 11.3984 13.3203 11.0185 0.0045703 0.00367438 -0.0250911
153 13 11 11.7962 12.2159 11.264 0.00922091 -0.0206013 -0.0311949
151 13 11 12.0738 13.5764 10.2266 0.0268666 -0.0187005 0.000705513
35 3 11 13.8784 11.7601 12.4683 -0.0470788 -0.0521533 0.0350543
30 3 1 14.6488 11.1867 12.8953 0.00110311 0.00582583 -0.0133235
34 3 11 14.9986 11.8724 13.5935 0.0130729 -0.00591482 -0.00129504
26 3 20 15.605 8.51686 12.7971 0.0104727 -0.00616927 -0.00139289
9 1 11 16.8911 12.3331 8.53022 0.01382 0.0527976 -0.00216805
5 1 1 17.8256 12.3047 9.15562 0.00308903 -0.00761587 -0.00245962
7 1 11 17.7308 12.5734 10.1758 0.0521256 -0.00525457 0.00982016
25 3 9 16.181 9.6208 12.5919 -0.000166353 0.0161684 0.00249296
32 3 11 18.073 10.8209 14.2642 -0.011096 0.0230868 0.0175252
31 3 11 17.7865 11.6874 12.701 -0.0344511 0.0532105 0.00403863
27 3 19 17.6622 9.71201 12.7144 -0.00274207 0.00657959 0.00360164
29 3 1 18.2389 10.8279 13.152 -0.00771582 -0.0177187 -0.00933638
33 3 11 19.3611 10.9176 13.1638 0.0103426 -0.0134819 0.0184375
28 3 19 15.506 10.6543 11.9711 -0.00610265 -0.00746627 -0.00084564
526 44 11 19.8708 13.9942 12.7944 0.049747 0.0210987 -0.0132389
522 44 1 19.0552 14.1155 13.4719 0.00268353 0.00210605 0.000289845
262 22 11 13.5908 14.1893 12.7348 0.0181096 0.0238983 -0.0206071
527 44 11 18.9357 13.0682 13.7474 0.0194629 0.0181046 -0.035739
434 37 20 4.68042 18.0475 10.3288 -0.0055499 0.0102913 -0.001854
317 27 1 3.67405 15.197 13.8171 -0.00746536 0.00143461 0.00938963
321 27 11 3.97132 16.1494 13.8017 0.0268685 0.0109251 -0.00997008
443 37 11 3.25144 19.6139 13.1673 0.0437097 -0.0162474 -0.0198495
444 37 11 1.66269 18.7351 13.3253 -0.0319875 -0.00800451 -0.00793815
438 37 1 2.75294 18.5779 13.2336 0.00605193 -0.0220746 -0.00978283
442 37 11 3.0147 18.1042 14.1513 -0.00980682 -0.00244576 0.00789084
436 37 19 3.19479 17.7996 12.084 -0.00459319 -0.00303566 -0.00771415
433 37 9 4.47443 18.0681 11.5547 -0.0165343 -0.00383724 -0.00521345
319 27 11 2.90513 15.0977 13.0502 -0.018602 -0.000172288 -0.0501872
519 44 19 19.4416 16.792 12.4051 0.00920334 -0.00286596 0.00915626
92 8 11 7.12656 0.771159 11.3284 -0.0138925 0.0119361 -0.0131938
494 42 20 7.94663 15.6583 10.2226 0.00930002 0.00227596 -0.0111446
447 38 19 9.72236 14.9574 14.6905 -0.00650869 0.000972906 -0.0137867
435 37 19 5.47821 18.1707 12.4094 0.00213782 0.00181345 0.00263212
441 37 11 7.38969 17.2223 11.9344 0.00216399 -0.00899638 0.0579949
437 37 1 6.45326 17.0615 12.5359 -0.00347725 0.0118016 -0.000882658
439 37 11 6.78209 16.9577 13.6084 0.0148957 -0.0256113 -0.0218706
440 37 11 6.03691 16.1131 12.4686 -0.00163969 0.0193187 0.0173766
453 38 11 11.5235 15.3132 15.6474 0.0485777 0.02865 -0.0484767
710 62 11 9.51304 17.3351 13.1082 -0.0415005 -0.0280924 0.0543665
449 38 1 11.1349 14.5164 15.0295 0.0130097 0.0067136 0.00821432
451 38 11 11.9844 14.3151 14.312 0.00803703 0.0191332 0.0289313
708 62 11 12.1214 17.3944 14.0253 0.0217787 -0.0270411 -0.0140016
707 62 11 11.8079 16.3961 12.6973 -0.00425139 -0.0309405 0.0108056
706 62 2 11.7802 17.4914 12.9593 0.00310606 0.0208786 -0.000975413
157 14 9 13.777 19.731 15.7075 -0.00556212 0.000615793 -0.00108473
158 14 20 12.8951 19.1212 15.2223 0.00876058 0.0037823 0.0026656
165 14 11 15.3666 18.3228 14.5398 0.0112903 -0.00827163 0.0148884
164 14 11 15.0306 19.0834 12.9484 -0.00104191 -0.0137205 0.0119392
263 22 11 14.1425 15.3646 11.7904 -0.0233842 -0.00129515 -0.056198
528 44 11 19.5463 14.4578 14.3382 0.0277748 0.0226957 0.0146548
408 34 11 0.596872 19.2611 15.4176 0.022061 0.0110891 0.0514353
256 22 19 14.4816 15.8963 13.6211 -0.00435097 -0.00223345 -0.00232504
264 22 11 15.51 14.1685 12.5531 0.0308631 -0.011683 0.0164317
258 22 1 14.5363 14.8263 12.5975 -0.00641815 -0.00353388 -0.0053644
517 44 9 18.2119 16.1728 12.4308 -0.00503759 -0.0056859 -0.00273
520 44 19 18.1043 14.831 12.6935 0.00796076 -0.00753684 0.0099773
518 44 20 17.173 16.8698 12.3923 0.00206074 0.00256866 -5.12575e-05
159 14 19 14.7574 0.269804 14.8194 0.0114169 -0.00863717 -0.0078312
161 14 1 15.3933 19.2698 14.031 -0.00999002 0.00641384 0.0184104
163 14 11 16.4932 19.4959 13.8178 -0.00749292 -0.0530036 -0.00891981
420 35 11 2.33416 0.683003 15.9503 0.00132736 0.0119949 -0.0268698
144 12 11 2.9921 1.21444 19.6246 -0.0236272 -0.0263081 -0.0167209
138 12 1 3.69911 1.18132 0.493884 -0.00213332 -0.00856209 0.00686572
419 35 11 2.15177 2.25707 15.6704 0.0241434 -0.000842864 -0.0105059
414 35 1 2.78904 1.58473 16.0125 -0.00155179 0.00791054 -0.00727047
418 35 11 3.10988 1.8456 17.0873 -0.0101793 0.0117279 0.0163126
412 35 19 3.89109 1.56292 15.0567 -0.00553708 -0.0081174 -0.00252366
647 56 11 4.33638 5.48877 18.5668 0.00624846 0.0195897 -0.00938521
646 56 2 4.54132 4.48615 18.1553 -0.0091958 0.00687613 0.00218352
643 56 19 4.12607 4.29912 16.8846 0.0111222 -0.000851435 -0.005886
749 71 26 0.574476 3.10476 17.5504 -0.00232214 -0.00259503 -0.00467555
409 35 9 4.94245 0.419962 15.2136 0.0045084 0.000720876 -0.00570044
731 65 31 18.1676 1.71252 19.1001 -0.00375664 0.00912772 0.00661645
747 71 26 19.9452 1.7339 19.1974 0.00124107 0.00753616 -0.00189619
743 71 27 0.147825 3.25635 19.0309 -0.00125258 -0.00601133 -0.00157405
648 56 11 3.91913 3.68015 18.5152 -0.0557578 -0.0198262 0.00393765
744 71 26 1.56444 3.09038 19.5771 0.00311284 0.00345397 0.00106278
410 35 20 5.09996 19.9509 16.2713 0.00322186 0.00360092 0.000445568
300 25 11 9.90499 3.33535 16.299 -0.000171012 -0.0695632 -0.0197517
294 25 1 9.03609 2.98012 15.769 0.0135259 -0.00160254 0.00310341
292 25 19 8.45763 3.76165 14.7041 0.00873483 -0.0087938 -0.00179155
642 56 20 5.35163 4.51365 15.07 0.000319831 0.00111168 -0.00600516
298 25 11 8.36036 2.73725 16.5635 -0.0267753 -0.0269258 -0.000457208
760 73 26 8.88341 2.93834 19.112 -0.00405863 0.00704854 0.0177285
763 73 26 9.01368 1.04885 18.4006 -0.00641693 -0.0114897 -0.00501894
757 73 27 9.54486 1.75904 19.6432 0.0027872 0.0023363 0.00589496
641 56 9 5.09901 3.90489 16.18 -0.00204733 0.000361606 -0.000915516
299 25 11 9.41041 2.01637 15.5723 -0.0187809 -0.00266249 -0.0581903
650 56 11 6.14909 2.83788 17.8341 -0.0182835 -0.00551974 -0.00308955
645 56 2 5.9442 3.78776 18.2164 0.00778445 -0.00536393 -0.00251009
644 56 19 6.08123 3.29687 16.9246 -0.00335873 -0.00406422 -0.00323199
466 39 11 9.20725 19.8323 16.4039 0.0155548 -0.0380041 0.00362247
468 39 11 8.18171 18.2528 16.0314 0.0128559 -0.0216074 0.0221005
162 14 1 12.5741 1.73937 16.0642 2.98105e-05 0.0126685 -0.0147359
166 14 11 13.0913 2.40592 15.324 0.0669608 0.0181865 0.0341088
160 14 19 13.368 0.753453 16.6955 0.000232902 -0.00382668 0.00257842
758 73 26 10.7825 2.10942 18.8442 -0.00165641 -0.00208369 -0.00359659
194 17 20 13.5926 4.47692 17.3244 -0.0120147 -0.000559718 -0.00208816
196 17 19 14.8144 5.9563 16.1465 0.00187489 -0.000538017 0.00341572
195 17 19 15.3022 3.54981 16.1023 0.00614656 0.00711222 0.00111322
193 17 9 14.6194 4.609 16.7178 0.00268127 -0.000122511 0.00931869
732 66 31 11.8855 1.5103 0.669565 -0.00356788 -0.0184737 0.00649684
201 17 11 16.563 3.48284 17.624 0.050469 0.0255113 0.00920941
171 15 19 14.9436 2.95709 0.17737 0.00260106 -0.00195767 0.00420393
173 15 1 15.9883 3.35844 0.975533 0.00180249 0.00687891 0.00180647
177 15 11 16.4855 4.11193 0.357604 0.000297027 -0.014663 -0.0172741
176 15 11 16.6748 2.55488 1.05954 0.0298693 0.0197578 0.00997996
623 54 19 19.0122 1.64529 15.1802 -0.00812329 0.00684814 0.00169099
626 54 2 18.1677 2.6761 14.6623 -0.00896227 -0.00167293 0.00441432
628 54 11 17.5074 3.39851 15.0187 -0.00160555 -0.00441752 0.0157052
748 71 26 19.6451 3.37023 0.588729 -0.00209936 -0.000954534 -0.00451993
200 17 11 15.1788 2.44175 17.5938 -0.0270294 -0.038312 -0.0288759
199 17 11 16.4848 1.83456 16.447 0.0258671 -0.0100992 0.0372505
753 72 26 17.6511 0.145398 19.2258 0.00366336 0.00153681 -0.00206443
197 17 1 16.0396 2.71814 17.0291 0.00679523 0.00882439 0.00344642
745 71 26 18.6834 3.25165 18.5553 0.00288009 -0.00144836 -0.00648344
672 59 20 1.63505 7.63426 0.184059 0.00225209 -0.0243946 -0.0095682
671 59 9 2.74493 7.83667 0.74693 0.000170184 -0.015119 -0.0139918
673 59 19 3.78081 7.03678 0.552311 -0.00127524 0.0103885 0.0133924
676 59 2 5.00444 7.68052 1.11497 -0.0117663 0.000689742 0.00171449
678 59 11 5.00286 7.71452 0.0415836 0.0163095 -0.0346557 -0.0238476
275 23 11 1.03644 7.01988 16.3271 0.0203645 0.0105261 -0.0375558
270 23 1 1.78897 6.40078 16.9164 0.0026133 0.0233469 -0.00595195
274 23 11 1.56997 5.34636 17.0122 -0.0197286 0.00490629 0.0257418
268 23 19 2.75664 6.59172 15.8059 1.96083e-05 0.0035103 -0.0159215
265 23 9 3.69796 7.65382 15.9074 -0.00160841 -0.000489053 -0.00453692
266 23 20 3.40192 8.79846 15.6445 0.00994064 0.00221855 0.00657965
768 74 26 0.411577 9.5067 18.7279 0.0152085 -0.0106523 -0.000776146
766 74 26 19.1101 9.13764 16.9528 -0.000652275 6.56489e-05 0.00605389
267 23 19 4.95477 7.24321 15.7261 0.0101201 -0.00475051 0.017947
746 71 26 0.251149 4.83233 18.9574 -0.0137847 -0.0103791 -0.001741
649 56 11 6.58873 4.00361 19.0995 -0.00980013 0.00667266 -0.0475239
713 63 19 9.72355 6.95323 19.9296 -0.00361534 0.00887086 0.00115725
716 63 2 9.79918 7.15519 18.407 -0.00823583 -0.00499445 0.00240167
717 63 11 8.72252 7.25227 18.3291 -0.0213873 -0.0735562 -0.0264747
677 59 11 6.1394 7.6441 1.47566 0.0225351 0.0378396 0.00636596
269 23 1 5.73543 7.29292 16.9825 -0.00396838 -2.8722e-05 -0.0127026
271 23 11 6.61574 7.74885 16.6702 -0.028381 -0.000627959 0.0192455
272 23 11 6.03609 6.27116 17.2108 -0.014586 -0.0576926 0.00489516
273 23 11 5.08647 7.59321 17.8931 -0.00903565 -0.0317741 -0.0187662
714 63 19 10.7348 5.22049 18.6514 0.00101229 0.000719024 -0.00397991
715 63 2 10.5848 6.06195 17.6152 -0.00161801 -0.00832514 0.0127955
720 63 11 10.006 5.4005 17.1193 0.0191915 0.00549202 -0.00295193
719 63 11 10.9397 6.52449 16.6713 0.0208628 -0.0440298 -0.0146469
711 63 9 10.5732 5.89428 19.8832 -0.00355436 -0.000736879 0.00227833
386 33 20 6.44391 9.17688 18.9822 -0.00411119 -0.000938198 0.00581766
599 51 11 15.358 10.0038 19.2537 0.0149473 -0.0202669 -0.0133225
712 63 20 10.3901 5.07617 0.834136 -0.00228672 -0.00169587 -0.000727467
202 17 11 13.9067 7.59603 15.1808 -0.0172916 -0.0333932 0.0090949
204 17 11 13.0899 7.09545 16.5616 0.00848097 0.0596541 -0.0236856
203 17 11 13.066 6.10122 15.2329 -0.00150309 -0.000458009 0.0415251
198 17 1 13.7093 6.65837 15.7267 0.0072432 -0.00946351 0.00603965
598 51 11 14.2329 7.97683 18.7979 -0.0233508 -0.0244055 0.0201982
596 51 2 15.1574 7.83127 19.3606 0.0144832 -0.00758177 -0.0125448
22 2 11 16.6152 9.22119 15.4155 0.0290751 0.00981258 -0.0139735
741 70 26 13.0583 9.33411 17.3285 0.0116245 -0.00143565 0.00604367
591 51 9 17.0623 6.95301 18.8415 0.0111454 0.00704087 -0.0164852
432 36 11 16.9305 6.25018 14.3723 -0.0307092 -0.00411666 0.00590792
594 51 19 17.2192 8.27693 19.2242 0.00615653 0.0102518 0.00796029
595 51 2 15.9295 9.00547 19.2311 0.0147308 -0.00249377 0.00380661
600 51 11 16.5769 9.15741 0.051389 -0.0138811 0.0180202 0.00322649
24 2 11 15.361 9.92679 16.6123 0.0593663 0.000752254 -0.0128791
324 27 11 1.92831 12.2801 15.6765 -0.0201289 -0.0189657 0.0435603
770 74 26 0.986384 9.79632 16.4903 0.00310224 0.00190801 -0.00613341
395 33 11 3.73392 11.7718 17.7357 0.0448613 0.0388741 -0.0255674
396 33 11 3.12854 10.1665 18.1975 -0.013387 -0.0174435 -0.0288256
765 74 26 0.78578 11.5534 17.7015 0.000800133 0.00361458 0.00855323
764 74 27 19.8982 10.3484 17.3848 0.00517764 -0.000519718 0.0113049
390 33 1 4.03364 10.7834 18.0794 -0.00480427 -0.00347744 -0.00563176
663 58 19 4.74129 14.5476 19.8858 -0.00935706 0.00356837 -0.00543857
394 33 11 4.52101 10.4169 17.1785 -0.0336368 0.000738856 0.0383507
769 74 26 18.5775 10.8541 18.3762 0.00385441 0.011547 -0.00167597
767 74 26 19.4477 11.0476 16.0982 0.000172491 -0.0148261 -0.0110542
99 9 19 1.62084 15.8643 0.469219 -0.00711659 0.00479271 0.0187581
455 38 11 7.59512 13.2703 14.0733 0.0156221 0.00198629 0.0302576
388 33 19 4.91288 10.8191 19.1918 -0.0053709 -0.00712936 0.00119069
448 38 19 8.39549 13.9377 15.9686 0.00263216 0.00747647 0.0145196
385 33 9 6.28798 10.353 19.1149 -0.00185527 -0.00940411 0.00785037
387 33 19 7.37768 10.8625 19.8514 -0.00172673 0.000764989 -0.00961642
389 33 1 8.64066 10.6903 18.9863 -0.0101433 0.00387202 0.0021652
391 33 11 9.36474 10.6817 19.7092 7.41642e-05 -0.00248904 -0.0462685
392 33 11 8.82968 11.6531 18.4191 0.00727376 -0.0010003 0.0136382
393 33 11 8.88192 9.72522 18.51 -0.0172163 0.0268374 -0.0166927
80 7 11 12.5903 13.7521 17.7135 0.0257611 -0.0304142 -0.00658033
344 29 11 11.2152 10.9863 14.3087 0.0197416 0.00539478 0.0079214
738 70 26 11.6079 10.2065 18.592 -0.0094259 0.00211414 0.000341452
739 70 26 10.9823 9.79497 16.5844 0.0132334 -0.00180427 0.00427893
742 70 26 11.3602 11.8072 17.1409 -0.00486009 -0.00112982 0.0012082
736 70 27 12.2457 10.6224 17.2731 -0.00215995 -0.00672707 -0.00909901
740 70 26 13.363 11.4049 17.9233 0.0109774 -0.00486573 0.00576881
737 70 26 12.9562 11.039 15.7172 0.00461013 -0.00512274 -0.0102192
20 2 11 14.6501 13.3148 18.0165 -0.0138879 -0.00134785 0.0279929
77 7 1 12.2571 14.506 18.3483 0.000698996 0.00410509 0.00580315
81 7 11 13.0942 15.0816 18.296 0.0323074 -0.0235705 0.00255883
69 6 11 18.4141 10.0244 1.62753 0.0205965 -0.0117241 -0.0113464
108 9 11 18.9836 13.8573 17.7771 0.0165168 0.0335914 -0.0182015
23 2 11 17.0955 10.1313 16.3997 -0.0236035 -0.0384667 0.0424923
18 2 1 16.1365 10.0425 15.9301 -0.00360586 0.00712055 0.00542832
13 2 9 16.2543 12.3343 16.1765 0.00474392 0.00418914 -0.00397137
16 2 19 15.9982 11.2447 15.4332 -0.00553027 0.00250229 -0.0029868
15 2 19 16.4465 12.1317 17.6052 0.0002113 0.00988186 0.00276773
17 2 1 15.7926 13.104 18.3187 0.000883603 0.00656669 -0.00983115
19 2 11 15.4315 12.6566 19.3182 -0.0166481 -0.0311626 0.00614126
14 2 20 16.6632 13.261 15.6594 -0.00931344 0.00261363 0.00659312
107 9 11 18.2409 15.0757 18.5828 -0.0126733 -0.0233301 0.014852
102 9 1 19.1667 14.6243 18.5624 0.0131301 0.0169361 0.00237775
100 9 19 0.472318 15.1075 18.628 0.0036536 0.00585371 0.00147641
143 12 11 3.20749 1.32087 1.481 -0.0764247 -0.0248033 0.0189386
400 34 19 0.315214 17.4737 16.4356 0.000561373 0.00137097 0.00457774
320 27 11 3.21921 14.9169 14.7072 0.0263136 -0.00304957 0.0259566
142 12 11 4.02226 0.204696 0.518692 0.0310566 0.041725 -0.00295433
668 58 11 3.68029 14.0055 18.3836 0.0191903 0.0291991 0.0291708
666 58 2 4.24947 14.8203 18.6308 -0.00582073 -0.00166597 -0.00532678
398 34 20 1.12898 16.5494 14.5887 0.000952767 -0.0027635 0.0111745
397 34 9 1.39963 16.8232 15.8329 -0.00157107 -0.00639573 -0.00454722
399 34 19 2.73382 17.2745 16.3522 -0.00415133 0.00242624 0.00208392
401 34 1 2.72929 18.035 17.5192 -0.00130631 -0.00350788 -0.0142927
405 34 11 3.74397 18.4469 17.6439 0.00373458 -0.0196198 -0.0138104
403 34 11 1.9381 18.8405 17.4842 -0.0225987 -0.0318752 -0.0377536
667 58 11 3.73269 15.7605 18.3327 0.0205896 0.0395445 0.00666588
404 34 11 2.78368 17.4714 18.4007 0.0164121 0.046513 0.0205142
670 58 11 6.0678 15.8391 17.7386 0.00141466 -0.013304 -0.0063124
406 34 11 18.8491 18.9719 16.0777 0.0251426 -0.0029376 -0.0313727
97 9 9 0.623966 16.1384 19.5992 0.0061361 -0.00327293 0.00595165
98 9 20 0.156085 17.228 19.3837 0.00405513 -0.00658009 0.0055578
236 20 11 6.61332 18.3367 18.0101 0.0381376 0.0219891 0.00541404
411 35 19 5.86925 0.20987 14.2675 -0.00959711 -0.00879739 0.00184285
446 38 20 7.81526 15.815 15.0023 -0.00409848 -0.00609587 0.00488736
669 58 11 5.36308 14.5488 16.7678 -0.0131575 0.0151614 -0.00600986
661 58 9 5.98691 13.9109 19.7029 0.00238915 -0.00192925 0.00293404
664 58 19 6.36712 13.6942 18.3908 -0.006612 0.0120909 0.0101917
665 58 2 5.59637 14.7767 17.8125 0.00972257 -0.0108598 0.000245833
467 39 11 8.66021 18.8693 14.9013 -0.011193 -0.00347391 -0.0382351
458 39 20 9.78934 16.9819 18.0438 0.0121284 -0.0054732 0.000256783
237 20 11 6.72946 19.2189 19.5932 -0.00954811 -0.0458012 0.0260622
235 20 11 7.67599 17.7692 19.1092 -0.00234954 -0.0252145 -0.0122553
233 20 1 6.77359 18.2875 19.0377 -0.0157845 0.00520874 -0.00552454
460 39 19 10.2536 18.1384 16.0187 -0.00414177 0.00431207 0.0108686
462 39 1 9.13608 18.8793 15.8653 0.000358795 -0.00476933 0.0118964
457 39 9 10.4588 17.7678 17.3325 -0.00168594 0.00419071 0.0101389
75 7 19 12.0919 14.5241 19.607 -0.000852652 -0.00194338 0.00140721
752 72 26 15.4585 0.156286 18.9728 -0.000565418 0.00494925 0.0117788
79 7 11 11.471 15.2287 17.8862 -0.0111536 -0.00459127 -0.0126806
459 39 19 11.9024 17.6861 17.6789 -0.00136006 -0.00375717 0.00851245
465 39 11 12.7053 19.1851 18.875 -0.0177873 -0.0324824 0.00564304
254 22 20 14.076 14.2881 15.2947 -0.00139678 -0.0047394 -0.0028637
464 39 11 12.5823 17.6744 19.7462 0.0269265 0.00852588 -0.000189138
461 39 1 12.1803 18.3096 18.9876 0.00923105 -0.010269 0.00378553
463 39 11 11.4151 18.688 19.7264 0.0197492 -0.01013 -0.0119233
754 72 26 15.5222 18.0567 18.2746 -0.00318186 0.00725219 -0.000331239
402 34 1 19.7777 18.5172 15.6868 -0.00633644 0.00416733 0.00556195
261 22 11 16.9563 15.9945 16.725 -0.0232238 -0.00686647 -0.0108518
259 22 11 17.0442 15.7687 14.9305 0.0279191 0.0306974 0.0363672
21 2 11 16.4136 13.9196 18.6462 0.0153248 0.0153695 0.0143599
407 34 11 19.5697 18.34 14.5942 -0.0179247 -0.0401052 0.0284224
253 22 9 14.6015 15.3798 14.9711 0.0107478 -0.00180992 0.00222446
255 22 19 15.2761 16.1546 15.9983 -0.00447876 0.00453292 -0.00847507
257 22 1 16.6026 16.2507 15.8091 -0.007264 -0.00141775 0.00965639
260 22 11 16.7987 17.2972 15.7786 -0.0188728 -0.0494075 0.00471238
750 72 27 16.6135 19.0545 18.7106 0.00588811 0.00802012 0.0012097
106 9 11 18.9001 13.9249 19.4673 0.00395348 -0.0154754 0.0239243
756 72 26 16.6632 19.565 17.2136 0.00170317 0.00294795 0.000404784
751 72 26 17.6984 17.9725 18.3829 0.00715248 -0.00589697 -0.000182066
