LAMMPS (23 Jun 2022 - Update 4)
# =============================================================================
# LAMMPS Minimization Input Script (Single-Step Soft Potential Strategy)
# Generated by Jinja2 template engine
# Generation time: 2026-06-29T22:44:15.790083100
# Job ID: 1290002
# =============================================================================
#
# Single-step soft potential minimization strategy:
#   Use soft potential with small cutoff (2.5A) and A=1000 to resolve
#   inter-molecular overlaps without disturbing properly packed atoms.
#
# CRITICAL FIX (v5):
#   v4 used multi-cutoff strategy (2.5 -> 4.0 -> 6.0) which DESTROYED the
#   structure. The soft potential with larger cutoffs (4.0, 6.0) pushed
#   apart atoms at legitimate distances (2.5-6.0A), causing the molecular
#   structure to collapse. Testing showed:
#     - After step 1 (rc=2.5): min distance 1.07A, 0 pairs < 1.0A (PERFECT)
#     - After step 2 (rc=4.0): min distance 0.00A, 891 pairs < 1.0A (DESTROYED)
#     - After step 3 (rc=6.0): min distance 0.00A, 3937 pairs < 1.0A (WORSE)
#   v5 uses ONLY a single step with rc=2.5, which resolves all close contacts
#   without disturbing the properly packed structure.
#
# Why small cutoff (2.5A) works:
#   - Packmol initial structure typically has only a few close contacts
#     (min distance ~0.67A, 4 pairs < 1.0A)
#   - Soft potential with rc=2.5A only acts on pairs < 2.5A
#   - Special_bonds lj 0 0 0.5 protects bonded pairs (1-2, 1-3)
#   - A=1000 gives max force 800 at r=0, strong enough to push apart overlaps
#     but only within the small cutoff range
#
# Bond force constants for reference:
#   C-C (sp3): k=268, C=C: k=414, C=O: k=570, C-H: k=340, C-O: k=320
#   Angle force constants: k=50-80
#   With A=1000, rc=2.5: max soft force = 2*1000/2.5 = 800
#   This is stronger than angle forces (50-80) and comparable to bond forces
#   (268-570), but only acts on non-bonded pairs within 2.5A.

# =============================================================================
# Single Step: Soft potential with small cutoff (2.5A) - resolve all overlaps
# =============================================================================
units           real
atom_style      full
dimension       3
boundary        p p p

# Bonded interactions (needed for bond/angle force computation)
bond_style      harmonic
angle_style     harmonic
dihedral_style  none
improper_style  none

# Use lj/cut first to match the pair_coeff format in system.in.settings
pair_style      lj/cut/coul/cut 8.0 8.0
special_bonds   lj 0.0 0.0 0.5 coul 0.0 0.0 0.5
kspace_style    none

# Read structure file
read_data       system.data
Reading data file ...
  orthogonal box = (0 0 0) to (20 20 20)
  1 by 1 by 1 MPI processor grid
  reading atoms ...
  770 atoms
  scanning bonds ...
  6 = max bonds/atom
  scanning angles ...
  15 = max angles/atom
  scanning dihedrals ...
  3 = max dihedrals/atom
  reading bonds ...
  715 bonds
  reading angles ...
  1087 angles
  reading dihedrals ...
  455 dihedrals
Finding 1-2 1-3 1-4 neighbors ...
  special bond factors lj:    0        0        0.5     
  special bond factors coul:  0        0        0.5     
     6 = max # of 1-2 neighbors
     5 = max # of 1-3 neighbors
     9 = max # of 1-4 neighbors
    11 = max # of special neighbors
  special bonds CPU = 0.000 seconds
  read_data CPU = 0.023 seconds

# Include force field parameters (bond_coeff, angle_coeff)
include         system.in.settings
pair_coeff 1 1 0.066 3.50
pair_coeff 2 2 0.066 3.50
pair_coeff 3 3 0.066 3.50
pair_coeff 4 4 0.066 3.50
pair_coeff 5 5 0.070 3.55
pair_coeff 6 6 0.070 3.55
pair_coeff 7 7 0.070 3.55
pair_coeff 8 8 0.070 3.55
pair_coeff 9 9 0.105 3.75
pair_coeff 10 10 0.105 3.75
pair_coeff 11 11 0.030 2.50
pair_coeff 12 12 0.030 2.50
pair_coeff 13 13 0.030 2.50
pair_coeff 14 14 0.030 2.42
pair_coeff 15 15 0.030 2.50
pair_coeff 16 16 0.030 2.50
pair_coeff 17 17 0.030 2.50
pair_coeff 18 18 0.170 3.00
pair_coeff 19 19 0.170 3.00
pair_coeff 20 20 0.170 2.96
pair_coeff 21 21 0.170 3.00
pair_coeff 22 22 0.170 3.25
pair_coeff 23 23 0.170 3.25
pair_coeff 24 24 0.170 3.25
pair_coeff 25 25 0.170 3.25
pair_coeff 26 26 0.255 2.95
pair_coeff 27 27 0.200 3.70
pair_coeff 28 28 0.0025 1.506
pair_coeff 29 29 0.250 3.55
pair_coeff 30 30 0.250 3.55
#  -
bond_coeff 1  268.0  1.529   # C-C   (sp3-sp3)
bond_coeff 2  414.0  1.330   # C=C   (sp2-sp2)
bond_coeff 3 320.0  1.400   #   C-C

#  -
bond_coeff 4     340.0  1.090   # C-H  (sp3 )
bond_coeff 5     340.0  1.080   # C-H  (sp2 )
bond_coeff 6    340.0  1.080   # C-H  (   )

#  -
bond_coeff 7  320.0  1.410   # C-O   (   )
bond_coeff 8  570.0  1.229   # C=O   (  )
bond_coeff 9    320.0  1.360   # C-O  (  )

#  -
bond_coeff 10  300.0  1.470   # C-N   ( )
bond_coeff 11  440.0  1.270   # C=N   (  )
bond_coeff 12   350.0  1.340   # C-N  (  )

#  -
bond_coeff 13         340.0  0.960   # O-H  (    )

#  -
bond_coeff 14         340.0  1.010   # N-H  ( )

#  -   (PF6)
bond_coeff 15         420.0  1.560   # P-F  (     )

#  -
bond_coeff 16         200.0  1.810   # S-C  (  )

#  -
bond_coeff 17         300.0  1.430   # S-O  (   )
#  - -
angle_coeff 1    50.0  109.5   # C-C-C (sp3)
angle_coeff 2    80.0  120.0   # C-C-C (sp2)
angle_coeff 3   60.0  120.0   # C-C-C (  )

#  - -
angle_coeff 4    37.5  110.7   # C-C-H (sp3)
angle_coeff 5    40.0  120.0   # C-C-H (sp2)

#  - -
angle_coeff 6    33.0  106.4   # H-C-H (sp3   )
angle_coeff 7   33.0  107.8   # H-C-H (sp3  )
angle_coeff 8    35.0  120.0   # H-C-H (sp2)

#  - -
angle_coeff 9  60.0  109.5   # C-O-C ( )
angle_coeff 10  60.0  124.0   # C-O-C ( )

#  - -
angle_coeff 11   80.0  123.0   # O-C=O (  )
angle_coeff 12  80.0  120.4   # O-C-O ( )

#  - -
angle_coeff 13        50.0  109.5   # C-C-O

#  - -
angle_coeff 14        50.0  109.5   # C-O-H ( )

#  - -
angle_coeff 15        50.0  109.5   # C-N-C ( )
angle_coeff 16  50.0  120.0   # C-N-C (  )

#  - -    (PF6)
angle_coeff 17        80.0   90.0   # F-P-F (     )
angle_coeff 18    80.0  180.0   # F-P-F (  )
#  - - -

#  - - -

#  - - -

#  - - -

#  - - -

#  - - -

#  - - =
#

#
pair_coeff 31 31 0.00034 2.126

# Switch to soft potential with small cutoff (2.5A)
# A=1000: strong repulsive force (max 2*A/rc = 800 at r=0)
# Only acts on pairs < 2.5A, preserving properly packed structure
pair_style      soft 2.5
pair_coeff      * * 1000.0

# Neighbor list settings
neighbor        2.0 bin
neigh_modify    every 1 delay 0 check yes

# Thermodynamic output
thermo          100
thermo_style    custom step temp pe ke etotal press vol

# SD minimization (Steepest Descent - robust for high-energy starts)
min_style       sd
minimize        1e-06 0.0001 5000 5000
Generated 0 of 465 mixed pair_coeff terms from geometric mixing rule
WARNING: Dihedrals are defined but no dihedral style is set (../force.cpp:202)
WARNING: Likewise 1-4 special neighbor interactions != 1.0 (../force.cpp:204)
Neighbor list info ...
  update every 1 steps, delay 0 steps, check yes
  max neighbors/atom: 2000, page size: 100000
  master list distance cutoff = 4.5
  ghost atom cutoff = 4.5
  binsize = 2.25, bins = 9 9 9
  1 neighbor lists, perpetual/occasional/extra = 1 0 0
  (1) pair soft, perpetual
      attributes: half, newton on
      pair build: half/bin/newton
      stencil: half/bin/3d
      bin: standard
WARNING: Communication cutoff 4.5 is shorter than a bond length based estimate of 4.715. This may lead to errors. (../comm.cpp:727)
Per MPI rank memory allocation (min/avg/max) = 13.3 | 13.3 | 13.3 Mbytes
   Step          Temp          PotEng         KinEng         TotEng         Press          Volume    
         0   0              142806.3       0              142806.3       1846570.4      8000         
       100   0              1733.6296      0              1733.6296      120755.71      8000         
       200   0              1016.0722      0              1016.0722      77800.102      8000         
       300   0              737.87343      0              737.87343      62956.081      8000         
       400   0              560.87428      0              560.87428      51206.246      8000         
       500   0              463.39291      0              463.39291      42436.552      8000         
       600   0              405.92725      0              405.92725      36502.193      8000         
       700   0              366.77301      0              366.77301      32024.461      8000         
       800   0              338.50638      0              338.50638      28323.064      8000         
       900   0              316.97048      0              316.97048      25679.997      8000         
      1000   0              298.3476       0              298.3476       23436.932      8000         
      1100   0              282.65135      0              282.65135      21849.735      8000         
      1200   0              268.6453       0              268.6453       20498.201      8000         
      1300   0              254.04039      0              254.04039      19453.381      8000         
      1400   0              234.48103      0              234.48103      18629.676      8000         
      1500   0              219.1852       0              219.1852       17450.163      8000         
      1600   0              207.94357      0              207.94357      16203.517      8000         
      1700   0              198.25907      0              198.25907      15096.151      8000         
      1800   0              189.84883      0              189.84883      14121.239      8000         
      1855   0              185.64102      0              185.64102      13237.619      8000         
Loop time of 0.348361 on 1 procs for 1855 steps with 770 atoms

99.7% CPU use with 1 MPI tasks x no OpenMP threads

Minimization stats:
  Stopping criterion = energy tolerance
  Energy initial, next-to-last, final = 
      142806.302827461   185.641177983671   185.641021113341
  Force two-norm initial, final = 29169.546 48.240648
  Force max component initial, final = 3446.3707 11.563112
  Final line search alpha, max atom move = 0.012808855 0.14811023
  Iterations, force evaluations = 1855 3682

MPI task timing breakdown:
Section |  min time  |  avg time  |  max time  |%varavg| %total
---------------------------------------------------------------
Pair    | 0.1658     | 0.1658     | 0.1658     |   0.0 | 47.59
Bond    | 0.14174    | 0.14174    | 0.14174    |   0.0 | 40.69
Neigh   | 0.0047465  | 0.0047465  | 0.0047465  |   0.0 |  1.36
Comm    | 0.012008   | 0.012008   | 0.012008   |   0.0 |  3.45
Output  | 0.0014435  | 0.0014435  | 0.0014435  |   0.0 |  0.41
Modify  | 0          | 0          | 0          |   0.0 |  0.00
Other   |            | 0.02262    |            |       |  6.49

Nlocal:            770 ave         770 max         770 min
Histogram: 1 0 0 0 0 0 0 0 0 0
Nghost:           1426 ave        1426 max        1426 min
Histogram: 1 0 0 0 0 0 0 0 0 0
Neighs:          12372 ave       12372 max       12372 min
Histogram: 1 0 0 0 0 0 0 0 0 0

Total # of neighbors = 12372
Ave neighs/atom = 16.067532
Ave special neighs/atom = 6.7376623
Neighbor list builds = 5
Dangerous builds = 0

# Write final minimized configuration
write_data      minimized.data nocoeff
System init for write_data ...
Generated 0 of 465 mixed pair_coeff terms from geometric mixing rule
WARNING: Dihedrals are defined but no dihedral style is set (../force.cpp:202)
WARNING: Likewise 1-4 special neighbor interactions != 1.0 (../force.cpp:204)
WARNING: Communication cutoff 4.5 is shorter than a bond length based estimate of 4.715. This may lead to errors. (../comm.cpp:727)
Total wall time: 0:00:00
LAMMPS (23 Jun 2022 - Update 4)
# =============================================================================
# LAMMPS Equilibrium Input Script (Gradual LJ Transition via NVE/limit)
# Generated by Jinja2 template engine
# Generation time: 2026-06-29T22:44:15.790083100
# Job ID: 1290002
# =============================================================================
#
# Six-phase gradual relaxation strategy:
#   Phase 0: NVE/limit with real LJ (cutoff=4.0A) and tiny timestep.
#            After soft potential minimization, atoms are at safe distances
#            (>= ~2.5A). NVE/limit with small displacement limit (0.02A)
#            safely transitions to real LJ dynamics without energy explosions.
#   Phase 1: NVE/limit with cutoff=5.0A.
#   Phase 2: NVE/limit with cutoff=6.0A.
#   Phase 3: NVE/limit with full cutoff=8.0A.
#   Phase 4: NVT thermostat at target temperature.
#   Phase 5: NPT barostat at target pressure.
#
# CRITICAL FIX (v4):
#   v3 used CG minimization for the LJ transition (Phase 0), which failed
#   because CG can make large steps that cause atoms to overlap.
#   v4 uses NVE/limit which limits displacement per step, preventing
#   energy explosions even if some close contacts remain.
#
# Why NVE/limit instead of CG minimization:
#   - CG minimization uses line search, which can fail (alpha=0) when forces
#     are extreme, leaving the structure unrelaxed.
#   - NVE/limit simply limits displacement per step, always making progress.
#   - NVE/limit is faster (no line search) and more robust.

# Initialization settings
units           real
atom_style      full
dimension       3
boundary        p p p

# Force field styles
bond_style      harmonic
angle_style     harmonic
dihedral_style  none
improper_style  none

# Start with real LJ at small cutoff=4.0A for safe transition
pair_style      lj/cut/coul/cut 4.0 4.0
special_bonds   lj 0.0 0.0 0.5 coul 0.0 0.0 0.5
kspace_style    none

# Read the FINAL minimized configuration (from minimization step 3)
read_data       minimized.data
Reading data file ...
  orthogonal box = (0 0 0) to (20 20 20)
  1 by 1 by 1 MPI processor grid
  reading atoms ...
  770 atoms
  reading velocities ...
  770 velocities
  scanning bonds ...
  6 = max bonds/atom
  scanning angles ...
  15 = max angles/atom
  scanning dihedrals ...
  3 = max dihedrals/atom
  reading bonds ...
  715 bonds
  reading angles ...
  1087 angles
  reading dihedrals ...
  455 dihedrals
Finding 1-2 1-3 1-4 neighbors ...
  special bond factors lj:    0        0        0.5     
  special bond factors coul:  0        0        0.5     
     6 = max # of 1-2 neighbors
     5 = max # of 1-3 neighbors
     9 = max # of 1-4 neighbors
    11 = max # of special neighbors
  special bonds CPU = 0.000 seconds
  read_data CPU = 0.029 seconds

# Include force field parameters (bond_coeff, angle_coeff, pair_coeff)
include         system.in.settings
pair_coeff 1 1 0.066 3.50
pair_coeff 2 2 0.066 3.50
pair_coeff 3 3 0.066 3.50
pair_coeff 4 4 0.066 3.50
pair_coeff 5 5 0.070 3.55
pair_coeff 6 6 0.070 3.55
pair_coeff 7 7 0.070 3.55
pair_coeff 8 8 0.070 3.55
pair_coeff 9 9 0.105 3.75
pair_coeff 10 10 0.105 3.75
pair_coeff 11 11 0.030 2.50
pair_coeff 12 12 0.030 2.50
pair_coeff 13 13 0.030 2.50
pair_coeff 14 14 0.030 2.42
pair_coeff 15 15 0.030 2.50
pair_coeff 16 16 0.030 2.50
pair_coeff 17 17 0.030 2.50
pair_coeff 18 18 0.170 3.00
pair_coeff 19 19 0.170 3.00
pair_coeff 20 20 0.170 2.96
pair_coeff 21 21 0.170 3.00
pair_coeff 22 22 0.170 3.25
pair_coeff 23 23 0.170 3.25
pair_coeff 24 24 0.170 3.25
pair_coeff 25 25 0.170 3.25
pair_coeff 26 26 0.255 2.95
pair_coeff 27 27 0.200 3.70
pair_coeff 28 28 0.0025 1.506
pair_coeff 29 29 0.250 3.55
pair_coeff 30 30 0.250 3.55
#  -
bond_coeff 1  268.0  1.529   # C-C   (sp3-sp3)
bond_coeff 2  414.0  1.330   # C=C   (sp2-sp2)
bond_coeff 3 320.0  1.400   #   C-C

#  -
bond_coeff 4     340.0  1.090   # C-H  (sp3 )
bond_coeff 5     340.0  1.080   # C-H  (sp2 )
bond_coeff 6    340.0  1.080   # C-H  (   )

#  -
bond_coeff 7  320.0  1.410   # C-O   (   )
bond_coeff 8  570.0  1.229   # C=O   (  )
bond_coeff 9    320.0  1.360   # C-O  (  )

#  -
bond_coeff 10  300.0  1.470   # C-N   ( )
bond_coeff 11  440.0  1.270   # C=N   (  )
bond_coeff 12   350.0  1.340   # C-N  (  )

#  -
bond_coeff 13         340.0  0.960   # O-H  (    )

#  -
bond_coeff 14         340.0  1.010   # N-H  ( )

#  -   (PF6)
bond_coeff 15         420.0  1.560   # P-F  (     )

#  -
bond_coeff 16         200.0  1.810   # S-C  (  )

#  -
bond_coeff 17         300.0  1.430   # S-O  (   )
#  - -
angle_coeff 1    50.0  109.5   # C-C-C (sp3)
angle_coeff 2    80.0  120.0   # C-C-C (sp2)
angle_coeff 3   60.0  120.0   # C-C-C (  )

#  - -
angle_coeff 4    37.5  110.7   # C-C-H (sp3)
angle_coeff 5    40.0  120.0   # C-C-H (sp2)

#  - -
angle_coeff 6    33.0  106.4   # H-C-H (sp3   )
angle_coeff 7   33.0  107.8   # H-C-H (sp3  )
angle_coeff 8    35.0  120.0   # H-C-H (sp2)

#  - -
angle_coeff 9  60.0  109.5   # C-O-C ( )
angle_coeff 10  60.0  124.0   # C-O-C ( )

#  - -
angle_coeff 11   80.0  123.0   # O-C=O (  )
angle_coeff 12  80.0  120.4   # O-C-O ( )

#  - -
angle_coeff 13        50.0  109.5   # C-C-O

#  - -
angle_coeff 14        50.0  109.5   # C-O-H ( )

#  - -
angle_coeff 15        50.0  109.5   # C-N-C ( )
angle_coeff 16  50.0  120.0   # C-N-C (  )

#  - -    (PF6)
angle_coeff 17        80.0   90.0   # F-P-F (     )
angle_coeff 18    80.0  180.0   # F-P-F (  )
#  - - -

#  - - -

#  - - -

#  - - -

#  - - -

#  - - -

#  - - =
#

#
pair_coeff 31 31 0.00034 2.126

# Neighbor list settings
neighbor        2.0 bin
neigh_modify    every 1 delay 0 check yes

# Thermodynamic output
thermo          100
thermo_style    custom step temp pe ke etotal press vol density

# =============================================================================
# Phase 0: NVE/limit with real LJ (cutoff=4.0A)
# Very small timestep (0.05 fs) and strict displacement limit (0.02 A).
# This safely transitions from soft potential to real LJ dynamics.
# =============================================================================
timestep        0.05
fix             nve_limit all nve/limit 0.02
run             500
Generated 465 of 465 mixed pair_coeff terms from geometric mixing rule
WARNING: Dihedrals are defined but no dihedral style is set (../force.cpp:202)
WARNING: Likewise 1-4 special neighbor interactions != 1.0 (../force.cpp:204)
Neighbor list info ...
  update every 1 steps, delay 0 steps, check yes
  max neighbors/atom: 2000, page size: 100000
  master list distance cutoff = 6
  ghost atom cutoff = 6
  binsize = 3, bins = 7 7 7
  1 neighbor lists, perpetual/occasional/extra = 1 0 0
  (1) pair lj/cut/coul/cut, perpetual
      attributes: half, newton on
      pair build: half/bin/newton
      stencil: half/bin/3d
      bin: standard
Per MPI rank memory allocation (min/avg/max) = 12.23 | 12.23 | 12.23 Mbytes
   Step          Temp          PotEng         KinEng         TotEng         Press          Volume        Density    
         0   0             -714.4325       0             -714.4325       74172.83       8000           1.3463241    
       100   103.66366     -976.23739      237.62229     -738.61511      70228.258      8000           1.3463241    
       200   214.53179     -1349.058       491.75897     -857.29901      64117.62       8000           1.3463241    
       300   280.32863     -1407.7586      642.58133     -765.1773       60835.161      8000           1.3463241    
       400   326.75459     -1440.5165      749.00091     -691.51555      55111.525      8000           1.3463241    
       500   370.34071     -1570.0818      848.91088     -721.17094      49509.851      8000           1.3463241    
Loop time of 0.107169 on 1 procs for 500 steps with 770 atoms

Performance: 20.155 ns/day, 1.191 hours/ns, 4665.531 timesteps/s
100.0% CPU use with 1 MPI tasks x no OpenMP threads

MPI task timing breakdown:
Section |  min time  |  avg time  |  max time  |%varavg| %total
---------------------------------------------------------------
Pair    | 0.083449   | 0.083449   | 0.083449   |   0.0 | 77.87
Bond    | 0.017857   | 0.017857   | 0.017857   |   0.0 | 16.66
Neigh   | 0          | 0          | 0          |   0.0 |  0.00
Comm    | 0.0026867  | 0.0026867  | 0.0026867  |   0.0 |  2.51
Output  | 0.00010971 | 0.00010971 | 0.00010971 |   0.0 |  0.10
Modify  | 0.0019437  | 0.0019437  | 0.0019437  |   0.0 |  1.81
Other   |            | 0.001123   |            |       |  1.05

Nlocal:            770 ave         770 max         770 min
Histogram: 1 0 0 0 0 0 0 0 0 0
Nghost:           2340 ave        2340 max        2340 min
Histogram: 1 0 0 0 0 0 0 0 0 0
Neighs:          31938 ave       31938 max       31938 min
Histogram: 1 0 0 0 0 0 0 0 0 0

Total # of neighbors = 31938
Ave neighs/atom = 41.477922
Ave special neighs/atom = 6.7376623
Neighbor list builds = 0
Dangerous builds = 0
unfix           nve_limit

# =============================================================================
# Phase 1: NVE/limit with cutoff=5.0A
# =============================================================================
pair_style      lj/cut/coul/cut 5.0 5.0
include         system.in.settings
pair_coeff 1 1 0.066 3.50
pair_coeff 2 2 0.066 3.50
pair_coeff 3 3 0.066 3.50
pair_coeff 4 4 0.066 3.50
pair_coeff 5 5 0.070 3.55
pair_coeff 6 6 0.070 3.55
pair_coeff 7 7 0.070 3.55
pair_coeff 8 8 0.070 3.55
pair_coeff 9 9 0.105 3.75
pair_coeff 10 10 0.105 3.75
pair_coeff 11 11 0.030 2.50
pair_coeff 12 12 0.030 2.50
pair_coeff 13 13 0.030 2.50
pair_coeff 14 14 0.030 2.42
pair_coeff 15 15 0.030 2.50
pair_coeff 16 16 0.030 2.50
pair_coeff 17 17 0.030 2.50
pair_coeff 18 18 0.170 3.00
pair_coeff 19 19 0.170 3.00
pair_coeff 20 20 0.170 2.96
pair_coeff 21 21 0.170 3.00
pair_coeff 22 22 0.170 3.25
pair_coeff 23 23 0.170 3.25
pair_coeff 24 24 0.170 3.25
pair_coeff 25 25 0.170 3.25
pair_coeff 26 26 0.255 2.95
pair_coeff 27 27 0.200 3.70
pair_coeff 28 28 0.0025 1.506
pair_coeff 29 29 0.250 3.55
pair_coeff 30 30 0.250 3.55
#  -
bond_coeff 1  268.0  1.529   # C-C   (sp3-sp3)
bond_coeff 2  414.0  1.330   # C=C   (sp2-sp2)
bond_coeff 3 320.0  1.400   #   C-C

#  -
bond_coeff 4     340.0  1.090   # C-H  (sp3 )
bond_coeff 5     340.0  1.080   # C-H  (sp2 )
bond_coeff 6    340.0  1.080   # C-H  (   )

#  -
bond_coeff 7  320.0  1.410   # C-O   (   )
bond_coeff 8  570.0  1.229   # C=O   (  )
bond_coeff 9    320.0  1.360   # C-O  (  )

#  -
bond_coeff 10  300.0  1.470   # C-N   ( )
bond_coeff 11  440.0  1.270   # C=N   (  )
bond_coeff 12   350.0  1.340   # C-N  (  )

#  -
bond_coeff 13         340.0  0.960   # O-H  (    )

#  -
bond_coeff 14         340.0  1.010   # N-H  ( )

#  -   (PF6)
bond_coeff 15         420.0  1.560   # P-F  (     )

#  -
bond_coeff 16         200.0  1.810   # S-C  (  )

#  -
bond_coeff 17         300.0  1.430   # S-O  (   )
#  - -
angle_coeff 1    50.0  109.5   # C-C-C (sp3)
angle_coeff 2    80.0  120.0   # C-C-C (sp2)
angle_coeff 3   60.0  120.0   # C-C-C (  )

#  - -
angle_coeff 4    37.5  110.7   # C-C-H (sp3)
angle_coeff 5    40.0  120.0   # C-C-H (sp2)

#  - -
angle_coeff 6    33.0  106.4   # H-C-H (sp3   )
angle_coeff 7   33.0  107.8   # H-C-H (sp3  )
angle_coeff 8    35.0  120.0   # H-C-H (sp2)

#  - -
angle_coeff 9  60.0  109.5   # C-O-C ( )
angle_coeff 10  60.0  124.0   # C-O-C ( )

#  - -
angle_coeff 11   80.0  123.0   # O-C=O (  )
angle_coeff 12  80.0  120.4   # O-C-O ( )

#  - -
angle_coeff 13        50.0  109.5   # C-C-O

#  - -
angle_coeff 14        50.0  109.5   # C-O-H ( )

#  - -
angle_coeff 15        50.0  109.5   # C-N-C ( )
angle_coeff 16  50.0  120.0   # C-N-C (  )

#  - -    (PF6)
angle_coeff 17        80.0   90.0   # F-P-F (     )
angle_coeff 18    80.0  180.0   # F-P-F (  )
#  - - -

#  - - -

#  - - -

#  - - -

#  - - -

#  - - -

#  - - =
#

#
pair_coeff 31 31 0.00034 2.126
neighbor        2.0 bin
neigh_modify    every 1 delay 0 check yes
timestep        0.1
fix             nve_limit all nve/limit 0.05
run             500
Generated 465 of 465 mixed pair_coeff terms from geometric mixing rule
WARNING: Dihedrals are defined but no dihedral style is set (../force.cpp:202)
WARNING: Likewise 1-4 special neighbor interactions != 1.0 (../force.cpp:204)
Per MPI rank memory allocation (min/avg/max) = 12.24 | 12.24 | 12.24 Mbytes
   Step          Temp          PotEng         KinEng         TotEng         Press          Volume        Density    
       500   370.34071     -737.41875      848.91088      111.49213      49131.428      8000           1.3463241    
       600   439.61093     -885.51784      1007.6951      122.17721      40796.939      8000           1.3463241    
       700   509.49603     -1277.5924      1167.8887     -109.70377      43265.516      8000           1.3463241    
       800   515.05114     -1293.7042      1180.6223     -113.08183      50106.629      8000           1.3463241    
       900   529.29759     -1646.9671      1213.2787     -433.68843      49806.516      8000           1.3463241    
      1000   558.5648      -1521.8144      1280.3662     -241.44819      45522.815      8000           1.3463241    
Loop time of 0.188069 on 1 procs for 500 steps with 770 atoms

Performance: 22.970 ns/day, 1.045 hours/ns, 2658.597 timesteps/s
99.3% CPU use with 1 MPI tasks x no OpenMP threads

MPI task timing breakdown:
Section |  min time  |  avg time  |  max time  |%varavg| %total
---------------------------------------------------------------
Pair    | 0.15787    | 0.15787    | 0.15787    |   0.0 | 83.94
Bond    | 0.017551   | 0.017551   | 0.017551   |   0.0 |  9.33
Neigh   | 0.0042548  | 0.0042548  | 0.0042548  |   0.0 |  2.26
Comm    | 0.0035697  | 0.0035697  | 0.0035697  |   0.0 |  1.90
Output  | 0.0015364  | 0.0015364  | 0.0015364  |   0.0 |  0.82
Modify  | 0.0019176  | 0.0019176  | 0.0019176  |   0.0 |  1.02
Other   |            | 0.001374   |            |       |  0.73

Nlocal:            770 ave         770 max         770 min
Histogram: 1 0 0 0 0 0 0 0 0 0
Nghost:           2947 ave        2947 max        2947 min
Histogram: 1 0 0 0 0 0 0 0 0 0
Neighs:          51304 ave       51304 max       51304 min
Histogram: 1 0 0 0 0 0 0 0 0 0

Total # of neighbors = 51304
Ave neighs/atom = 66.628571
Ave special neighs/atom = 6.7376623
Neighbor list builds = 3
Dangerous builds = 0
unfix           nve_limit

# =============================================================================
# Phase 2: NVE/limit with cutoff=6.0A
# =============================================================================
pair_style      lj/cut/coul/cut 6.0 6.0
include         system.in.settings
pair_coeff 1 1 0.066 3.50
pair_coeff 2 2 0.066 3.50
pair_coeff 3 3 0.066 3.50
pair_coeff 4 4 0.066 3.50
pair_coeff 5 5 0.070 3.55
pair_coeff 6 6 0.070 3.55
pair_coeff 7 7 0.070 3.55
pair_coeff 8 8 0.070 3.55
pair_coeff 9 9 0.105 3.75
pair_coeff 10 10 0.105 3.75
pair_coeff 11 11 0.030 2.50
pair_coeff 12 12 0.030 2.50
pair_coeff 13 13 0.030 2.50
pair_coeff 14 14 0.030 2.42
pair_coeff 15 15 0.030 2.50
pair_coeff 16 16 0.030 2.50
pair_coeff 17 17 0.030 2.50
pair_coeff 18 18 0.170 3.00
pair_coeff 19 19 0.170 3.00
pair_coeff 20 20 0.170 2.96
pair_coeff 21 21 0.170 3.00
pair_coeff 22 22 0.170 3.25
pair_coeff 23 23 0.170 3.25
pair_coeff 24 24 0.170 3.25
pair_coeff 25 25 0.170 3.25
pair_coeff 26 26 0.255 2.95
pair_coeff 27 27 0.200 3.70
pair_coeff 28 28 0.0025 1.506
pair_coeff 29 29 0.250 3.55
pair_coeff 30 30 0.250 3.55
#  -
bond_coeff 1  268.0  1.529   # C-C   (sp3-sp3)
bond_coeff 2  414.0  1.330   # C=C   (sp2-sp2)
bond_coeff 3 320.0  1.400   #   C-C

#  -
bond_coeff 4     340.0  1.090   # C-H  (sp3 )
bond_coeff 5     340.0  1.080   # C-H  (sp2 )
bond_coeff 6    340.0  1.080   # C-H  (   )

#  -
bond_coeff 7  320.0  1.410   # C-O   (   )
bond_coeff 8  570.0  1.229   # C=O   (  )
bond_coeff 9    320.0  1.360   # C-O  (  )

#  -
bond_coeff 10  300.0  1.470   # C-N   ( )
bond_coeff 11  440.0  1.270   # C=N   (  )
bond_coeff 12   350.0  1.340   # C-N  (  )

#  -
bond_coeff 13         340.0  0.960   # O-H  (    )

#  -
bond_coeff 14         340.0  1.010   # N-H  ( )

#  -   (PF6)
bond_coeff 15         420.0  1.560   # P-F  (     )

#  -
bond_coeff 16         200.0  1.810   # S-C  (  )

#  -
bond_coeff 17         300.0  1.430   # S-O  (   )
#  - -
angle_coeff 1    50.0  109.5   # C-C-C (sp3)
angle_coeff 2    80.0  120.0   # C-C-C (sp2)
angle_coeff 3   60.0  120.0   # C-C-C (  )

#  - -
angle_coeff 4    37.5  110.7   # C-C-H (sp3)
angle_coeff 5    40.0  120.0   # C-C-H (sp2)

#  - -
angle_coeff 6    33.0  106.4   # H-C-H (sp3   )
angle_coeff 7   33.0  107.8   # H-C-H (sp3  )
angle_coeff 8    35.0  120.0   # H-C-H (sp2)

#  - -
angle_coeff 9  60.0  109.5   # C-O-C ( )
angle_coeff 10  60.0  124.0   # C-O-C ( )

#  - -
angle_coeff 11   80.0  123.0   # O-C=O (  )
angle_coeff 12  80.0  120.4   # O-C-O ( )

#  - -
angle_coeff 13        50.0  109.5   # C-C-O

#  - -
angle_coeff 14        50.0  109.5   # C-O-H ( )

#  - -
angle_coeff 15        50.0  109.5   # C-N-C ( )
angle_coeff 16  50.0  120.0   # C-N-C (  )

#  - -    (PF6)
angle_coeff 17        80.0   90.0   # F-P-F (     )
angle_coeff 18    80.0  180.0   # F-P-F (  )
#  - - -

#  - - -

#  - - -

#  - - -

#  - - -

#  - - -

#  - - =
#

#
pair_coeff 31 31 0.00034 2.126
neighbor        2.0 bin
neigh_modify    every 1 delay 0 check yes
fix             nve_limit all nve/limit 0.1
run             500
Generated 465 of 465 mixed pair_coeff terms from geometric mixing rule
WARNING: Dihedrals are defined but no dihedral style is set (../force.cpp:202)
WARNING: Likewise 1-4 special neighbor interactions != 1.0 (../force.cpp:204)
Per MPI rank memory allocation (min/avg/max) = 12.34 | 12.34 | 12.34 Mbytes
   Step          Temp          PotEng         KinEng         TotEng         Press          Volume        Density    
      1000   558.5648      -1557.5319      1280.3662     -277.16571      43760.719      8000           1.3463241    
      1100   585.01983     -1760.7658      1341.0076     -419.75826      36943.143      8000           1.3463241    
      1200   593.97763     -1736.9964      1361.541      -375.45533      36771.638      8000           1.3463241    
      1300   594.74241     -1646.158       1363.2941     -282.86389      41181.486      8000           1.3463241    
      1400   596.52094     -1682.1621      1367.3709     -314.79116      39419.195      8000           1.3463241    
      1500   598.66864     -1620.4701      1372.294      -248.17617      38163.217      8000           1.3463241    
Loop time of 0.275036 on 1 procs for 500 steps with 770 atoms

Performance: 15.707 ns/day, 1.528 hours/ns, 1817.947 timesteps/s
99.5% CPU use with 1 MPI tasks x no OpenMP threads

MPI task timing breakdown:
Section |  min time  |  avg time  |  max time  |%varavg| %total
---------------------------------------------------------------
Pair    | 0.24441    | 0.24441    | 0.24441    |   0.0 | 88.87
Bond    | 0.017532   | 0.017532   | 0.017532   |   0.0 |  6.37
Neigh   | 0.0035308  | 0.0035308  | 0.0035308  |   0.0 |  1.28
Comm    | 0.0043122  | 0.0043122  | 0.0043122  |   0.0 |  1.57
Output  | 0.0017003  | 0.0017003  | 0.0017003  |   0.0 |  0.62
Modify  | 0.0020571  | 0.0020571  | 0.0020571  |   0.0 |  0.75
Other   |            | 0.001491   |            |       |  0.54

Nlocal:            770 ave         770 max         770 min
Histogram: 1 0 0 0 0 0 0 0 0 0
Nghost:           3659 ave        3659 max        3659 min
Histogram: 1 0 0 0 0 0 0 0 0 0
Neighs:          77302 ave       77302 max       77302 min
Histogram: 1 0 0 0 0 0 0 0 0 0

Total # of neighbors = 77302
Ave neighs/atom = 100.39221
Ave special neighs/atom = 6.7376623
Neighbor list builds = 2
Dangerous builds = 0
unfix           nve_limit

# =============================================================================
# Phase 3: NVE/limit with full cutoff=8.0A
# =============================================================================
pair_style      lj/cut/coul/cut 8.0 8.0
include         system.in.settings
pair_coeff 1 1 0.066 3.50
pair_coeff 2 2 0.066 3.50
pair_coeff 3 3 0.066 3.50
pair_coeff 4 4 0.066 3.50
pair_coeff 5 5 0.070 3.55
pair_coeff 6 6 0.070 3.55
pair_coeff 7 7 0.070 3.55
pair_coeff 8 8 0.070 3.55
pair_coeff 9 9 0.105 3.75
pair_coeff 10 10 0.105 3.75
pair_coeff 11 11 0.030 2.50
pair_coeff 12 12 0.030 2.50
pair_coeff 13 13 0.030 2.50
pair_coeff 14 14 0.030 2.42
pair_coeff 15 15 0.030 2.50
pair_coeff 16 16 0.030 2.50
pair_coeff 17 17 0.030 2.50
pair_coeff 18 18 0.170 3.00
pair_coeff 19 19 0.170 3.00
pair_coeff 20 20 0.170 2.96
pair_coeff 21 21 0.170 3.00
pair_coeff 22 22 0.170 3.25
pair_coeff 23 23 0.170 3.25
pair_coeff 24 24 0.170 3.25
pair_coeff 25 25 0.170 3.25
pair_coeff 26 26 0.255 2.95
pair_coeff 27 27 0.200 3.70
pair_coeff 28 28 0.0025 1.506
pair_coeff 29 29 0.250 3.55
pair_coeff 30 30 0.250 3.55
#  -
bond_coeff 1  268.0  1.529   # C-C   (sp3-sp3)
bond_coeff 2  414.0  1.330   # C=C   (sp2-sp2)
bond_coeff 3 320.0  1.400   #   C-C

#  -
bond_coeff 4     340.0  1.090   # C-H  (sp3 )
bond_coeff 5     340.0  1.080   # C-H  (sp2 )
bond_coeff 6    340.0  1.080   # C-H  (   )

#  -
bond_coeff 7  320.0  1.410   # C-O   (   )
bond_coeff 8  570.0  1.229   # C=O   (  )
bond_coeff 9    320.0  1.360   # C-O  (  )

#  -
bond_coeff 10  300.0  1.470   # C-N   ( )
bond_coeff 11  440.0  1.270   # C=N   (  )
bond_coeff 12   350.0  1.340   # C-N  (  )

#  -
bond_coeff 13         340.0  0.960   # O-H  (    )

#  -
bond_coeff 14         340.0  1.010   # N-H  ( )

#  -   (PF6)
bond_coeff 15         420.0  1.560   # P-F  (     )

#  -
bond_coeff 16         200.0  1.810   # S-C  (  )

#  -
bond_coeff 17         300.0  1.430   # S-O  (   )
#  - -
angle_coeff 1    50.0  109.5   # C-C-C (sp3)
angle_coeff 2    80.0  120.0   # C-C-C (sp2)
angle_coeff 3   60.0  120.0   # C-C-C (  )

#  - -
angle_coeff 4    37.5  110.7   # C-C-H (sp3)
angle_coeff 5    40.0  120.0   # C-C-H (sp2)

#  - -
angle_coeff 6    33.0  106.4   # H-C-H (sp3   )
angle_coeff 7   33.0  107.8   # H-C-H (sp3  )
angle_coeff 8    35.0  120.0   # H-C-H (sp2)

#  - -
angle_coeff 9  60.0  109.5   # C-O-C ( )
angle_coeff 10  60.0  124.0   # C-O-C ( )

#  - -
angle_coeff 11   80.0  123.0   # O-C=O (  )
angle_coeff 12  80.0  120.4   # O-C-O ( )

#  - -
angle_coeff 13        50.0  109.5   # C-C-O

#  - -
angle_coeff 14        50.0  109.5   # C-O-H ( )

#  - -
angle_coeff 15        50.0  109.5   # C-N-C ( )
angle_coeff 16  50.0  120.0   # C-N-C (  )

#  - -    (PF6)
angle_coeff 17        80.0   90.0   # F-P-F (     )
angle_coeff 18    80.0  180.0   # F-P-F (  )
#  - - -

#  - - -

#  - - -

#  - - -

#  - - -

#  - - -

#  - - =
#

#
pair_coeff 31 31 0.00034 2.126
neighbor        2.0 bin
neigh_modify    every 1 delay 0 check yes
timestep        0.25
fix             nve_limit all nve/limit 0.2
run             500
Generated 465 of 465 mixed pair_coeff terms from geometric mixing rule
WARNING: Dihedrals are defined but no dihedral style is set (../force.cpp:202)
WARNING: Likewise 1-4 special neighbor interactions != 1.0 (../force.cpp:204)
Per MPI rank memory allocation (min/avg/max) = 12.84 | 12.84 | 12.84 Mbytes
   Step          Temp          PotEng         KinEng         TotEng         Press          Volume        Density    
      1500   598.66864     -1891.1513      1372.294      -518.85732      35983.158      8000           1.3463241    
      1600   631.77979     -2026.6572      1448.1928     -578.46446      41389.347      8000           1.3463241    
      1700   649.46871     -2120.0468      1488.74       -631.30676      35835.833      8000           1.3463241    
      1800   656.16039     -1659.4781      1504.079      -155.39904      35555.458      8000           1.3463241    
      1900   657.8663      -2116.6281      1507.9894     -608.63874      35339.693      8000           1.3463241    
      2000   662.38466     -2648.235       1518.3466     -1129.8884      23373.417      8000           1.3463241    
Loop time of 0.596036 on 1 procs for 500 steps with 770 atoms

Performance: 18.120 ns/day, 1.325 hours/ns, 838.875 timesteps/s
99.1% CPU use with 1 MPI tasks x no OpenMP threads

MPI task timing breakdown:
Section |  min time  |  avg time  |  max time  |%varavg| %total
---------------------------------------------------------------
Pair    | 0.53875    | 0.53875    | 0.53875    |   0.0 | 90.39
Bond    | 0.0195     | 0.0195     | 0.0195     |   0.0 |  3.27
Neigh   | 0.023927   | 0.023927   | 0.023927   |   0.0 |  4.01
Comm    | 0.0078012  | 0.0078012  | 0.0078012  |   0.0 |  1.31
Output  | 0.0012027  | 0.0012027  | 0.0012027  |   0.0 |  0.20
Modify  | 0.0024813  | 0.0024813  | 0.0024813  |   0.0 |  0.42
Other   |            | 0.002371   |            |       |  0.40

Nlocal:            770 ave         770 max         770 min
Histogram: 1 0 0 0 0 0 0 0 0 0
Nghost:           5390 ave        5390 max        5390 min
Histogram: 1 0 0 0 0 0 0 0 0 0
Neighs:         152846 ave      152846 max      152846 min
Histogram: 1 0 0 0 0 0 0 0 0 0

Total # of neighbors = 152846
Ave neighs/atom = 198.5013
Ave special neighs/atom = 6.7376623
Neighbor list builds = 8
Dangerous builds = 0
unfix           nve_limit

# =============================================================================
# Phase 4: NVT equilibration
# =============================================================================
velocity        all create 353.0 16229 dist gaussian
fix             nvt all nvt temp 353.0 353.0 100.0
timestep        1.0

# Trajectory output
dump            1 all custom 50 dump.equilibrium.lammpstrj id mol type x y z vx vy vz

run             500
Generated 465 of 465 mixed pair_coeff terms from geometric mixing rule
WARNING: Dihedrals are defined but no dihedral style is set (../force.cpp:202)
WARNING: Likewise 1-4 special neighbor interactions != 1.0 (../force.cpp:204)
Per MPI rank memory allocation (min/avg/max) = 14.15 | 14.15 | 14.15 Mbytes
   Step          Temp          PotEng         KinEng         TotEng         Press          Volume        Density    
      2000   353           -2648.235       809.16175     -1839.0732      19321.111      8000           1.3463241    
      2100   441.52822     -2376.8172      1012.0899     -1364.7272      24097.22       8000           1.3463241    
      2200   421.18629     -2085.1403      965.46131     -1119.679       21379.292      8000           1.3463241    
      2300   379.65126     -2474.325       870.25292     -1604.0721      16919.533      8000           1.3463241    
      2400   364.19449     -2571.5906      834.82224     -1736.7683      12841.007      8000           1.3463241    
      2500   352.00613     -2974.3539      806.88357     -2167.4703      18843.229      8000           1.3463241    
Loop time of 0.678175 on 1 procs for 500 steps with 770 atoms

Performance: 63.700 ns/day, 0.377 hours/ns, 737.272 timesteps/s
95.4% CPU use with 1 MPI tasks x no OpenMP threads

MPI task timing breakdown:
Section |  min time  |  avg time  |  max time  |%varavg| %total
---------------------------------------------------------------
Pair    | 0.53841    | 0.53841    | 0.53841    |   0.0 | 79.39
Bond    | 0.019944   | 0.019944   | 0.019944   |   0.0 |  2.94
Neigh   | 0.0619     | 0.0619     | 0.0619     |   0.0 |  9.13
Comm    | 0.0084917  | 0.0084917  | 0.0084917  |   0.0 |  1.25
Output  | 0.042276   | 0.042276   | 0.042276   |   0.0 |  6.23
Modify  | 0.0047412  | 0.0047412  | 0.0047412  |   0.0 |  0.70
Other   |            | 0.002411   |            |       |  0.36

Nlocal:            770 ave         770 max         770 min
Histogram: 1 0 0 0 0 0 0 0 0 0
Nghost:           5390 ave        5390 max        5390 min
Histogram: 1 0 0 0 0 0 0 0 0 0
Neighs:         153006 ave      153006 max      153006 min
Histogram: 1 0 0 0 0 0 0 0 0 0

Total # of neighbors = 153006
Ave neighs/atom = 198.70909
Ave special neighs/atom = 6.7376623
Neighbor list builds = 21
Dangerous builds = 0
unfix           nvt

# =============================================================================
# Phase 5: NPT equilibration
# =============================================================================
fix             npt all npt temp 353.0 353.0 100.0 iso 1.0 1.0 1000.0
timestep        1.0
run             500
Generated 465 of 465 mixed pair_coeff terms from geometric mixing rule
WARNING: Dihedrals are defined but no dihedral style is set (../force.cpp:202)
WARNING: Likewise 1-4 special neighbor interactions != 1.0 (../force.cpp:204)
Per MPI rank memory allocation (min/avg/max) = 14.15 | 14.15 | 14.15 Mbytes
   Step          Temp          PotEng         KinEng         TotEng         Press          Volume        Density    
      2500   352.00613     -2974.3539      806.88357     -2167.4703      18843.229      8000           1.3463241    
      2600   344.12319     -3177.6384      788.81396     -2388.8244      4918.6324      8321.4186      1.2943217    
      2700   346.55005     -3943.6188      794.37691     -3149.2419      415.13873      8822.6602      1.2207874    
      2800   354.11876     -3898.7458      811.72623     -3087.0196      2420.2757      9115.3334      1.1815906    
      2900   353.25839     -3233.7572      809.75405     -2424.0032     -466.25946      9326.591       1.1548263    
      3000   352.84605     -2946.0766      808.80887     -2137.2677      898.91034      9464.8966      1.1379514    
Loop time of 0.658437 on 1 procs for 500 steps with 770 atoms

Performance: 65.610 ns/day, 0.366 hours/ns, 759.374 timesteps/s
95.0% CPU use with 1 MPI tasks x no OpenMP threads

MPI task timing breakdown:
Section |  min time  |  avg time  |  max time  |%varavg| %total
---------------------------------------------------------------
Pair    | 0.51236    | 0.51236    | 0.51236    |   0.0 | 77.81
Bond    | 0.02321    | 0.02321    | 0.02321    |   0.0 |  3.53
Neigh   | 0.059066   | 0.059066   | 0.059066   |   0.0 |  8.97
Comm    | 0.0076473  | 0.0076473  | 0.0076473  |   0.0 |  1.16
Output  | 0.043899   | 0.043899   | 0.043899   |   0.0 |  6.67
Modify  | 0.0099532  | 0.0099532  | 0.0099532  |   0.0 |  1.51
Other   |            | 0.002299   |            |       |  0.35

Nlocal:            770 ave         770 max         770 min
Histogram: 1 0 0 0 0 0 0 0 0 0
Nghost:           4926 ave        4926 max        4926 min
Histogram: 1 0 0 0 0 0 0 0 0 0
Neighs:         129650 ave      129650 max      129650 min
Histogram: 1 0 0 0 0 0 0 0 0 0

Total # of neighbors = 129650
Ave neighs/atom = 168.37662
Ave special neighs/atom = 6.7376623
Neighbor list builds = 20
Dangerous builds = 0
unfix           npt

# Output equilibrated configuration
write_data      equilibrated.data
System init for write_data ...
Generated 465 of 465 mixed pair_coeff terms from geometric mixing rule
WARNING: Dihedrals are defined but no dihedral style is set (../force.cpp:202)
WARNING: Likewise 1-4 special neighbor interactions != 1.0 (../force.cpp:204)
Total wall time: 0:00:02
LAMMPS (23 Jun 2022 - Update 4)
# =============================================================================
# LAMMPS Production Simulation Input Script
# Generated by Jinja2 template engine
# Generation time: 2026-06-29T22:44:15.790083100
# Job ID: 1290002
# Target properties: density, conductivity
# =============================================================================

# Initialization settings
units           real
atom_style      full
dimension       3
boundary        p p p

# Force field styles (using cutoff Coulomb to handle non-neutral system charge)
# Note: PPPM requires charge neutrality. The current force field gives DMC
# molecules a net charge of +0.12 each, making the system non-neutral.
# Using lj/cut/coul/cut with no kspace as a workaround.
bond_style      harmonic
angle_style     harmonic
dihedral_style  none
improper_style  none
pair_style      lj/cut/coul/cut 8.0 8.0
special_bonds   lj 0.0 0.0 0.5 coul 0.0 0.0 0.5
kspace_style    none

# Read equilibrated configuration
read_data       equilibrated.data
Reading data file ...
  orthogonal box = (-0.57649974 -0.57649974 -0.57649974) to (20.5765 20.5765 20.5765)
  1 by 1 by 1 MPI processor grid
  reading atoms ...
  770 atoms
  reading velocities ...
  770 velocities
  scanning bonds ...
  6 = max bonds/atom
  scanning angles ...
  15 = max angles/atom
  scanning dihedrals ...
  3 = max dihedrals/atom
  reading bonds ...
  715 bonds
  reading angles ...
  1087 angles
  reading dihedrals ...
  455 dihedrals
Finding 1-2 1-3 1-4 neighbors ...
  special bond factors lj:    0        0        0.5     
  special bond factors coul:  0        0        0.5     
     6 = max # of 1-2 neighbors
     5 = max # of 1-3 neighbors
     9 = max # of 1-4 neighbors
    11 = max # of special neighbors
  special bonds CPU = 0.000 seconds
  read_data CPU = 0.036 seconds

# Force field parameters (PPPM auto-selects grid size)
include         system.in.settings
pair_coeff 1 1 0.066 3.50
pair_coeff 2 2 0.066 3.50
pair_coeff 3 3 0.066 3.50
pair_coeff 4 4 0.066 3.50
pair_coeff 5 5 0.070 3.55
pair_coeff 6 6 0.070 3.55
pair_coeff 7 7 0.070 3.55
pair_coeff 8 8 0.070 3.55
pair_coeff 9 9 0.105 3.75
pair_coeff 10 10 0.105 3.75
pair_coeff 11 11 0.030 2.50
pair_coeff 12 12 0.030 2.50
pair_coeff 13 13 0.030 2.50
pair_coeff 14 14 0.030 2.42
pair_coeff 15 15 0.030 2.50
pair_coeff 16 16 0.030 2.50
pair_coeff 17 17 0.030 2.50
pair_coeff 18 18 0.170 3.00
pair_coeff 19 19 0.170 3.00
pair_coeff 20 20 0.170 2.96
pair_coeff 21 21 0.170 3.00
pair_coeff 22 22 0.170 3.25
pair_coeff 23 23 0.170 3.25
pair_coeff 24 24 0.170 3.25
pair_coeff 25 25 0.170 3.25
pair_coeff 26 26 0.255 2.95
pair_coeff 27 27 0.200 3.70
pair_coeff 28 28 0.0025 1.506
pair_coeff 29 29 0.250 3.55
pair_coeff 30 30 0.250 3.55
#  -
bond_coeff 1  268.0  1.529   # C-C   (sp3-sp3)
bond_coeff 2  414.0  1.330   # C=C   (sp2-sp2)
bond_coeff 3 320.0  1.400   #   C-C

#  -
bond_coeff 4     340.0  1.090   # C-H  (sp3 )
bond_coeff 5     340.0  1.080   # C-H  (sp2 )
bond_coeff 6    340.0  1.080   # C-H  (   )

#  -
bond_coeff 7  320.0  1.410   # C-O   (   )
bond_coeff 8  570.0  1.229   # C=O   (  )
bond_coeff 9    320.0  1.360   # C-O  (  )

#  -
bond_coeff 10  300.0  1.470   # C-N   ( )
bond_coeff 11  440.0  1.270   # C=N   (  )
bond_coeff 12   350.0  1.340   # C-N  (  )

#  -
bond_coeff 13         340.0  0.960   # O-H  (    )

#  -
bond_coeff 14         340.0  1.010   # N-H  ( )

#  -   (PF6)
bond_coeff 15         420.0  1.560   # P-F  (     )

#  -
bond_coeff 16         200.0  1.810   # S-C  (  )

#  -
bond_coeff 17         300.0  1.430   # S-O  (   )
#  - -
angle_coeff 1    50.0  109.5   # C-C-C (sp3)
angle_coeff 2    80.0  120.0   # C-C-C (sp2)
angle_coeff 3   60.0  120.0   # C-C-C (  )

#  - -
angle_coeff 4    37.5  110.7   # C-C-H (sp3)
angle_coeff 5    40.0  120.0   # C-C-H (sp2)

#  - -
angle_coeff 6    33.0  106.4   # H-C-H (sp3   )
angle_coeff 7   33.0  107.8   # H-C-H (sp3  )
angle_coeff 8    35.0  120.0   # H-C-H (sp2)

#  - -
angle_coeff 9  60.0  109.5   # C-O-C ( )
angle_coeff 10  60.0  124.0   # C-O-C ( )

#  - -
angle_coeff 11   80.0  123.0   # O-C=O (  )
angle_coeff 12  80.0  120.4   # O-C-O ( )

#  - -
angle_coeff 13        50.0  109.5   # C-C-O

#  - -
angle_coeff 14        50.0  109.5   # C-O-H ( )

#  - -
angle_coeff 15        50.0  109.5   # C-N-C ( )
angle_coeff 16  50.0  120.0   # C-N-C (  )

#  - -    (PF6)
angle_coeff 17        80.0   90.0   # F-P-F (     )
angle_coeff 18    80.0  180.0   # F-P-F (  )
#  - - -

#  - - -

#  - - -

#  - - -

#  - - -

#  - - -

#  - - =
#

#
pair_coeff 31 31 0.00034 2.126

# Neighbor list settings (delay 5 to reduce overhead)
neighbor        2.0 bin
neigh_modify    every 1 delay 5 check yes

# Thermodynamic output
thermo          1000

thermo_style    custom step temp pe ke etotal press vol density


# Output thermodynamic data to thermo.out file (for post-processing analysis)
# Format: step temp pe ke etotal press vol density
variable        s_out equal step
variable        t_out equal temp
variable        pe_out equal pe
variable        ke_out equal ke
variable        et_out equal etotal
variable        pr_out equal press
variable        v_out equal vol
variable        d_out equal density
fix             thermo_out all print 1000 "${s_out} ${t_out} ${pe_out} ${ke_out} ${et_out} ${pr_out} ${v_out} ${d_out}" file thermo.out screen no

# Trajectory output (production)
dump            1 all custom 50 dump.trajectory.lammpstrj id mol type x y z vx vy vz


# Conductivity/Dielectric: output trajectory with charges
compute         charge all property/atom q
dump            2 all custom 50 dump.charge.lammpstrj id type x y z c_charge








# NPT production simulation
timestep        1.0
fix             1 all npt temp 353.0 353.0 100.0 iso 1.0 1.0 1000.0
run             1000
Generated 465 of 465 mixed pair_coeff terms from geometric mixing rule
WARNING: Dihedrals are defined but no dihedral style is set (../force.cpp:202)
WARNING: Likewise 1-4 special neighbor interactions != 1.0 (../force.cpp:204)
Neighbor list info ...
  update every 1 steps, delay 5 steps, check yes
  max neighbors/atom: 2000, page size: 100000
  master list distance cutoff = 10
  ghost atom cutoff = 10
  binsize = 5, bins = 5 5 5
  1 neighbor lists, perpetual/occasional/extra = 1 0 0
  (1) pair lj/cut/coul/cut, perpetual
      attributes: half, newton on
      pair build: half/bin/newton
      stencil: half/bin/3d
      bin: standard
Per MPI rank memory allocation (min/avg/max) = 15.5 | 15.5 | 15.5 Mbytes
   Step          Temp          PotEng         KinEng         TotEng         Press          Volume        Density    
         0   352.84605     -2946.0766      808.80887     -2137.2677      898.91034      9464.8966      1.1379514    
      1000   356.58917     -3217.9496      817.38901     -2400.5606     -1282.9466      10218.855      1.0539921    
Loop time of 1.24543 on 1 procs for 1000 steps with 770 atoms

Performance: 69.374 ns/day, 0.346 hours/ns, 802.937 timesteps/s
87.9% CPU use with 1 MPI tasks x no OpenMP threads

MPI task timing breakdown:
Section |  min time  |  avg time  |  max time  |%varavg| %total
---------------------------------------------------------------
Pair    | 0.88826    | 0.88826    | 0.88826    |   0.0 | 71.32
Bond    | 0.044867   | 0.044867   | 0.044867   |   0.0 |  3.60
Neigh   | 0.10683    | 0.10683    | 0.10683    |   0.0 |  8.58
Comm    | 0.014438   | 0.014438   | 0.014438   |   0.0 |  1.16
Output  | 0.16744    | 0.16744    | 0.16744    |   0.0 | 13.44
Modify  | 0.019682   | 0.019682   | 0.019682   |   0.0 |  1.58
Other   |            | 0.00391    |            |       |  0.31

Nlocal:            770 ave         770 max         770 min
Histogram: 1 0 0 0 0 0 0 0 0 0
Nghost:           4691 ave        4691 max        4691 min
Histogram: 1 0 0 0 0 0 0 0 0 0
Neighs:         119618 ave      119618 max      119618 min
Histogram: 1 0 0 0 0 0 0 0 0 0

Total # of neighbors = 119618
Ave neighs/atom = 155.34805
Ave special neighs/atom = 6.7376623
Neighbor list builds = 40
Dangerous builds = 0
unfix           1

# Output final configuration
write_data      final.data
System init for write_data ...
Generated 465 of 465 mixed pair_coeff terms from geometric mixing rule
WARNING: Dihedrals are defined but no dihedral style is set (../force.cpp:202)
WARNING: Likewise 1-4 special neighbor interactions != 1.0 (../force.cpp:204)
Total wall time: 0:00:01
