LAMMPS data file via write_data, version 23 Jun 2022, timestep = 1855

770 atoms
31 atom types
715 bonds
17 bond types
1087 angles
18 angle types
455 dihedrals
9 dihedral types
0 impropers
2 improper types

0 20 xlo xhi
0 20 ylo yhi
0 20 zlo zhi

Masses

1 12.011
2 12.011
3 12.011
4 12.011
5 12.011
6 12.011
7 12.011
8 12.011
9 12.011
10 12.011
11 1.008
12 1.008
13 1.008
14 1.008
15 1.008
16 1.008
17 1.008
18 15.999
19 15.999
20 15.999
21 15.999
22 14.007
23 14.007
24 14.007
25 14.007
26 18.998
27 30.974
28 6.941
29 32.065
30 32.065
31 6.941

Atoms # full

153 13 11 0.06 5.8589301823255315 1.752526935908965 1.797731708860932 0 0 0
118 10 11 0.06 10.618532694536892 1.743885791147992 0.2200261927569837 0 0 0
120 10 11 0.06 11.582083530143644 2.21897801929474 1.6184827117852083 0 0 0
240 20 11 0.06 14.691001616138452 1.8689374784589847 1.493018670036731 0 0 0
238 20 11 0.06 16.35422504504069 1.7047025466032009 2.0561155233805684 0 0 0
234 20 1 0.22 15.423701205854725 2.251413965011845 2.20329592192557 0 0 0
699 61 11 0.06 2.2514690863495557 4.08365648230428 2.3209238374209766 0 0 0
700 61 11 0.06 1.695830054588779 4.286728588809055 0.6831588641379936 0 0 0
695 61 2 0.22 2.2132624726859027 4.796901318782885 1.4961033524596232 0 0 0
109 10 9 0.52 9.720771623080141 4.0450904401001315 2.353200932836897 0 0 0
112 10 19 -0.35 9.605836926865463 2.8164690877575094 1.6654188153099911 0 0 0
111 10 19 -0.35 8.645251884246594 4.967161539909728 2.2602490992259576 0 0 0
114 10 1 0.22 10.78737468083894 2.5394579998906033 0.9456169234434593 0 0 0
119 10 11 0.06 11.14097758256459 3.411788464529242 0.39711025548424955 0 0 0
229 20 9 0.52 14.458799839862522 4.369006450003591 2.1301648248689116 0 0 0
232 20 19 -0.35 15.652172490041972 3.627989707672504 2.0078476679081274 0 0 0
696 61 2 0.22 1.4844501575996667 6.09362806857476 1.8983749837028268 0 0 0
697 61 11 0.06 0.5288616823222584 5.8916367936480905 2.383095085691378 0 0 0
698 61 11 0.06 1.2612627483768228 6.722041731981716 1.0362735531246068 0 0 0
693 61 19 -0.35 2.433603460825508 7.135208161624862 1.8309247274338492 0 0 0
694 61 19 -0.35 3.584153652890037 5.11643367166179 1.374539007236319 0 0 0
691 61 9 0.52 3.6696345055518638 6.4907045201056155 1.6612190626901597 0 0 0
692 61 20 -0.5 4.717700576152708 7.012080039828433 2.0339163077323565 0 0 0
178 15 11 0.06 8.739448022229737 7.441261938282239 0.12978559003130707 0 0 0
235 20 11 0.06 12.324487958987005 5.420207917486552 1.2981663584792358 0 0 0
652 57 20 -0.5 10.441957345045392 6.865702022131575 2.0838065664881396 0 0 0
233 20 1 0.22 13.107808982426604 6.163497816497175 1.4207473101799353 0 0 0
237 20 11 0.06 13.003568490054914 6.836572376598015 0.5712176042832303 0 0 0
236 20 11 0.06 12.924202244416154 6.727573853863687 2.3358598618563833 0 0 0
231 20 19 -0.35 14.402833551001534 5.602167990792307 1.439648212444369 0 0 0
34 3 11 0.06 0.19667042492009637 9.687849918554454 0.5114256360580994 1 0 0
169 15 9 0.52 7.1599613728719085 9.940927455172138 1.5554199403331121 0 0 0
172 15 19 -0.35 7.383437140887191 8.598878993446068 1.1816027428272504 0 0 0
728 64 11 0.06 5.042094741380591 9.228132496578258 0.43959064516853763 0 0 1
174 15 1 0.22 8.503356521328255 8.485889181826035 0.33307702659325295 0 0 0
180 15 11 0.06 9.365258439313218 8.938187178830116 0.793352504519579 0 0 0
653 57 19 -0.35 11.579547710775778 8.851042868674641 2.3985075455531524 0 0 0
29 3 1 0.22 14.526990581711901 9.498597651592311 0.8949462315536252 0 0 0
33 3 11 0.06 13.945712584158782 8.909821061373956 1.5973214504288187 0 0 0
25 3 9 0.52 16.911477012723083 9.814623669012358 0.5457101788568998 0 0 0
27 3 19 -0.35 15.8239849308048 8.928946537451443 0.788986987603912 0 0 0
28 3 19 -0.35 18.18616188007811 9.222427222578071 0.3914860293091615 0 0 0
170 15 20 -0.5 7.444496446431847 10.856408081649883 0.7836051929221705 0 0 0
658 57 11 0.06 11.281501890491255 10.188144830431401 1.7898743774358807 0 0 0
31 3 11 0.06 14.458927985571618 10.508051457768092 1.289194913630089 0 0 0
62 6 20 -0.5 12.829046161970123 12.077743034680356 2.446175871551521 0 0 0
26 3 20 -0.5 16.810496925249154 11.03516766234643 0.6508884575499159 0 0 0
30 3 1 0.22 19.221749350642387 10.174365718448103 0.53452966387101 0 0 0
36 3 11 0.06 19.149077966911864 10.712482613866731 1.473198435542118 0 0 0
720 63 11 0.06 0.31822031834352765 14.32023421365194 2.432405400530419 1 0 0
23 2 11 0.06 4.0398522282548335 12.697728290951323 0.6601601716223587 0 0 1
275 23 11 0.06 8.433041624304595 13.819125283103055 0.8784599973840553 0 0 0
539 45 11 0.06 10.952956254677042 14.783686050767104 1.641564488840831 0 0 0
65 6 1 0.22 14.759495021131839 13.988660095920299 1.66199377941615 0 0 0
67 6 11 0.06 14.991291776978837 12.936393549455794 1.5324121560765147 0 0 0
63 6 19 -0.35 13.380481035460296 14.22082950329008 1.8408806902905068 0 0 0
68 6 11 0.06 15.090485440615234 14.481192406940616 0.753393586557411 0 0 0
69 6 11 0.06 15.346504455036019 14.373435785940945 2.496559330917883 0 0 0
717 63 11 0.06 18.050678367798113 13.597584700686305 1.558919280562187 0 0 0
224 19 11 0.06 3.402449986264233 16.60124217271136 2.306439440512951 0 0 0
15 2 19 -0.35 4.452745680172782 16.400013242134616 0.04798046010720028 0 0 1
266 23 20 -0.5 6.819580216920315 15.639429543541258 0.31185812056075424 0 0 0
265 23 9 0.52 7.902201185516403 16.158217737640427 0.052929173849352945 0 0 0
267 23 19 -0.35 8.249101951988486 17.429961703247002 0.5776705931051577 0 0 0
530 45 20 -0.5 8.230349538652657 15.718788568815354 2.4862971274171937 0 0 0
540 45 11 0.06 10.37208200635371 16.40349787483005 1.4039497120730766 0 0 0
534 45 1 0.22 10.880373661638925 15.760913569996875 2.1174998410380894 0 0 0
538 45 11 0.06 11.88007785030564 16.18548823033365 2.197917669121576 0 0 0
37 4 9 0.52 15.863662126102387 17.3767390571837 1.1659213324843414 0 0 0
39 4 19 -0.35 16.775165948767786 16.309595611845406 0.9826037815331953 0 0 0
40 4 19 -0.35 15.194913923493303 17.448246644765536 2.4095474810589192 0 0 0
223 19 11 0.06 4.220127802363096 18.152339962348986 2.217583255867092 0 0 0
271 23 11 0.06 6.225703992866655 18.03652176379634 0.7029190932693196 0 0 0
269 23 1 0.22 7.190682337220554 18.14999443045354 1.1899060022411054 0 0 0
272 23 11 0.06 7.049217884838209 17.905330181539487 2.2411036543660026 0 0 0
273 23 11 0.06 7.446055147557951 19.206200413136887 1.162710617915132 0 0 0
141 12 11 0.06 10.451666460201439 19.176310921891577 1.4289473647669153 0 0 0
48 4 11 0.06 14.337515703635798 19.32927387902719 2.3248981315462953 0 0 0
38 4 20 -0.5 15.734758976585686 18.27624586232113 0.3380656151080493 0 0 0
757 73 27 1.34 2.3298650495265227 1.0273451250626684 3.8996491941019356 0 0 0
762 73 26 -0.39 1.797782685725437 1.472181610218732 2.502729935193903 0 0 0
759 73 26 -0.39 1.1252625446047617 1.7263419055534157 4.588046493802256 0 0 0
758 73 26 -0.39 3.5480942937197906 0.3411738365396094 3.2163269652440163 0 0 0
761 73 26 -0.39 3.1412963060967622 2.351061675423938 4.010325109064725 0 0 0
147 13 19 -0.35 7.472920787788039 2.4239649609317575 2.904766585723411 0 0 0
149 13 1 0.22 6.296218552656874 1.6548004385108717 2.7907098709389393 0 0 0
151 13 11 0.06 6.466604302310081 0.6000961894413935 2.987775425601978 0 0 0
152 13 11 0.06 5.560630885572855 1.974448528725647 3.5161173620625505 0 0 0
140 12 11 0.06 9.694884101149084 0.13192980383708414 2.6782661469045355 0 1 0
145 13 9 0.52 8.11808596407405 2.135034162720844 4.12330729953992 0 0 0
148 13 19 -0.35 9.47657916328626 2.4768679113785894 4.281769793666604 0 0 0
239 20 11 0.06 15.068174351957119 2.0393676530860483 3.212044578746041 0 0 0
184 16 19 -0.35 16.933192874647116 1.0304390364278615 4.5370680143842 0 0 0
186 16 1 0.22 18.283200271206887 1.4739692619443765 4.422729749900974 0 0 0
190 16 11 0.06 18.92036967746172 0.7404260493881825 3.944879291330471 0 0 0
191 16 11 0.06 18.377970706488004 2.326398408717212 3.760595853738099 0 0 0
283 24 11 0.06 5.359468222883378 4.205233465662793 4.622221341300777 0 0 0
285 24 11 0.06 5.467217457219565 4.777446576434614 2.983271339352201 0 0 0
117 10 11 0.06 7.71196233109161 4.9432080994107865 4.115176735421729 0 0 0
110 10 20 -0.5 10.77268013275525 4.326679903492654 2.9232929045196223 0 0 0
230 20 20 -0.5 13.598576556287767 4.043671706523442 2.9473424904864896 0 0 0
612 53 20 -0.5 16.962033157019437 4.36595982045563 4.003989045130386 0 0 0
441 37 11 0.06 19.82353036170068 4.622403136010901 4.418058845681443 -1 0 0
284 24 11 0.06 3.982958314170597 4.980526694222565 3.8842738758821715 0 0 0
279 24 19 -0.35 5.464058287182531 6.338776137797111 4.321648064057107 0 0 0
281 24 1 0.22 5.067295467227718 5.020950884320229 3.967434570135052 0 0 0
113 10 1 0.22 8.311319014482232 5.594057554157064 3.4790071024023597 0 0 0
115 10 11 0.06 9.190220576490669 5.911568463798672 4.026133239638778 0 0 0
116 10 11 0.06 7.732515513207517 6.49598440252693 3.2846691517794677 0 0 0
620 53 11 0.06 13.759767805914983 5.967936176990671 4.568159288051995 0 0 0
611 53 9 0.52 16.083308314147256 5.214870772219139 4.052098687323327 0 0 0
613 53 19 -0.35 16.277824819644675 6.492249570268423 3.5129604981267497 0 0 0
616 53 2 0.22 15.44795856577024 7.320739919566 4.288729370234191 0 0 0
614 53 19 -0.35 15.002522589364403 5.101155708837245 4.943633047225965 0 0 0
309 26 11 0.06 0.26358387366417885 9.335590635110119 4.800230165438256 1 0 0
453 38 11 0.06 2.4414416556991623 9.897593850519895 3.620510527570039 0 0 0
308 26 11 0.06 0.14459659818393455 9.075119479915656 3.0740028935886645 1 0 0
642 56 20 -0.5 4.584364796487722 8.949537451592473 4.488151430278529 0 0 0
654 57 19 -0.35 9.520042329963369 8.433926295769192 3.4740811418551694 0 0 0
655 57 2 0.22 9.735412675565508 9.82695474628417 3.4597648201326003 0 0 0
659 57 11 0.06 9.781506595019783 9.895637945059484 4.540361185353821 0 0 0
651 57 9 0.52 10.576273086494972 7.908670921964006 2.719868845126875 0 0 0
657 57 11 0.06 12.013590676889866 9.823367128935978 3.4164361485132955 0 0 0
618 53 11 0.06 14.856512263153192 8.062896907390332 3.7648809039793005 0 0 0
302 26 20 -0.5 17.043788424673604 9.170902630825834 2.9577883306919097 0 0 0
617 53 11 0.06 16.189163454565765 7.843692769201287 4.892115188716865 0 0 0
305 26 1 0.22 19.56163022503925 9.234528607046563 3.980359270007979 0 0 0
307 26 11 0.06 19.029388582779468 8.317294818161141 4.1995170278819955 0 0 0
451 38 11 0.06 1.6185091616268628 11.341221043733345 4.185775198743269 0 0 0
449 38 1 0.22 2.5567484630611146 10.966420584778485 3.795178124678024 0 0 0
452 38 11 0.06 2.7070045777152782 11.44468109117065 2.8271769263223288 0 0 0
447 38 19 -0.35 3.639777061461412 11.257814602941965 4.655227878268617 0 0 0
171 15 19 -0.35 6.373598107533015 10.144303118979709 2.717887447573839 0 0 0
173 15 1 0.22 6.218909531790619 11.49451942145718 3.113276262171918 0 0 0
175 15 11 0.06 7.072067489391313 12.132715874914867 2.893234906831401 0 0 0
176 15 11 0.06 5.334932193569812 11.93636952256417 2.657079109908659 0 0 0
177 15 11 0.06 6.079608936345146 11.53639635548433 4.1923228677986195 0 0 0
660 57 11 0.06 8.991115642199077 10.55127812485664 3.1418727903929353 0 0 0
656 57 2 0.22 11.124622655703645 10.112138847913796 2.862879289163153 0 0 0
72 6 11 0.06 11.063695439852674 12.039594382996846 4.451350959181523 0 0 0
311 26 11 0.06 14.981472899889134 10.555958403711989 3.8116045837097756 0 0 0
310 26 11 0.06 15.009771743781103 12.275892319477748 3.9413724490886297 0 0 0
304 26 19 -0.35 16.718135498138974 11.421958496605418 3.1191146485293366 0 0 0
306 26 1 0.22 15.635641085425082 11.394567946792233 4.019425919778083 0 0 0
301 26 9 0.52 17.497065432440635 10.261060905362138 3.293480458897804 0 0 0
303 26 19 -0.35 18.76161932965055 10.405616225885964 3.920974903439089 0 0 0
719 63 11 0.06 0.004051484042307812 12.649488752244928 2.797640035628379 1 0 0
256 22 19 -0.35 1.9246123980730325 13.78506087849841 4.603343796336591 0 0 0
258 22 1 0.22 3.1780917753125015 14.283271909456014 4.189744143257048 0 0 0
262 22 11 0.06 3.2605184693201132 14.237170446138263 3.104285583726994 0 0 0
264 22 11 0.06 4.023841946698992 13.726004741200839 4.591926583632974 0 0 0
533 45 1 0.22 7.066613973239288 14.703497861017023 4.782972761010632 0 0 0
535 45 11 0.06 6.4136112842924184 14.789814221841707 3.919941216636274 0 0 0
536 45 11 0.06 7.233661543889713 13.646646717622497 4.873480233076594 0 0 0
70 6 11 0.06 9.9852655563897 13.410391315364889 4.403892300233615 0 0 0
71 6 11 0.06 10.393041884120274 12.6048011717582 2.902360935749366 0 0 0
64 6 19 -0.35 11.914194247735557 13.76379972625798 3.7092084008380506 0 0 0
66 6 1 0.22 10.794370245393555 12.917283389778996 3.8667159996479454 0 0 0
61 6 9 0.52 12.788226547443957 13.277781303952588 2.707520257018388 0 0 0
713 63 19 -0.35 17.455333503266143 13.710428901926344 3.796069751020552 0 0 0
714 63 19 -0.35 19.62999610685811 12.887397708068269 4.189122608942249 0 0 0
715 63 2 0.22 19.66780456171168 13.660051938495023 3.007550225766498 0 0 0
716 63 2 0.22 18.20155167379659 13.856387042346897 2.606673369135571 0 0 0
718 63 11 0.06 17.901462451896773 14.894045606338691 2.7072483968835845 0 0 0
711 63 9 0.52 18.324071422215596 13.049113847495288 4.68204226773673 0 0 0
263 22 11 0.06 3.2769103059888978 15.320395473623469 4.501864877022719 0 0 0
221 19 1 0.22 3.903000612980593 17.365787136352882 2.8965923331127157 0 0 0
219 19 19 -0.35 5.024894019890488 16.831267376308535 3.551192629592701 0 0 0
529 45 9 0.52 8.911485849756374 15.502286571645124 3.4763668585316725 0 0 0
531 45 19 -0.35 8.29521769914997 15.426284213062297 4.753411764888644 0 0 0
532 45 19 -0.35 10.318273797174996 15.683724564390225 3.423622439824715 0 0 0
587 50 11 0.06 14.002495254764572 16.540377036278596 4.441184539028574 0 0 0
609 52 11 0.06 17.329206629974745 15.989219383181593 4.878893603039205 0 0 0
605 52 2 0.22 18.364176533270268 16.31154037144359 4.851648485487663 0 0 0
607 52 11 0.06 17.948507990451535 17.384660538413186 2.904123831132269 0 0 0
608 52 11 0.06 19.569054585986947 16.738243527380018 2.993601187814118 0 0 0
606 52 2 0.22 18.75185241697812 17.143106879231706 3.5981416847846037 0 0 0
760 73 26 -0.39 1.5122047293732166 19.703199241514515 3.790359024886015 0 -1 0
225 19 11 0.06 3.17132514603443 17.76262035574291 3.600653245353998 0 0 0
217 19 9 0.52 5.6502658549525675 17.79479024744226 4.364199004320676 0 0 0
218 19 20 -0.5 5.205861906496207 18.936982256950916 4.453203275768505 0 0 0
139 12 11 0.06 9.631348086687902 18.37965769859717 2.738165401000723 0 0 0
227 19 11 0.06 7.840682872365773 19.022067598804494 4.355119902916294 0 0 0
137 12 1 0.22 10.270241127049122 19.22459829923066 2.5017104260222642 0 0 0
135 12 19 -0.35 11.503131663248439 19.220650939186473 3.2060454017516435 0 0 0
133 12 9 0.52 11.398845741895641 18.76103056027082 4.544465129286603 0 0 0
134 12 20 -0.5 10.850626561477812 17.695109182094843 4.807168769747689 0 0 0
46 4 11 0.06 14.872197303894295 18.825742924578957 3.9244245185379283 0 0 0
42 4 1 0.22 15.113427801735813 18.784774936692354 2.8622025540985208 0 0 0
47 4 11 0.06 16.05429285345806 19.316314874699266 2.7274306656852105 0 0 0
603 52 19 -0.35 18.116184852677048 18.385673792927864 3.789815183908218 0 0 0
763 73 26 -0.39 2.856338168224104 0.5801112378989106 5.29582977874475 0 0 0
444 37 11 0.06 4.44290100773341 2.236138653112301 6.286162404673509 0 0 0
250 21 11 0.06 6.702436899203911 1.2021706092923916 7.358580224541524 0 0 0
146 13 20 -0.5 7.509642160894969 1.587242018039989 5.030397855089829 0 0 0
156 13 11 0.06 9.799731785226449 0.5889223653992847 5.132257504569196 0 0 0
150 13 1 0.22 10.124382894747933 1.6251536490592096 5.204538891570548 0 0 0
155 13 11 0.06 9.964495099691526 1.9365637094626635 6.236386265822221 0 0 0
154 13 11 0.06 11.192174388717765 1.6444850118943475 5.003960271123902 0 0 0
188 16 11 0.06 14.280559367068498 0.7920160384284208 7.394929802430713 0 0 0
181 16 9 0.52 16.304583800455518 1.4788291675273857 5.730440408718874 0 0 0
183 16 19 -0.35 16.217600241943863 0.5524689408282206 6.799099694426716 0 0 0
192 16 11 0.06 18.754513927835056 1.7151879732717072 5.376220701206947 0 0 0
434 37 20 -0.5 1.892572449555171 2.619247431908194 6.794019058875921 0 0 0
435 37 19 -0.35 1.7087944388475587 4.109585931706324 5.05387876265655 0 0 0
437 37 1 0.22 0.3976933834932519 4.541357300851789 5.340476548231843 0 0 0
433 37 9 0.52 2.348156750322135 3.596632831103614 6.204327351634072 0 0 0
436 37 19 -0.35 3.6126562191579845 4.11742591718929 6.5515903603108825 0 0 0
438 37 1 0.22 4.453989481748169 3.0694248558980193 6.983910833710214 0 0 0
442 37 11 0.06 5.488505623872444 3.394045139829901 7.051945970686022 0 0 0
243 21 19 -0.35 8.210435838890602 3.340749481763891 7.423010258382828 0 0 0
245 21 1 0.22 9.07652739909901 4.403276817748881 7.0170949191372936 0 0 0
248 21 11 0.06 9.286860158125418 4.325015671751098 5.954282921355478 0 0 0
515 43 11 0.06 12.107132383976674 3.07499485965228 6.8370511668236285 0 0 0
516 43 11 0.06 12.884945438631743 3.4635685768544042 5.272089785676198 0 0 0
508 43 19 -0.35 12.97241140834557 4.942621399316877 6.758211606047953 0 0 0
510 43 1 0.22 12.927622756650953 3.6006043184779988 6.352410498037783 0 0 0
514 43 11 0.06 13.85132089224094 3.1440790789574096 6.6752348370755055 0 0 0
182 16 20 -0.5 16.19222661809074 2.6852539237020747 5.932632897811297 0 0 0
439 37 11 0.06 19.87245463879829 3.860223973171894 6.002746152026741 -1 0 0
440 37 11 0.06 0.4012820201191945 5.510609040727034 5.82980997106491 0 0 0
646 56 2 0.22 2.4443261426301373 7.031588685289997 6.366259675188319 0 0 0
648 56 11 0.06 2.7628891825043698 6.304053294230917 5.618938929108605 0 0 0
650 56 11 0.06 4.472973960449452 7.165006280536033 7.366443774430307 0 0 0
277 24 9 0.52 6.10378001581563 6.565281475802294 5.571112205949422 0 0 0
278 24 20 -0.5 6.252918744626053 5.685634038089106 6.415626352136816 0 0 0
249 21 11 0.06 8.615124923636614 5.379173551391844 7.1712202461162455 0 0 0
511 43 11 0.06 10.007296957299289 7.433647258911518 5.828806094740798 0 0 0
505 43 9 0.52 11.921956375365104 5.7202603719738825 6.2428141802656025 0 0 0
506 43 20 -0.5 11.381486841261832 5.454136159706118 5.170419203058833 0 0 0
507 43 19 -0.35 11.743485779608166 6.973262751110428 6.845418376454211 0 0 0
615 53 2 0.22 14.558449471400731 6.423134253640176 5.158101790088826 0 0 0
619 53 11 0.06 14.064304872654906 7.027314071423497 5.920096098449791 0 0 0
359 30 11 0.06 17.09785106629764 5.033575661762055 7.163848975340014 0 0 0
352 30 19 -0.35 16.194952111231917 6.9458259563426035 7.225770103238653 0 0 0
358 30 11 0.06 15.37982878023252 5.059677696096452 7.414145065225133 0 0 0
734 68 31 1 18.091080815813125 6.237601691620314 5.214271223587027 0 0 0
647 56 11 0.06 1.6135364095699265 7.6792483535592755 6.093154410867891 0 0 0
643 56 19 -0.35 2.7806996531924906 7.635448081469451 5.1190455322115636 0 0 0
645 56 2 0.22 3.460994160823272 7.554942097665484 7.389071764111048 0 0 0
641 56 9 0.52 3.8428949338614364 8.53280794899478 5.375851317058963 0 0 0
644 56 19 -0.35 4.182339035172088 8.596272237192053 6.74544258727267 0 0 0
280 24 19 -0.35 6.411974351422629 7.920360715730489 5.845977860253008 0 0 0
282 24 1 0.22 6.953997703841351 8.246779608501873 7.114982673831995 0 0 0
288 24 11 0.06 8.006463874711688 8.407159671153128 6.963690191032593 0 0 0
509 43 1 0.22 11.008025505572862 7.8123429534943405 5.996877524474117 0 0 0
512 43 11 0.06 10.880549691066271 8.766659978895934 6.4786521823786645 0 0 0
513 43 11 0.06 11.506676581294885 7.963936206291781 5.0395435282073855 0 0 0
89 8 1 0.22 13.751441656566163 9.914543163115416 6.435109898217565 0 0 0
91 8 11 0.06 13.272119307971936 9.299775135664982 7.194186636439242 0 0 0
92 8 11 0.06 13.404136507870472 9.55508683668925 5.472940157090185 0 0 0
93 8 11 0.06 14.807297746529887 9.656008112374284 6.475377347513415 0 0 0
349 30 9 0.52 17.43680747736328 7.631393369969778 7.182863494979138 0 0 0
351 30 19 -0.35 17.414165585939816 8.989035203530383 6.745000762374975 0 0 0
355 30 11 0.06 19.476692720982527 9.330191076743334 7.172893764844402 0 0 0
353 30 1 0.22 18.505168766417036 9.820340235938483 7.130579708089196 0 0 0
255 22 19 -0.35 0.9986984844777074 12.400663656442973 6.361653930823507 0 0 0
446 38 20 -0.5 2.378859150376755 10.317209655671574 6.3352097168493335 0 0 0
445 38 9 0.52 3.3912874872119634 10.935512566246487 6.0113863451815925 0 0 0
448 38 19 -0.35 4.486056077129866 11.071395854732554 6.902550198269607 0 0 0
77 7 1 0.22 8.203980878487759 11.241432327828262 6.577307327426823 0 0 0
79 7 11 0.06 8.72019351863332 12.043441363842454 6.071124559058231 0 0 0
80 7 11 0.06 9.010489898161572 10.690191711383745 7.042473682487731 0 0 0
81 7 11 0.06 7.754370715013151 10.611416320500892 5.81186421828591 0 0 0
85 8 9 0.52 12.416859453056952 11.736950961595968 7.2773476888172945 0 0 0
86 8 20 -0.5 11.45838502874514 10.995852527341308 7.436420597587886 0 0 0
87 8 19 -0.35 13.569773280855621 11.324569074275326 6.551422635341008 0 0 0
312 26 11 0.06 15.993752987218958 11.325688025308697 5.044773930602896 0 0 0
356 30 11 0.06 18.612418106971187 10.621186748147588 6.405770305887312 0 0 0
253 22 9 0.52 1.9352130140018897 13.397920863342732 5.96152218466612 0 0 0
662 58 20 -0.5 0.22972962997625773 14.789436541723623 7.14263867425659 0 0 0
254 22 20 -0.5 2.747001449659845 13.9031276276654 6.731404910336277 0 0 0
537 45 11 0.06 6.480382985986827 14.980623536859298 5.656150108069241 0 0 0
582 50 20 -0.5 11.233371056023223 14.856299091807657 6.015939405290323 0 0 0
584 50 19 -0.35 13.406531328459117 14.159517907912553 5.672091534617276 0 0 0
590 50 11 0.06 14.982212528145396 14.709026078098857 6.731844986994052 0 0 0
585 50 2 0.22 14.603118501390071 14.88763714943838 5.728058827637932 0 0 0
589 50 11 0.06 15.328730804132901 14.5040854593243 5.021276108655396 0 0 0
712 63 20 -0.5 18.09152767167483 13.010115321819818 5.888044280961583 0 0 0
661 58 9 0.52 0.6522822727816127 15.925265847148939 6.95855648169193 0 0 0
663 58 19 -0.35 1.997345937449106 16.259650643054698 7.083363515165738 0 0 0
591 51 9 0.52 4.919795821917023 16.950860256171367 7.3098405160777835 0 0 0
592 51 20 -0.5 4.4386529471436855 16.08842444477139 6.577968031422536 0 0 0
220 19 19 -0.35 6.790766497842036 17.39432674674912 5.088776243059 0 0 0
581 50 9 0.52 12.39870051545048 15.134000705639329 5.74326821396053 0 0 0
586 50 2 0.22 14.244979405265173 16.3606224313125 5.489853805760021 0 0 0
583 50 19 -0.35 12.85047915079816 16.460161013109623 5.651770446957664 0 0 0
588 50 11 0.06 15.06893743645627 17.024353526242503 5.741257385345455 0 0 0
629 54 11 0.06 17.786301270845993 15.262012060713944 7.352394142747486 0 0 0
610 52 11 0.06 18.984163804385908 15.43139904554893 5.032339855889262 0 0 0
664 58 19 -0.35 19.810196673703853 17.040293705300027 6.756870892898567 -1 0 0
604 52 19 -0.35 17.56325956248745 17.142795553448522 5.673519532831549 0 0 0
665 58 2 0.22 0.6398960478771222 18.14289520353977 6.453516669313123 0 0 0
666 58 2 0.22 2.0449412083108736 17.59787972453249 6.649088228487585 0 0 0
670 58 11 0.06 0.19180789577906412 17.89138083455593 5.498115981533752 0 0 0
669 58 11 0.06 19.96080840577322 18.293445101980105 7.299392969951092 -1 0 0
668 58 11 0.06 2.6886887999973665 18.194391320467957 6.01939736840932 0 0 0
597 51 11 0.06 4.975655869811676 19.42088737542873 7.0627079753055195 0 0 0
593 51 19 -0.35 5.0286388871711845 18.29155399195098 6.870058451594381 0 0 0
228 19 11 0.06 7.197244161179309 19.210442299653 5.9350019358409 0 0 0
222 19 1 0.22 7.649324260648432 18.48981868911991 5.280693558270651 0 0 0
226 19 11 0.06 8.586098098559608 18.184028600596054 5.740682880249353 0 0 0
136 12 19 -0.35 12.180781200717782 19.41182808346066 5.530052256079413 0 0 0
138 12 1 0.22 11.704994780245153 19.17001829057101 6.844119858144212 0 0 0
144 12 11 0.06 12.181836846687943 18.2889634167403 7.269191400195023 0 0 0
143 12 11 0.06 10.629224154661618 19.03598947030363 6.901626398724104 0 0 0
601 52 9 0.52 17.77389670061649 18.42820314008256 5.156187477130424 0 0 0
602 52 20 -0.5 18.186823775675066 19.333782408813885 5.875671949163557 0 0 0
246 21 1 0.22 7.022168247635913 0.8085272105676804 8.309457837137368 0 0 0
252 21 11 0.06 6.171848912917228 1.0332421103045821 8.945089789387515 0 0 0
244 21 19 -0.35 8.353670738684114 1.184505628904829 8.61486444467282 0 0 0
185 16 1 0.22 15.281914681762034 0.8998420237770155 7.791399535965827 0 0 0
187 16 11 0.06 15.41936051430691 1.9090232654703707 8.17848422942187 0 0 0
189 16 11 0.06 15.359894100419861 0.21705979102082282 8.63609588274477 0 0 0
207 18 19 -0.35 19.090390837875688 2.077948807175208 9.695339700011885 0 0 0
213 18 11 0.06 19.63397165197757 2.040795976924996 7.700763739312375 0 0 0
209 18 1 0.22 18.83389224810793 2.4061093051176785 8.34402904525135 0 0 0
211 18 11 0.06 17.910097287639935 1.9628514860953554 7.978633516503865 0 0 0
708 62 11 0.06 1.2836247417477558 3.2533703484485152 9.134052385759182 0 0 0
703 62 19 -0.35 2.137052096120516 4.3719912603848154 9.38803159692301 0 0 0
706 62 2 0.22 0.7543602737416264 4.098387618599533 9.58152441768571 0 0 0
443 37 11 0.06 4.149549389073172 2.700709069681045 7.963395238112272 0 0 0
404 34 11 0.06 6.543197098953372 3.4761926556163774 9.315710012200263 0 0 0
241 21 9 0.52 8.708595104061741 2.547390969973593 8.494230185058642 0 0 0
247 21 11 0.06 10.054826410284049 4.445229591571888 7.4945450677520125 0 0 0
242 21 20 -0.5 9.31851285630138 3.0510917920964618 9.426150516142389 0 0 0
212 18 11 0.06 18.758099971624898 3.4838531131983173 8.208566126552768 0 0 0
707 62 11 0.06 0.8297221376570127 5.041216565393373 9.030829095964513 0 0 0
128 11 11 0.06 2.314670556742646 7.086578689876927 9.557993620067284 0 0 0
672 59 20 -0.5 9.788565260105504 7.348366585486632 8.354459739196813 0 0 0
417 35 11 0.06 12.365410496310252 5.560653514442877 9.355271768083496 0 0 0
413 35 1 0.22 13.109385175778907 6.227316572395284 9.790680192105278 0 0 0
415 35 11 0.06 14.084544721586335 5.826451842828168 9.520836119415268 0 0 0
354 30 1 0.22 16.29737423858948 5.592314485121653 7.643333437583176 0 0 0
360 30 11 0.06 16.428204877677945 5.498353518236912 8.716300802954205 0 0 0
350 30 20 -0.5 18.466874618669724 7.083063010169699 7.5714205658660365 0 0 0
559 47 11 0.06 0.035723989041264566 9.300898624808704 9.894275401936554 1 0 0
649 56 11 0.06 3.346883679617576 8.549737172100414 7.815940321932326 0 0 0
286 24 11 0.06 6.5295334027734695 9.187025599442766 7.462646799544454 0 0 0
287 24 11 0.06 6.8706757940306495 7.551208257219404 7.949526100155811 0 0 0
671 59 9 0.52 9.792260914848136 8.523492463821633 8.71566966306349 0 0 0
673 59 19 -0.35 8.642632825098799 9.122280601745826 9.288704401094455 0 0 0
674 59 19 -0.35 10.981086341727561 9.123830465802353 9.141909120951697 0 0 0
409 35 9 0.52 13.92168089255014 8.44616124996354 9.754247532440434 0 0 0
411 35 19 -0.35 12.91799428028507 7.5474364211050355 9.314745126100068 0 0 0
412 35 19 -0.35 13.681889252945169 9.830951028410565 9.600729454535271 0 0 0
557 47 11 0.06 17.469983263560394 8.502982314687786 9.521424225720963 0 0 0
257 22 1 0.22 0.6743247753014606 12.282679606365605 7.742677639912951 0 0 0
261 22 11 0.06 0.8166697358146577 11.250452946085618 8.059275879242197 0 0 0
450 38 1 0.22 4.130042558459729 11.400058228432117 8.23449200220027 0 0 0
455 38 11 0.06 3.9713971512268715 12.462155667449165 8.361743657235905 0 0 0
456 38 11 0.06 3.2319844085005474 10.915517364666421 8.605896489099639 0 0 0
454 38 11 0.06 4.945630203028567 11.129424836021421 8.901203688387575 0 0 0
75 7 19 -0.35 7.177510973899628 11.600578212270666 7.488908174974051 0 0 0
677 59 11 0.06 8.786443383406098 10.659767071391947 9.528312492098841 0 0 0
679 59 11 0.06 11.24167516279121 10.312769893001928 9.829000501707414 0 0 0
418 35 11 0.06 14.66650299202473 11.459213554330967 8.791986332756409 0 0 0
414 35 1 0.22 14.869570839050574 10.565156012551286 9.377791818807827 0 0 0
420 35 11 0.06 15.616253779819626 10.017611083507422 8.811369769083626 0 0 0
357 30 11 0.06 18.336047148113455 10.341012559715411 8.071555021364556 0 0 0
259 22 11 0.06 1.2310871470021636 12.904582829704909 8.442411825172208 0 0 0
82 7 11 0.06 4.895443545138996 14.210734269326373 9.889392054118384 0 0 0
73 7 9 0.52 7.29896059094988 12.859415765752512 8.125503672627971 0 0 0
76 7 19 -0.35 6.495059140067113 13.055492599733167 9.273987844870923 0 0 0
78 7 1 0.22 5.766157247324599 14.264520719971197 9.235539810374437 0 0 0
84 7 11 0.06 5.418956790737355 14.493998997808234 8.231505237862105 0 0 0
74 7 20 -0.5 7.810712591521144 13.826198710788274 7.564553676118903 0 0 0
88 8 19 -0.35 12.292316486119686 13.097014398891288 7.636739896125054 0 0 0
90 8 1 0.22 11.092519524714877 13.335101288369216 8.348011907561453 0 0 0
94 8 11 0.06 10.979980177571765 14.375574911756415 8.634826371511028 0 0 0
95 8 11 0.06 10.202659531978584 13.128665386441968 7.762835308043325 0 0 0
96 8 11 0.06 11.068437244149077 12.737981148842257 9.254756182490997 0 0 0
375 32 19 -0.35 13.660544285204033 14.48056556268468 9.202048338954851 0 0 0
260 22 11 0.06 19.61599312553636 12.48872146125667 7.899394445851046 -1 0 0
630 54 11 0.06 17.524110686317442 13.791566874394773 8.317454949518629 0 0 0
628 54 11 0.06 19.426439887464937 14.66500069301992 9.668459995909602 0 0 0
625 54 2 0.22 17.66150438476439 14.87674566006048 8.363904327919522 0 0 0
594 51 19 -0.35 4.833923389121563 16.875270078701917 8.70985447831002 0 0 0
83 7 11 0.06 6.362896328661566 15.102436947567956 9.585567698976966 0 0 0
769 74 26 -0.39 7.6102686849882915 17.209014749678595 8.333538907245226 0 0 0
764 74 27 1.34 8.999838300410289 17.056499370441966 9.02695332015135 0 0 0
765 74 26 -0.39 9.669751684761744 16.848440978159736 7.6354910829262685 0 0 0
767 74 26 -0.39 8.783297777570535 15.516925871653243 9.128172362470501 0 0 0
770 74 26 -0.39 10.388963575612046 16.908725353431368 9.719857615136643 0 0 0
377 32 1 0.22 13.418934271453615 15.867365329667056 8.98390955794109 0 0 0
379 32 11 0.06 12.994832438185867 16.43272616927824 9.811751495163113 0 0 0
380 32 11 0.06 14.34623404603731 16.376319302414597 8.74018223503424 0 0 0
381 32 11 0.06 12.78837848893302 16.01545215592999 8.110779515001331 0 0 0
621 54 9 0.52 16.943046617705114 16.870310323358055 9.068838929507718 0 0 0
624 54 19 -0.35 16.710146746125012 15.882609297200753 8.103069274448842 0 0 0
626 54 2 0.22 18.676332503745982 15.41957334750771 9.410217905477376 0 0 0
623 54 19 -0.35 18.146653645354878 16.686169375533773 9.7900394829969 0 0 0
627 54 11 0.06 19.339934050953214 16.212062905410207 9.064348560550064 0 0 0
667 58 11 0.06 2.332648646087712 17.618002051922524 7.698402913218556 0 0 0
598 51 11 0.06 3.7300350431290847 19.858565260515665 8.204003047614199 0 0 0
595 51 2 0.22 4.881374466620664 18.232914987578116 9.106561778714067 0 0 0
596 51 2 0.22 4.374576518633634 19.03745435096536 7.887912151752441 0 0 0
600 51 11 0.06 4.08069322378209 17.64322234973044 9.55860250905966 0 0 0
251 21 11 0.06 7.0723890672869585 19.727356955312377 8.374579041113082 0 -1 0
599 51 11 0.06 5.281019354336128 18.870966158072626 9.895562864502406 0 0 0
768 74 26 -0.39 9.228629737981933 18.594362860880793 8.925233024047216 0 0 0
142 12 11 0.06 11.912209345542674 0.00858014853848843 7.504383724068164 0 1 0
622 54 20 -0.5 16.354701348362692 17.949113096828423 9.046958980813342 0 0 0
335 28 11 0.06 2.168399241237229 0.5974385196098236 11.794500833744696 0 0 0
330 28 1 0.22 3.020881551027509 0.6058903114673164 11.113853241840719 0 0 0
336 28 11 0.06 2.8622288419542024 1.3896129935134842 10.37299692171111 0 0 0
325 28 9 0.52 4.299466845887913 2.0801005421372225 12.373739987700588 0 0 0
328 28 19 -0.35 4.246812314677581 0.7922096528923497 11.794945628164697 0 0 0
399 34 19 -0.35 7.370940099238515 2.2154488482171946 10.775240533096602 0 0 0
397 34 9 0.52 8.330155878657877 2.255524046299463 11.80136562998769 0 0 0
400 34 19 -0.35 8.760730678347212 1.0089471270217396 12.289986892819549 0 0 0
407 34 11 0.06 10.567272030967242 1.2902318675738758 11.262680565665216 0 0 0
402 34 1 0.22 10.17145935334917 0.9534178699464204 12.223096046190138 0 0 0
489 41 11 0.06 13.787700078794238 2.369272765526274 10.165945382144626 0 0 0
487 41 11 0.06 12.972373939204656 2.000173220391713 11.675396063432284 0 0 0
210 18 1 0.22 16.61541164969631 0.7027092092885968 11.749291734518323 0 0 0
216 18 11 0.06 16.444960572598205 0.06512745035675875 10.882758762341773 0 0 0
215 18 11 0.06 15.793012259592468 1.4133682415227862 11.812096479959932 0 0 0
205 18 9 0.52 17.909276099622268 2.133358270460783 10.469436362842343 0 0 0
208 18 19 -0.35 17.85558892040813 1.367775727055411 11.653813747708444 0 0 0
705 62 2 0.22 0.5083549831847453 4.106613297942001 11.109280069713499 0 0 0
710 62 11 0.06 0.8716292302597881 3.2615092361008755 11.699463556455289 0 0 0
704 62 19 -0.35 1.7149100497050802 4.563222891519705 11.70645123532699 0 0 0
326 28 20 -0.5 3.2697882310686124 2.7475977106512235 12.432277757666805 0 0 0
701 62 9 0.52 2.6680953019272144 4.647917709628692 10.666311464587054 0 0 0
401 34 1 0.22 6.718115195095873 3.415694517167371 10.385181329128795 0 0 0
403 34 11 0.06 7.258626189385679 4.319656530663943 10.629501033896782 0 0 0
405 34 11 0.06 5.70772438895748 3.446930519462628 10.775383298366458 0 0 0
398 34 20 -0.5 9.092197822939392 3.2014748861565625 11.91019945180687 0 0 0
488 41 11 0.06 12.583045223018722 3.484788905798192 10.800211933082247 0 0 0
483 41 19 -0.35 14.414300160395706 3.497663333876063 11.776739765059672 0 0 0
485 41 1 0.22 13.392862708102973 2.8114627546502247 11.081176507631714 0 0 0
206 18 20 -0.5 16.966388359448903 2.846955658955857 10.133595808950112 0 0 0
123 11 19 -0.35 2.0366431416475708 7.035050044039969 11.532144333770246 0 0 0
709 62 11 0.06 0.41878114576683556 5.0490605810261 11.658523549305963 0 0 0
702 62 20 -0.5 3.8078942088000396 5.066951703408577 10.834702827453237 0 0 0
756 72 26 -0.39 8.54316864659749 6.777464913087652 10.442970964565268 0 0 0
754 72 26 -0.39 9.986683828087136 5.141170825365558 10.619433461324615 0 0 0
750 72 27 1.34 9.644163618868115 6.389170838631289 11.47524409260532 0 0 0
752 72 26 -0.39 8.580450738580161 5.61459399813574 12.3054348948939 0 0 0
751 72 26 -0.39 10.720580057914177 7.163393940898427 10.666499382220913 0 0 0
755 72 26 -0.39 10.7310925039292 5.976063966149414 12.510428853658818 0 0 0
416 35 11 0.06 13.001349672956062 6.159629591216659 10.872110750076494 0 0 0
682 60 20 -0.5 16.05103466033747 6.602245579249417 11.95526883177545 0 0 0
551 47 9 0.52 18.641300572693364 6.407468472610616 10.171897798949841 0 0 0
552 47 20 -0.5 18.538340216128486 5.193337095513049 10.017433511958254 0 0 0
553 47 19 -0.35 17.53898371581212 7.281415954550971 10.065790070829474 0 0 0
554 47 19 -0.35 19.875337436154954 7.060113773449101 10.276632005033088 0 0 0
430 36 11 0.06 17.947337038286555 5.049760385917569 12.441761878225641 0 0 0
129 11 11 0.06 2.4465520061071038 8.661337283814014 10.321961915871844 0 0 0
125 11 1 0.22 2.705123436237858 7.607333523430039 10.428588820589495 0 0 0
127 11 11 0.06 3.790680726652848 7.527816787453865 10.402888433613958 0 0 0
338 29 20 -0.5 4.100595458998698 9.127106716859172 12.296953196959787 0 0 0
348 29 11 0.06 5.898854958883195 9.588880540887152 10.622517906398784 0 0 0
678 59 11 0.06 8.374692377608534 9.262888778447113 10.630182466228439 0 0 0
753 72 26 -0.39 9.311879054781587 7.6619807185240525 12.30422095992929 0 0 0
676 59 2 0.22 9.120369359406382 9.986804805281688 10.31304469330373 0 0 0
675 59 2 0.22 10.611834559201004 9.643564247256233 10.397724899518252 0 0 0
680 59 11 0.06 10.960010321054238 9.62413241990148 11.42445570758255 0 0 0
500 42 11 0.06 13.569238016346382 8.13451145921833 12.29339480952364 0 0 0
410 35 20 -0.5 14.987244372005776 8.049234717169737 10.217817478455656 0 0 0
681 60 9 0.52 16.618536069639582 7.612348948682029 12.36312392280325 0 0 0
683 60 19 -0.35 15.95838326016666 8.842731228864183 12.457810401826045 0 0 0
555 47 2 0.22 19.541300051186834 8.431981695992846 10.337910963462578 0 0 0
556 47 2 0.22 18.014772823262103 8.55568575702203 10.454417435136355 0 0 0
558 47 11 0.06 17.74735253844522 9.5313208422075 10.85758739985998 0 0 0
560 47 11 0.06 19.908496440610048 8.328805068855843 11.350987287424394 0 0 0
345 29 11 0.06 1.0067558087626176 10.484722302797147 11.976091377706744 0 0 0
337 29 9 0.52 3.8139371738754866 10.302145369401387 12.086365955534916 0 0 0
340 29 19 -0.35 4.7247829396552214 11.122913974411562 11.390988939722916 0 0 0
342 29 1 0.22 5.969108728814628 10.461384922038716 11.274199337262749 0 0 0
347 29 11 0.06 6.376541608914761 10.161178172531663 12.241178938003554 0 0 0
346 29 11 0.06 6.708240080223455 11.118216632026318 10.836247225895757 0 0 0
570 48 11 0.06 9.073974681375347 12.136785793262261 11.585386555543042 0 0 0
384 32 11 0.06 11.573011412078893 12.041737531153553 11.601942550723766 0 0 0
378 32 1 0.22 12.65198652816815 12.043559109183214 11.753019171331669 0 0 0
382 32 11 0.06 12.95763474788613 11.021771853915942 11.976448705807957 0 0 0
376 32 19 -0.35 13.373797068456534 12.537341489510172 10.638418021383812 0 0 0
419 35 11 0.06 15.314175902092655 10.86519511056624 10.325970010283655 0 0 0
577 49 11 0.06 17.556969943624956 11.999018695386955 11.20283854497431 0 0 0
579 49 11 0.06 19.934777546804558 12.344024320996793 10.522837015847108 0 0 0
580 49 11 0.06 0.25531883445694653 13.470247298860397 11.819751748402524 1 0 0
564 48 19 -0.35 7.351265883907171 13.410098897323335 11.595111029282043 0 0 0
561 48 9 0.52 7.365668122868978 14.765675108325318 11.932324789828339 0 0 0
569 48 11 0.06 8.803679516100148 13.160898591431401 10.221642054155344 0 0 0
565 48 2 0.22 8.707334259533589 13.119567650012117 11.303579981452415 0 0 0
566 48 2 0.22 9.57402086172274 14.227973501641026 11.92543675483931 0 0 0
374 32 20 -0.5 12.06490805639016 14.380366838500136 10.884297725649455 0 0 0
373 32 9 0.52 13.024338239683509 13.870581117402637 10.322537368350218 0 0 0
731 65 31 1 15.685818310143503 13.327454147646401 10.104201349485901 0 0 0
575 49 2 0.22 19.665902127539653 12.587842211961005 11.551961913852272 0 0 0
576 49 2 0.22 18.144007627192167 12.758386836566622 11.71909563432812 0 0 0
578 49 11 0.06 17.82075235204651 13.720827827918228 11.333686728979488 0 0 0
166 14 11 0.06 0.6277063553708108 16.650751902848853 12.213545274993656 1 0 0
562 48 20 -0.5 6.347381624084707 15.440760592242103 12.062067369686572 0 0 0
567 48 11 0.06 9.75647480358891 15.173352605724425 11.403545977333224 0 0 0
563 48 19 -0.35 8.671946707988356 15.319741745576955 11.954785819785377 0 0 0
766 74 26 -0.39 8.322615431152485 17.259057493984702 10.417531913996365 0 0 0
476 40 11 0.06 11.894551067190385 16.584520917738903 12.052046919170976 0 0 0
742 70 26 -0.39 15.009943714659881 15.561050403193228 11.008129796379166 0 0 0
739 70 26 -0.39 16.50723837283103 16.29292268223302 12.437041858988282 0 0 0
167 14 11 0.06 19.140395322433193 15.770348527732256 11.891765141816096 0 0 0
334 28 11 0.06 3.010274165336259 19.65225112947785 10.589920124829408 0 -1 0
733 67 31 1 4.115562411394964 18.101635027075353 12.209851244109494 0 0 0
406 34 11 0.06 10.511129503560689 19.932479901069506 12.351172481505857 0 -1 0
314 27 20 -0.5 2.2135567543699106 1.245291166435605 14.274078070140042 0 0 0
319 27 11 0.06 4.754045913300511 0.609946828935484 14.57990482158716 0 0 0
327 28 19 -0.35 5.503557995824817 2.4394980944033433 13.051878993706277 0 0 0
480 40 11 0.06 8.978172311059813 0.9148017637061746 14.778266243490048 0 1 0
408 34 11 0.06 10.622841761047175 1.5592218118922092 13.009095541330073 0 0 0
429 36 11 0.06 14.53315119653074 0.07027781312980547 14.170863687419097 0 0 0
214 18 11 0.06 16.5801775440205 0.07483690914714385 12.639420042552473 0 0 0
422 36 20 -0.5 17.433278403181586 2.22652108824866 14.668490075535573 0 0 0
423 36 19 -0.35 15.157827773689755 2.037871574399092 14.183634267483027 0 0 0
425 36 1 0.22 15.016072504716035 0.7845410842505912 14.837694792822637 0 0 0
318 27 1 0.22 0.7407583767587297 3.4298584287176714 14.987328148781936 0 0 0
323 27 11 0.06 1.185460465521796 3.882996360829427 14.100268907391861 0 0 0
324 27 11 0.06 0.03513905252580887 2.6677899290808837 14.662771172076443 0 0 0
331 28 11 0.06 4.779896944974904 4.4230910398354135 13.49154389967995 0 0 0
329 28 1 0.22 5.654821173608866 3.783710074874072 13.504367242786492 0 0 0
332 28 11 0.06 5.98810329425784 3.758582477178433 14.53131239867784 0 0 0
333 28 11 0.06 6.447062476500501 4.324237796577845 12.992723309263097 0 0 0
294 25 1 0.22 9.20918467312223 4.138568874786412 14.888862634425314 0 0 0
298 25 11 0.06 8.470406831512955 3.632577333253965 14.285855407431256 0 0 0
292 25 19 -0.35 10.51553704595379 3.702041736936553 14.592213722474611 0 0 0
481 41 9 0.52 13.94026989723742 4.055391746711796 12.98654599012235 0 0 0
482 41 20 -0.5 13.149570574890403 3.4475895918421973 13.70480444848031 0 0 0
421 36 9 0.52 16.473988234409273 2.5350808331689545 13.96147969778015 0 0 0
424 36 19 -0.35 16.5847810860721 3.6264225914808645 13.06883132377009 0 0 0
426 36 1 0.22 17.879294563958947 4.191626589501877 13.10456246945528 0 0 0
431 36 11 0.06 18.15183922047643 4.5496598376678925 14.097935666184066 0 0 0
432 36 11 0.06 18.620816028690605 3.471332289992249 12.76628249574436 0 0 0
124 11 19 -0.35 2.002476100785198 6.2213222800037995 13.768351880661319 0 0 0
122 11 20 -0.5 3.997577711602294 6.675331818961234 12.738386288140001 0 0 0
121 11 9 0.52 2.770175302962411 6.710503247181041 12.69381866382126 0 0 0
126 11 1 0.22 2.6594802645818674 6.349954639121869 15.007113258450135 0 0 0
300 25 11 0.06 9.129779504674564 5.2096128974695795 14.709498584437943 0 0 0
486 41 1 0.22 14.89673562025308 5.327277531235316 14.733146225403742 0 0 0
499 42 11 0.06 12.697151866902676 7.183324910784571 13.46735756918182 0 0 0
484 41 19 -0.35 14.46070463436171 5.308752233540559 13.383953389682215 0 0 0
490 41 11 0.06 15.750764430273792 5.9942509419814956 14.847850560277205 0 0 0
343 29 11 0.06 1.6850162481426174 9.147105174555863 12.906931009353377 0 0 0
745 71 26 -0.39 5.613246991564684 8.739654578607386 14.403590559521604 0 0 0
493 42 9 0.52 11.490481052758193 9.466450161250394 13.860508209574183 0 0 0
494 42 20 -0.5 10.731758806020245 8.554324411647196 14.15319136229046 0 0 0
497 42 1 0.22 13.348000793601596 8.043941861502798 13.354906284986653 0 0 0
501 42 11 0.06 14.240910830799933 7.745199219775762 13.898086454871065 0 0 0
495 42 19 -0.35 12.895183132864952 9.291596757500614 13.8594394723936 0 0 0
686 60 2 0.22 16.503167786587312 9.399522248800402 13.623645030809845 0 0 0
688 60 11 0.06 16.090033075915144 9.76720461587679 14.558628803259232 0 0 0
685 60 2 0.22 17.89654989188217 8.767021219411966 13.776024385713416 0 0 0
690 60 11 0.06 17.893071706461118 7.9411108418300795 14.486265977404427 0 0 0
684 60 19 -0.35 17.84774689579731 7.558528545368872 13.044435635592613 0 0 0
689 60 11 0.06 18.61644068589811 9.494657051765147 14.15024998698646 0 0 0
341 29 1 0.22 1.5927822739113418 10.229721619271743 12.85843369520093 0 0 0
344 29 11 0.06 1.0226305406698044 10.484832624199093 13.745364996827035 0 0 0
339 29 19 -0.35 2.8187472240190594 10.937786672581282 12.861841216108578 0 0 0
749 71 26 -0.39 4.908199553557797 10.824808721691786 14.270568283010261 0 0 0
747 71 26 -0.39 6.978916541331114 10.405539093155241 14.881201816335947 0 0 0
498 42 1 0.22 9.622028257015065 10.82276318708928 14.0847820321686 0 0 0
503 42 11 0.06 9.00228105948873 10.212395416382911 13.427346939674289 0 0 0
502 42 11 0.06 9.250542163843999 11.845827118936473 14.060079374279134 0 0 0
496 42 19 -0.35 10.972152469302712 10.763171650263319 13.66525827355541 0 0 0
687 60 11 0.06 16.469487568031532 10.206219772328213 12.896661847549932 0 0 0
571 49 9 0.52 19.06690471180088 12.30122658350652 13.679226823535869 0 0 0
572 49 20 -0.5 19.207524144970172 11.833393290563098 14.806404620950207 0 0 0
573 49 19 -0.35 17.832444076780682 12.296405223764978 13.015083535799011 0 0 0
574 49 19 -0.35 0.1598780987343223 12.659057203974072 12.868830935201752 1 0 0
4 1 19 -0.35 1.584543521647801 12.700142410856339 14.92047457382192 0 0 0
10 1 11 0.06 2.3361969383825834 13.793058797766383 13.342696304345806 0 0 0
12 1 11 0.06 3.5652402145182123 12.931806531081877 14.22664098366703 0 0 0
6 1 1 0.22 2.6247742176223148 13.466763445190287 14.341425298273503 0 0 0
11 1 11 0.06 2.8039566294307297 14.369929915811227 14.922885113535502 0 0 0
568 48 11 0.06 9.569673894544763 14.322500233127773 13.013782372381508 0 0 0
383 32 11 0.06 12.840373830155508 12.630818480229676 12.645506519270084 0 0 0
60 5 11 0.06 14.08272652933552 13.312003309338886 14.704020155666239 0 0 0
740 70 26 -0.39 13.70128187501672 14.975758011695913 12.67610029716617 0 0 0
58 5 11 0.06 12.686076654393066 14.391294777425674 14.882389953009383 0 0 0
737 70 26 -0.39 15.724215666070165 14.211393916653899 12.594090911073879 0 0 0
157 14 9 0.52 18.94669225858023 14.831294417997892 14.34550933261159 0 0 0
158 14 20 -0.5 17.883891855697108 14.680397959342086 13.75695652983191 0 0 0
160 14 19 -0.35 0.09615510450349316 15.234117140977727 13.632758320535732 1 0 0
395 33 11 0.06 2.9191657437760563 17.05227002652215 14.222327175883706 0 0 0
385 33 9 0.52 5.502673973519889 17.007039024789627 14.689197975840123 0 0 0
386 33 20 -0.5 5.154993512260537 15.933935669669763 14.20265376347863 0 0 0
391 33 11 0.06 7.474402878347862 15.279675717765429 14.861514823554765 0 0 0
389 33 1 0.22 7.731743493007618 16.33904466729856 14.893258475211193 0 0 0
392 33 11 0.06 7.930401985999216 16.700285737291104 13.894825358659405 0 0 0
473 40 1 0.22 11.761497564574787 17.174131284404385 12.953193259388616 0 0 0
475 40 11 0.06 12.307078628068847 16.72803348849451 13.782944946832027 0 0 0
471 40 19 -0.35 10.391575239707963 17.23910072123646 13.266670719533419 0 0 0
738 70 26 -0.39 14.447098416118203 17.052591470283435 12.531798935307261 0 0 0
736 70 27 1.34 15.098618533002169 15.635762232985016 12.560594641964396 0 0 0
741 70 26 -0.39 15.189651610742217 15.70391513325808 14.11554520745823 0 0 0
162 14 1 0.22 19.744012514206737 16.21200658164595 12.67668523753644 0 0 0
168 14 11 0.06 19.156048598039433 17.01900921715016 13.110903144447406 0 0 0
640 55 11 0.06 0.026507379605113398 19.097926874862516 14.315931412025405 1 0 0
388 33 19 -0.35 4.636287542857955 18.115315197210965 14.65476867138615 0 0 0
390 33 1 0.22 3.3290934276782997 17.708747900222267 14.989507844943613 0 0 0
472 40 19 -0.35 8.94455403932142 18.979001409574465 14.048926619223202 0 0 0
477 40 11 0.06 12.209445774988948 18.145440484265198 12.752129939890853 0 0 0
469 40 9 0.52 10.163503417983891 18.275148005990903 14.189213105766793 0 0 0
470 40 20 -0.5 11.075684150059397 18.664945649015536 14.91717644172325 0 0 0
634 55 19 -0.35 18.086966624788136 19.090851392266096 14.766182842456196 0 0 0
313 27 9 0.52 2.610831136514984 2.083576642703336 15.080333583663647 0 0 0
317 27 1 0.22 4.733061262373861 1.2767510386407908 15.439977549415401 0 0 0
321 27 11 0.06 4.3274375596319015 0.7277270579942172 16.28887655390148 0 0 0
315 27 19 -0.35 3.970967554018474 2.424019669854729 15.1563152784709 0 0 0
320 27 11 0.06 5.753605830701421 1.5565188053116006 15.688290968572694 0 0 0
428 36 11 0.06 14.36333937103454 0.8979437803250792 15.70327173545896 0 0 0
427 36 11 0.06 15.92579838793204 0.3128143787010421 15.198338349686152 0 0 0
322 27 11 0.06 0.1866017645120821 4.208360567855412 15.509285151658274 0 0 0
316 27 19 -0.35 1.7056087371190238 2.852899066415943 15.837193228708367 0 0 0
299 25 11 0.06 8.919609801848225 3.9143341920906973 15.913813597678052 0 0 0
289 25 9 0.52 11.373225494706228 4.214087459073264 15.582639316385192 0 0 0
291 25 19 -0.35 11.50137607117243 3.4420100916575267 16.75529803556274 0 0 0
293 25 1 0.22 12.634624928299017 3.8362452295681204 17.4909222605135 0 0 0
297 25 11 0.06 13.533466657335937 3.7775507603762914 16.87849176932794 0 0 0
492 41 11 0.06 15.207911270913902 4.355882566824233 15.114796826048135 0 0 0
130 11 11 0.06 1.9015013279363728 6.371259319729609 15.78835820448153 0 0 0
204 17 11 0.06 0.06926095745589964 5.714159062206698 17.50103402702401 0 0 0
131 11 11 0.06 3.3046147084169815 5.494407152492539 15.201632997352354 0 0 0
132 11 11 0.06 3.2619357499733774 7.258126059200644 15.077148810155322 0 0 0
732 66 31 1 5.482848869661474 5.196091789658155 16.5087661460291 0 0 0
99 9 19 -0.35 7.852593645209961 6.332067180004558 16.53939884634994 0 0 0
103 9 11 0.06 9.60166978683727 7.307924749429438 15.995410656319473 0 0 0
290 25 20 -0.5 11.638610481065054 5.413759025056254 15.592264030227886 0 0 0
491 41 11 0.06 14.112177840963765 5.700343237164739 15.387537525916372 0 0 0
544 46 19 -0.35 15.848939833822586 5.280402253700471 17.394422179891706 0 0 0
545 46 2 0.22 17.25211835545715 5.445225945247422 17.456382317672382 0 0 0
549 46 11 0.06 17.60997189150546 5.153156681186501 16.469067478654207 0 0 0
5 1 1 0.22 1.3603803671186054 9.640966195473654 16.96630235803166 0 0 0
9 1 11 0.06 1.5546285369164312 8.810524037204788 16.28952716719131 0 0 0
746 71 26 -0.39 4.164142907460962 9.505475411272535 15.875675184156963 0 0 0
743 71 27 1.34 5.572127333497735 9.956484896481943 15.379204119158263 0 0 0
748 71 26 -0.39 6.236506110500953 9.09128779783702 16.491642609542357 0 0 0
101 9 1 0.22 8.559066250996914 7.509378331453278 16.209944706915852 0 0 0
104 9 11 0.06 8.139006588877747 7.973598516266879 15.317977348708515 0 0 0
105 9 11 0.06 8.526025108584761 8.237181806108143 17.01593123990901 0 0 0
53 5 1 0.22 12.20507885931902 9.193816675539676 16.8648406067945 0 0 0
57 5 11 0.06 12.411751963678336 8.403449673616212 16.14401369766494 0 0 0
55 5 11 0.06 13.108252273113676 9.376203725796914 17.44607475702375 0 0 0
547 46 11 0.06 17.46209956723312 7.657764251269415 16.931470695887846 0 0 0
1 1 9 0.52 2.005140551386259 11.660269737246521 15.785657471258574 0 0 0
3 1 19 -0.35 0.9796027951410432 10.788312372293214 16.22628373377465 0 0 0
2 1 20 -0.5 3.092536328533667 11.712436480017375 16.35338022595382 0 0 0
744 71 26 -0.39 5.533395583041502 11.174668205958625 16.352314761314556 0 0 0
504 42 11 0.06 9.474938349905534 10.487072564132161 15.112444111357124 0 0 0
51 5 19 -0.35 11.700221000491794 10.36219725588656 16.24355036390519 0 0 0
52 5 19 -0.35 12.24711729842612 12.394232194373469 15.062496682032249 0 0 0
49 5 9 0.52 12.69463596980186 11.207737112226127 15.689007238600947 0 0 0
50 5 20 -0.5 13.86113286684403 10.839333910982372 15.566546855320665 0 0 0
367 31 11 0.06 17.230306975001106 10.712964708982602 16.56933468900415 0 0 0
362 31 20 -0.5 15.315674481440993 12.252749748745012 17.026422631153896 0 0 0
368 31 11 0.06 18.750214900168093 11.11509545149803 17.300610922526065 0 0 0
526 44 11 0.06 4.287602559060633 13.844547733806966 16.8638162992599 0 0 0
522 44 1 0.22 5.301938749921761 14.147301414178692 16.631240600440005 0 0 0
527 44 11 0.06 5.495348065325136 13.883895061517578 15.591396932918991 0 0 0
528 44 11 0.06 5.964677008523948 13.540288493939865 17.249979363851214 0 0 0
54 5 1 0.22 13.143137698513286 13.46877406868133 15.23511278747749 0 0 0
59 5 11 0.06 13.37060860114781 13.632607225104183 16.28011571116217 0 0 0
163 14 11 0.06 16.958830894067496 14.755981261200725 16.074367630179047 0 0 0
159 14 19 -0.35 19.064978840524976 14.590173542545761 15.734216013095898 0 0 0
161 14 1 0.22 17.852788623516002 14.208148675619723 16.371663883766566 0 0 0
164 14 11 0.06 17.637051069766343 13.154805293067817 16.229963242055067 0 0 0
165 14 11 0.06 17.950038792305346 14.358446894674652 17.442687782678487 0 0 0
638 55 11 0.06 0.4911498833306184 16.918478361584285 15.435246037150309 1 0 0
396 33 11 0.06 3.3186762157945804 17.169204880052373 15.936234475080669 0 0 0
387 33 19 -0.35 6.701581676564689 17.133483217215915 15.424787720864169 0 0 0
520 44 19 -0.35 5.3783797222838965 15.546116505428188 16.8281575673363 0 0 0
393 33 11 0.06 8.65755258892335 16.43173619413099 15.460352487069317 0 0 0
633 55 19 -0.35 18.152876144267985 16.915282667259458 15.688951513502746 0 0 0
637 55 11 0.06 19.20794047794271 17.113547526999003 16.594926492660623 0 0 0
636 55 2 0.22 19.492203110649353 17.33793068444286 15.565894324728928 0 0 0
394 33 11 0.06 2.668528446078705 18.570525111713277 15.084995319074439 0 0 0
524 44 11 0.06 6.553649966518575 18.859413752853357 17.223307097054295 0 0 0
478 40 11 0.06 7.58940641925654 19.93008631025411 15.21602451238597 0 0 0
474 40 1 0.22 8.664967636328601 19.913452488235528 15.06986203162522 0 0 0
479 40 11 0.06 9.101479102600843 19.69610150137765 16.041951867480194 0 0 0
523 44 11 0.06 8.040641348696855 17.885442997334753 17.396746751587283 0 0 0
632 55 20 -0.5 16.158399473212462 17.834132001795588 14.991667408980696 0 0 0
631 55 9 0.52 17.377796602357844 17.928260674396164 15.105324356194775 0 0 0
635 55 2 0.22 19.41338021416619 18.83380134579957 15.18187881559861 0 0 0
639 55 11 0.06 19.720906452454567 19.484723399532076 16.00057541892626 0 0 0
201 17 11 0.06 4.99641004935802 2.05385520016309 19.249261970403737 0 0 0
196 17 19 -0.35 1.2294281207467177 4.162017675671125 18.22676024935136 0 0 0
193 17 9 0.52 2.6435669938813393 4.157562042868449 18.326050579595567 0 0 0
195 17 19 -0.35 3.2443070098995013 3.1185292132369256 19.080319885721085 0 0 0
197 17 1 0.22 4.651250079560943 3.0373121039412894 18.930078206215722 0 0 0
194 17 20 -0.5 3.3142740328791787 4.999853367807797 17.73340725052702 0 0 0
200 17 11 0.06 5.157677723498096 3.774737395402346 19.553507977479313 0 0 0
199 17 11 0.06 4.991517828689168 3.1591639829052767 17.901237938857427 0 0 0
100 9 19 -0.35 7.5677984716097875 4.7643712995823035 18.338774064045136 0 0 0
102 9 1 0.22 8.317956166474877 3.8502698620956908 19.106848204483466 0 0 0
106 9 11 0.06 7.66504264615313 3.1605649916777816 19.640648338145922 0 0 0
107 9 11 0.06 9.003190268725698 3.2622622092147444 18.49585762882573 0 0 0
108 9 11 0.06 8.903321407763121 4.3797062404315374 19.84982020902766 0 0 0
295 25 11 0.06 12.532456678859091 4.856849299731819 17.858804792573064 0 0 0
296 25 11 0.06 12.769338309484441 3.1841292440080275 18.353331177088727 0 0 0
735 69 31 1 15.280435731966787 3.2301209788395115 18.70710703679955 0 0 0
550 46 11 0.06 17.761628300455165 4.799960345937231 18.17160028904589 0 0 0
198 17 1 0.22 0.6367454190664132 5.443818711733423 18.391177281190927 0 0 0
203 17 11 0.06 1.3297724622628446 6.262080198762786 18.581343647410666 0 0 0
730 64 11 0.06 5.495302883617896 6.704850370090887 19.67992084515526 0 0 0
724 64 19 -0.35 5.381883568130288 7.0035387584304125 18.227309166966464 0 0 0
729 64 11 0.06 6.708095964504567 7.375041705372534 18.500262853243367 0 0 0
97 9 9 0.52 8.420185209847496 5.64753829195755 17.641153062688314 0 0 0
98 9 20 -0.5 9.641555193947122 5.572783245614392 17.783596021270156 0 0 0
542 46 20 -0.5 14.121695425747482 6.780926927859575 17.712867358749218 0 0 0
541 46 9 0.52 15.32652524910357 6.5638758904894985 17.60654904713491 0 0 0
548 46 11 0.06 17.411369275345713 7.326827518317754 18.74124932795376 0 0 0
546 46 2 0.22 17.569397331634352 6.927531405415145 17.73623922172946 0 0 0
202 17 11 0.06 19.9377268532741 5.4322233256871 19.22689565473999 -1 0 0
8 1 11 0.06 0.5291826536593615 9.339757000371359 17.604653349278433 0 0 0
7 1 11 0.06 2.2095742739804667 9.76372658326909 17.63784775402516 0 0 0
722 64 20 -0.5 3.252006746936814 7.493929073898411 17.56447989806358 0 0 0
721 64 9 0.52 4.375260891435588 7.906894494234159 17.808248212472687 0 0 0
723 64 19 -0.35 4.542916689682674 9.190294969241036 18.327497851446154 0 0 0
725 64 2 0.22 6.038220850701714 7.588391386225078 19.33483668464255 0 0 0
726 64 2 0.22 5.3818043041065176 8.978884900336853 19.435970233560955 0 0 0
727 64 11 0.06 6.022368361643002 9.763985558987653 19.043186342788996 0 0 0
179 15 11 0.06 8.378557832366273 9.005957536075842 19.388094260981614 0 0 -1
56 5 11 0.06 11.459567646079915 8.796257389288568 17.553502821790552 0 0 0
32 3 11 0.06 14.00772441398706 9.467695231530994 19.937348320612966 0 0 -1
543 46 19 -0.35 16.302920416876553 7.570467035665761 17.797684647218354 0 0 0
369 31 11 0.06 17.718475925556607 9.889074000346533 18.02909432953612 0 0 0
22 2 11 0.06 5.296027558354186 12.090148618192098 19.594919035236025 0 0 0
372 31 11 0.06 13.138292945788546 12.107580016998364 18.246425580739913 0 0 0
364 31 19 -0.35 14.922228715488412 11.894391161620689 19.261305777615632 0 0 0
361 31 9 0.52 15.768191393726276 11.99046917572764 18.13586876793418 0 0 0
363 31 19 -0.35 17.16165723660022 11.877113109812898 18.326277186498924 0 0 0
35 3 11 0.06 19.204527822464335 10.926048142809051 19.750097478720903 0 0 -1
365 31 1 0.22 17.72367575325335 10.854422254670128 17.52650985849715 0 0 0
463 39 11 0.06 1.9052475563473625 13.926546351464083 17.766183510411764 0 0 0
459 39 19 -0.35 0.467932729039917 14.7274129719237 19.14264643345311 0 0 0
461 39 1 0.22 0.9829190012076803 13.699977939304343 18.301400218279277 0 0 0
464 39 11 0.06 1.2036655151960083 12.82168440265582 18.90763803366748 0 0 0
465 39 11 0.06 0.2450354097040244 13.376621709939103 17.571474386178803 0 0 0
18 2 1 0.22 4.489570880574374 12.815304225120535 19.67566580477119 0 0 0
24 2 11 0.06 3.7330183337410516 12.560319718009826 18.93440052047542 0 0 0
14 2 20 -0.5 2.8405484320270835 14.763622178735364 19.927098815302738 0 0 0
16 2 19 -0.35 4.996945250322227 14.11775297400156 19.480550821981794 0 0 0
270 23 1 0.22 8.809450711367552 13.994448618144371 19.872487468391206 0 0 -1
274 23 11 0.06 9.767768524350085 13.479476255781268 19.804687350902455 0 0 -1
276 23 11 0.06 8.123313908780334 13.511666740671927 19.17776755730638 0 0 -1
366 31 1 0.22 13.72339244654198 12.597645325457897 19.0234597188496 0 0 0
370 31 11 0.06 13.105194163262233 12.642058594188198 19.919330468169953 0 0 0
371 31 11 0.06 13.929769157194146 13.621291277927206 18.71473810423854 0 0 0
458 39 20 -0.5 1.3187132082679138 16.3514648563732 17.722825597225793 0 0 0
457 39 9 0.52 0.6384102386817382 16.072782632070382 18.707040639616267 0 0 0
460 39 19 -0.35 0.10743285978251803 17.08312292086553 19.55889767540298 0 0 0
13 2 9 0.52 4.015546561972218 15.08660880393591 19.772162457437396 0 0 0
17 2 1 0.22 3.5763930129461494 17.363039466380247 19.509788705577225 0 0 0
19 2 11 0.06 2.575308283415299 17.247790448470138 19.921823081163883 0 0 0
21 2 11 0.06 3.5279618783900957 17.286275504234915 18.424536450019495 0 0 0
517 44 9 0.52 6.47831375480592 15.954658339189113 17.615942034466197 0 0 0
519 44 19 -0.35 6.3326594072302225 17.141050810486682 18.37276113824335 0 0 0
268 23 19 -0.35 8.967927097680494 15.367208039604973 19.560835228816224 0 0 -1
518 44 20 -0.5 7.581917185715762 15.429929761416913 17.48223263462287 0 0 0
41 4 1 0.22 17.238608426059503 16.137545972833923 19.66353967678123 0 0 -1
45 4 11 0.06 16.466355610281934 15.712762484227765 19.02277607545672 0 0 -1
43 4 11 0.06 17.601488637216526 17.05760966516358 19.212298512587406 0 0 -1
44 4 11 0.06 18.08147135955111 15.447588384531857 19.687115975265684 0 0 -1
462 39 1 0.22 0.18832279479140163 18.43123397449478 19.104231995802724 0 0 0
466 39 11 0.06 0.17618764643660786 19.091415421557347 19.971016070918974 0 0 0
467 39 11 0.06 1.081645434118504 18.697634287752685 18.540342147196583 0 0 0
20 2 11 0.06 3.9139092125589663 18.37154711194695 19.747104482577576 0 0 0
521 44 1 0.22 7.125617842790632 18.21265084692237 17.887321065659734 0 0 0
525 44 11 0.06 7.4548470342085436 18.862207656916244 18.689548293806336 0 0 0
468 39 11 0.06 19.327435855276956 18.719866873102053 18.504196551560888 -1 0 0

Velocities

153 0 0 0
118 0 0 0
120 0 0 0
240 0 0 0
238 0 0 0
234 0 0 0
699 0 0 0
700 0 0 0
695 0 0 0
109 0 0 0
112 0 0 0
111 0 0 0
114 0 0 0
119 0 0 0
229 0 0 0
232 0 0 0
696 0 0 0
697 0 0 0
698 0 0 0
693 0 0 0
694 0 0 0
691 0 0 0
692 0 0 0
178 0 0 0
235 0 0 0
652 0 0 0
233 0 0 0
237 0 0 0
236 0 0 0
231 0 0 0
34 0 0 0
169 0 0 0
172 0 0 0
728 0 0 0
174 0 0 0
180 0 0 0
653 0 0 0
29 0 0 0
33 0 0 0
25 0 0 0
27 0 0 0
28 0 0 0
170 0 0 0
658 0 0 0
31 0 0 0
62 0 0 0
26 0 0 0
30 0 0 0
36 0 0 0
720 0 0 0
23 0 0 0
275 0 0 0
539 0 0 0
65 0 0 0
67 0 0 0
63 0 0 0
68 0 0 0
69 0 0 0
717 0 0 0
224 0 0 0
15 0 0 0
266 0 0 0
265 0 0 0
267 0 0 0
530 0 0 0
540 0 0 0
534 0 0 0
538 0 0 0
37 0 0 0
39 0 0 0
40 0 0 0
223 0 0 0
271 0 0 0
269 0 0 0
272 0 0 0
273 0 0 0
141 0 0 0
48 0 0 0
38 0 0 0
757 0 0 0
762 0 0 0
759 0 0 0
758 0 0 0
761 0 0 0
147 0 0 0
149 0 0 0
151 0 0 0
152 0 0 0
140 0 0 0
145 0 0 0
148 0 0 0
239 0 0 0
184 0 0 0
186 0 0 0
190 0 0 0
191 0 0 0
283 0 0 0
285 0 0 0
117 0 0 0
110 0 0 0
230 0 0 0
612 0 0 0
441 0 0 0
284 0 0 0
279 0 0 0
281 0 0 0
113 0 0 0
115 0 0 0
116 0 0 0
620 0 0 0
611 0 0 0
613 0 0 0
616 0 0 0
614 0 0 0
309 0 0 0
453 0 0 0
308 0 0 0
642 0 0 0
654 0 0 0
655 0 0 0
659 0 0 0
651 0 0 0
657 0 0 0
618 0 0 0
302 0 0 0
617 0 0 0
305 0 0 0
307 0 0 0
451 0 0 0
449 0 0 0
452 0 0 0
447 0 0 0
171 0 0 0
173 0 0 0
175 0 0 0
176 0 0 0
177 0 0 0
660 0 0 0
656 0 0 0
72 0 0 0
311 0 0 0
310 0 0 0
304 0 0 0
306 0 0 0
301 0 0 0
303 0 0 0
719 0 0 0
256 0 0 0
258 0 0 0
262 0 0 0
264 0 0 0
533 0 0 0
535 0 0 0
536 0 0 0
70 0 0 0
71 0 0 0
64 0 0 0
66 0 0 0
61 0 0 0
713 0 0 0
714 0 0 0
715 0 0 0
716 0 0 0
718 0 0 0
711 0 0 0
263 0 0 0
221 0 0 0
219 0 0 0
529 0 0 0
531 0 0 0
532 0 0 0
587 0 0 0
609 0 0 0
605 0 0 0
607 0 0 0
608 0 0 0
606 0 0 0
760 0 0 0
225 0 0 0
217 0 0 0
218 0 0 0
139 0 0 0
227 0 0 0
137 0 0 0
135 0 0 0
133 0 0 0
134 0 0 0
46 0 0 0
42 0 0 0
47 0 0 0
603 0 0 0
763 0 0 0
444 0 0 0
250 0 0 0
146 0 0 0
156 0 0 0
150 0 0 0
155 0 0 0
154 0 0 0
188 0 0 0
181 0 0 0
183 0 0 0
192 0 0 0
434 0 0 0
435 0 0 0
437 0 0 0
433 0 0 0
436 0 0 0
438 0 0 0
442 0 0 0
243 0 0 0
245 0 0 0
248 0 0 0
515 0 0 0
516 0 0 0
508 0 0 0
510 0 0 0
514 0 0 0
182 0 0 0
439 0 0 0
440 0 0 0
646 0 0 0
648 0 0 0
650 0 0 0
277 0 0 0
278 0 0 0
249 0 0 0
511 0 0 0
505 0 0 0
506 0 0 0
507 0 0 0
615 0 0 0
619 0 0 0
359 0 0 0
352 0 0 0
358 0 0 0
734 0 0 0
647 0 0 0
643 0 0 0
645 0 0 0
641 0 0 0
644 0 0 0
280 0 0 0
282 0 0 0
288 0 0 0
509 0 0 0
512 0 0 0
513 0 0 0
89 0 0 0
91 0 0 0
92 0 0 0
93 0 0 0
349 0 0 0
351 0 0 0
355 0 0 0
353 0 0 0
255 0 0 0
446 0 0 0
445 0 0 0
448 0 0 0
77 0 0 0
79 0 0 0
80 0 0 0
81 0 0 0
85 0 0 0
86 0 0 0
87 0 0 0
312 0 0 0
356 0 0 0
253 0 0 0
662 0 0 0
254 0 0 0
537 0 0 0
582 0 0 0
584 0 0 0
590 0 0 0
585 0 0 0
589 0 0 0
712 0 0 0
661 0 0 0
663 0 0 0
591 0 0 0
592 0 0 0
220 0 0 0
581 0 0 0
586 0 0 0
583 0 0 0
588 0 0 0
629 0 0 0
610 0 0 0
664 0 0 0
604 0 0 0
665 0 0 0
666 0 0 0
670 0 0 0
669 0 0 0
668 0 0 0
597 0 0 0
593 0 0 0
228 0 0 0
222 0 0 0
226 0 0 0
136 0 0 0
138 0 0 0
144 0 0 0
143 0 0 0
601 0 0 0
602 0 0 0
246 0 0 0
252 0 0 0
244 0 0 0
185 0 0 0
187 0 0 0
189 0 0 0
207 0 0 0
213 0 0 0
209 0 0 0
211 0 0 0
708 0 0 0
703 0 0 0
706 0 0 0
443 0 0 0
404 0 0 0
241 0 0 0
247 0 0 0
242 0 0 0
212 0 0 0
707 0 0 0
128 0 0 0
672 0 0 0
417 0 0 0
413 0 0 0
415 0 0 0
354 0 0 0
360 0 0 0
350 0 0 0
559 0 0 0
649 0 0 0
286 0 0 0
287 0 0 0
671 0 0 0
673 0 0 0
674 0 0 0
409 0 0 0
411 0 0 0
412 0 0 0
557 0 0 0
257 0 0 0
261 0 0 0
450 0 0 0
455 0 0 0
456 0 0 0
454 0 0 0
75 0 0 0
677 0 0 0
679 0 0 0
418 0 0 0
414 0 0 0
420 0 0 0
357 0 0 0
259 0 0 0
82 0 0 0
73 0 0 0
76 0 0 0
78 0 0 0
84 0 0 0
74 0 0 0
88 0 0 0
90 0 0 0
94 0 0 0
95 0 0 0
96 0 0 0
375 0 0 0
260 0 0 0
630 0 0 0
628 0 0 0
625 0 0 0
594 0 0 0
83 0 0 0
769 0 0 0
764 0 0 0
765 0 0 0
767 0 0 0
770 0 0 0
377 0 0 0
379 0 0 0
380 0 0 0
381 0 0 0
621 0 0 0
624 0 0 0
626 0 0 0
623 0 0 0
627 0 0 0
667 0 0 0
598 0 0 0
595 0 0 0
596 0 0 0
600 0 0 0
251 0 0 0
599 0 0 0
768 0 0 0
142 0 0 0
622 0 0 0
335 0 0 0
330 0 0 0
336 0 0 0
325 0 0 0
328 0 0 0
399 0 0 0
397 0 0 0
400 0 0 0
407 0 0 0
402 0 0 0
489 0 0 0
487 0 0 0
210 0 0 0
216 0 0 0
215 0 0 0
205 0 0 0
208 0 0 0
705 0 0 0
710 0 0 0
704 0 0 0
326 0 0 0
701 0 0 0
401 0 0 0
403 0 0 0
405 0 0 0
398 0 0 0
488 0 0 0
483 0 0 0
485 0 0 0
206 0 0 0
123 0 0 0
709 0 0 0
702 0 0 0
756 0 0 0
754 0 0 0
750 0 0 0
752 0 0 0
751 0 0 0
755 0 0 0
416 0 0 0
682 0 0 0
551 0 0 0
552 0 0 0
553 0 0 0
554 0 0 0
430 0 0 0
129 0 0 0
125 0 0 0
127 0 0 0
338 0 0 0
348 0 0 0
678 0 0 0
753 0 0 0
676 0 0 0
675 0 0 0
680 0 0 0
500 0 0 0
410 0 0 0
681 0 0 0
683 0 0 0
555 0 0 0
556 0 0 0
558 0 0 0
560 0 0 0
345 0 0 0
337 0 0 0
340 0 0 0
342 0 0 0
347 0 0 0
346 0 0 0
570 0 0 0
384 0 0 0
378 0 0 0
382 0 0 0
376 0 0 0
419 0 0 0
577 0 0 0
579 0 0 0
580 0 0 0
564 0 0 0
561 0 0 0
569 0 0 0
565 0 0 0
566 0 0 0
374 0 0 0
373 0 0 0
731 0 0 0
575 0 0 0
576 0 0 0
578 0 0 0
166 0 0 0
562 0 0 0
567 0 0 0
563 0 0 0
766 0 0 0
476 0 0 0
742 0 0 0
739 0 0 0
167 0 0 0
334 0 0 0
733 0 0 0
406 0 0 0
314 0 0 0
319 0 0 0
327 0 0 0
480 0 0 0
408 0 0 0
429 0 0 0
214 0 0 0
422 0 0 0
423 0 0 0
425 0 0 0
318 0 0 0
323 0 0 0
324 0 0 0
331 0 0 0
329 0 0 0
332 0 0 0
333 0 0 0
294 0 0 0
298 0 0 0
292 0 0 0
481 0 0 0
482 0 0 0
421 0 0 0
424 0 0 0
426 0 0 0
431 0 0 0
432 0 0 0
124 0 0 0
122 0 0 0
121 0 0 0
126 0 0 0
300 0 0 0
486 0 0 0
499 0 0 0
484 0 0 0
490 0 0 0
343 0 0 0
745 0 0 0
493 0 0 0
494 0 0 0
497 0 0 0
501 0 0 0
495 0 0 0
686 0 0 0
688 0 0 0
685 0 0 0
690 0 0 0
684 0 0 0
689 0 0 0
341 0 0 0
344 0 0 0
339 0 0 0
749 0 0 0
747 0 0 0
498 0 0 0
503 0 0 0
502 0 0 0
496 0 0 0
687 0 0 0
571 0 0 0
572 0 0 0
573 0 0 0
574 0 0 0
4 0 0 0
10 0 0 0
12 0 0 0
6 0 0 0
11 0 0 0
568 0 0 0
383 0 0 0
60 0 0 0
740 0 0 0
58 0 0 0
737 0 0 0
157 0 0 0
158 0 0 0
160 0 0 0
395 0 0 0
385 0 0 0
386 0 0 0
391 0 0 0
389 0 0 0
392 0 0 0
473 0 0 0
475 0 0 0
471 0 0 0
738 0 0 0
736 0 0 0
741 0 0 0
162 0 0 0
168 0 0 0
640 0 0 0
388 0 0 0
390 0 0 0
472 0 0 0
477 0 0 0
469 0 0 0
470 0 0 0
634 0 0 0
313 0 0 0
317 0 0 0
321 0 0 0
315 0 0 0
320 0 0 0
428 0 0 0
427 0 0 0
322 0 0 0
316 0 0 0
299 0 0 0
289 0 0 0
291 0 0 0
293 0 0 0
297 0 0 0
492 0 0 0
130 0 0 0
204 0 0 0
131 0 0 0
132 0 0 0
732 0 0 0
99 0 0 0
103 0 0 0
290 0 0 0
491 0 0 0
544 0 0 0
545 0 0 0
549 0 0 0
5 0 0 0
9 0 0 0
746 0 0 0
743 0 0 0
748 0 0 0
101 0 0 0
104 0 0 0
105 0 0 0
53 0 0 0
57 0 0 0
55 0 0 0
547 0 0 0
1 0 0 0
3 0 0 0
2 0 0 0
744 0 0 0
504 0 0 0
51 0 0 0
52 0 0 0
49 0 0 0
50 0 0 0
367 0 0 0
362 0 0 0
368 0 0 0
526 0 0 0
522 0 0 0
527 0 0 0
528 0 0 0
54 0 0 0
59 0 0 0
163 0 0 0
159 0 0 0
161 0 0 0
164 0 0 0
165 0 0 0
638 0 0 0
396 0 0 0
387 0 0 0
520 0 0 0
393 0 0 0
633 0 0 0
637 0 0 0
636 0 0 0
394 0 0 0
524 0 0 0
478 0 0 0
474 0 0 0
479 0 0 0
523 0 0 0
632 0 0 0
631 0 0 0
635 0 0 0
639 0 0 0
201 0 0 0
196 0 0 0
193 0 0 0
195 0 0 0
197 0 0 0
194 0 0 0
200 0 0 0
199 0 0 0
100 0 0 0
102 0 0 0
106 0 0 0
107 0 0 0
108 0 0 0
295 0 0 0
296 0 0 0
735 0 0 0
550 0 0 0
198 0 0 0
203 0 0 0
730 0 0 0
724 0 0 0
729 0 0 0
97 0 0 0
98 0 0 0
542 0 0 0
541 0 0 0
548 0 0 0
546 0 0 0
202 0 0 0
8 0 0 0
7 0 0 0
722 0 0 0
721 0 0 0
723 0 0 0
725 0 0 0
726 0 0 0
727 0 0 0
179 0 0 0
56 0 0 0
32 0 0 0
543 0 0 0
369 0 0 0
22 0 0 0
372 0 0 0
364 0 0 0
361 0 0 0
363 0 0 0
35 0 0 0
365 0 0 0
463 0 0 0
459 0 0 0
461 0 0 0
464 0 0 0
465 0 0 0
18 0 0 0
24 0 0 0
14 0 0 0
16 0 0 0
270 0 0 0
274 0 0 0
276 0 0 0
366 0 0 0
370 0 0 0
371 0 0 0
458 0 0 0
457 0 0 0
460 0 0 0
13 0 0 0
17 0 0 0
19 0 0 0
21 0 0 0
517 0 0 0
519 0 0 0
268 0 0 0
518 0 0 0
41 0 0 0
45 0 0 0
43 0 0 0
44 0 0 0
462 0 0 0
466 0 0 0
467 0 0 0
20 0 0 0
521 0 0 0
525 0 0 0
468 0 0 0

Bonds

1 4 234 238
2 4 234 239
3 4 234 240
4 1 695 696
5 4 695 699
6 4 695 700
7 8 109 110
8 7 109 111
9 7 109 112
10 7 112 114
11 7 111 113
12 4 114 118
13 4 114 119
14 4 114 120
15 8 229 230
16 7 229 231
17 7 229 232
18 7 232 234
19 4 696 697
20 4 696 698
21 7 693 696
22 7 694 695
23 8 691 692
24 7 691 693
25 7 691 694
26 4 233 235
27 4 233 236
28 4 233 237
29 7 231 233
30 8 169 170
31 7 169 171
32 7 169 172
33 7 172 174
34 4 174 178
35 4 174 179
36 4 174 180
37 7 653 656
38 4 29 31
39 4 29 32
40 4 29 33
41 8 25 26
42 7 25 27
43 7 25 28
44 7 27 29
45 7 28 30
46 4 30 34
47 4 30 35
48 4 30 36
49 4 65 67
50 4 65 68
51 4 65 69
52 7 63 65
53 7 15 17
54 8 265 266
55 7 265 267
56 7 265 268
57 7 267 269
58 4 534 538
59 4 534 539
60 4 534 540
61 8 37 38
62 7 37 39
63 7 37 40
64 7 39 41
65 7 40 42
66 4 269 271
67 4 269 272
68 4 269 273
69 15 757 758
70 15 757 759
71 15 757 760
72 15 757 761
73 15 757 762
74 15 757 763
75 7 147 149
76 4 149 151
77 4 149 152
78 4 149 153
79 8 145 146
80 7 145 147
81 7 145 148
82 7 148 150
83 7 184 186
84 4 186 190
85 4 186 191
86 4 186 192
87 7 279 281
88 4 281 283
89 4 281 284
90 4 281 285
91 4 113 115
92 4 113 116
93 4 113 117
94 8 611 612
95 7 611 613
96 7 611 614
97 7 613 616
98 4 616 617
99 4 616 618
100 7 614 615
101 7 654 655
102 1 655 656
103 4 655 659
104 4 655 660
105 8 651 652
106 7 651 653
107 7 651 654
108 4 305 307
109 4 305 308
110 4 305 309
111 4 449 451
112 4 449 452
113 4 449 453
114 7 447 449
115 7 171 173
116 4 173 175
117 4 173 176
118 4 173 177
119 4 656 657
120 4 656 658
121 7 304 306
122 4 306 310
123 4 306 311
124 4 306 312
125 8 301 302
126 7 301 303
127 7 301 304
128 7 303 305
129 7 256 258
130 4 258 262
131 4 258 263
132 4 258 264
133 4 533 535
134 4 533 536
135 4 533 537
136 7 64 66
137 4 66 70
138 4 66 71
139 4 66 72
140 8 61 62
141 7 61 63
142 7 61 64
143 7 713 716
144 7 714 715
145 1 715 716
146 4 715 719
147 4 715 720
148 4 716 717
149 4 716 718
150 8 711 712
151 7 711 713
152 7 711 714
153 4 221 223
154 4 221 224
155 4 221 225
156 7 219 221
157 8 529 530
158 7 529 531
159 7 529 532
160 7 531 533
161 7 532 534
162 1 605 606
163 4 605 609
164 4 605 610
165 4 606 607
166 4 606 608
167 8 217 218
168 7 217 219
169 7 217 220
170 4 137 139
171 4 137 140
172 4 137 141
173 7 135 137
174 8 133 134
175 7 133 135
176 7 133 136
177 4 42 46
178 4 42 47
179 4 42 48
180 7 603 606
181 4 150 154
182 4 150 155
183 4 150 156
184 8 181 182
185 7 181 183
186 7 181 184
187 7 183 185
188 7 435 437
189 4 437 439
190 4 437 440
191 4 437 441
192 8 433 434
193 7 433 435
194 7 433 436
195 7 436 438
196 4 438 442
197 4 438 443
198 4 438 444
199 7 243 245
200 4 245 247
201 4 245 248
202 4 245 249
203 7 508 510
204 4 510 514
205 4 510 515
206 4 510 516
207 4 646 647
208 4 646 648
209 8 277 278
210 7 277 279
211 7 277 280
212 8 505 506
213 7 505 507
214 7 505 508
215 7 507 509
216 1 615 616
217 4 615 619
218 4 615 620
219 7 352 354
220 7 643 646
221 1 645 646
222 4 645 649
223 4 645 650
224 8 641 642
225 7 641 643
226 7 641 644
227 7 644 645
228 7 280 282
229 4 282 286
230 4 282 287
231 4 282 288
232 4 509 511
233 4 509 512
234 4 509 513
235 4 89 91
236 4 89 92
237 4 89 93
238 8 349 350
239 7 349 351
240 7 349 352
241 7 351 353
242 4 353 355
243 4 353 356
244 4 353 357
245 7 255 257
246 8 445 446
247 7 445 447
248 7 445 448
249 7 448 450
250 4 77 79
251 4 77 80
252 4 77 81
253 8 85 86
254 7 85 87
255 7 85 88
256 7 87 89
257 8 253 254
258 7 253 255
259 7 253 256
260 7 584 585
261 1 585 586
262 4 585 589
263 4 585 590
264 8 661 662
265 7 661 663
266 7 661 664
267 7 663 666
268 8 591 592
269 7 591 593
270 7 591 594
271 7 220 222
272 8 581 582
273 7 581 583
274 7 581 584
275 4 586 587
276 4 586 588
277 7 583 586
278 7 664 665
279 7 604 605
280 1 665 666
281 4 665 669
282 4 665 670
283 4 666 667
284 4 666 668
285 7 593 596
286 4 222 226
287 4 222 227
288 4 222 228
289 7 136 138
290 4 138 142
291 4 138 143
292 4 138 144
293 8 601 602
294 7 601 603
295 7 601 604
296 4 246 250
297 4 246 251
298 4 246 252
299 7 244 246
300 4 185 187
301 4 185 188
302 4 185 189
303 7 207 209
304 4 209 211
305 4 209 212
306 4 209 213
307 7 703 706
308 4 706 707
309 4 706 708
310 8 241 242
311 7 241 243
312 7 241 244
313 4 413 415
314 4 413 416
315 4 413 417
316 4 354 358
317 4 354 359
318 4 354 360
319 8 671 672
320 7 671 673
321 7 671 674
322 7 673 676
323 7 674 675
324 8 409 410
325 7 409 411
326 7 409 412
327 7 411 413
328 7 412 414
329 4 257 259
330 4 257 260
331 4 257 261
332 4 450 454
333 4 450 455
334 4 450 456
335 7 75 77
336 4 414 418
337 4 414 419
338 4 414 420
339 8 73 74
340 7 73 75
341 7 73 76
342 7 76 78
343 4 78 82
344 4 78 83
345 4 78 84
346 7 88 90
347 4 90 94
348 4 90 95
349 4 90 96
350 7 375 377
351 1 625 626
352 4 625 629
353 4 625 630
354 7 594 595
355 15 764 765
356 15 764 766
357 15 764 767
358 15 764 768
359 15 764 769
360 15 764 770
361 4 377 379
362 4 377 380
363 4 377 381
364 8 621 622
365 7 621 623
366 7 621 624
367 7 624 625
368 4 626 627
369 4 626 628
370 7 623 626
371 1 595 596
372 4 595 599
373 4 595 600
374 4 596 597
375 4 596 598
376 4 330 334
377 4 330 335
378 4 330 336
379 8 325 326
380 7 325 327
381 7 325 328
382 7 328 330
383 7 399 401
384 8 397 398
385 7 397 399
386 7 397 400
387 7 400 402
388 4 402 406
389 4 402 407
390 4 402 408
391 4 210 214
392 4 210 215
393 4 210 216
394 8 205 206
395 7 205 207
396 7 205 208
397 7 208 210
398 1 705 706
399 4 705 709
400 4 705 710
401 7 704 705
402 8 701 702
403 7 701 703
404 7 701 704
405 4 401 403
406 4 401 404
407 4 401 405
408 7 483 485
409 4 485 487
410 4 485 488
411 4 485 489
412 7 123 125
413 15 750 751
414 15 750 752
415 15 750 753
416 15 750 754
417 15 750 755
418 15 750 756
419 8 551 552
420 7 551 553
421 7 551 554
422 7 553 556
423 7 554 555
424 4 125 127
425 4 125 128
426 4 125 129
427 4 676 677
428 4 676 678
429 1 675 676
430 4 675 679
431 4 675 680
432 8 681 682
433 7 681 683
434 7 681 684
435 7 683 686
436 1 555 556
437 4 555 559
438 4 555 560
439 4 556 557
440 4 556 558
441 8 337 338
442 7 337 339
443 7 337 340
444 7 340 342
445 4 342 346
446 4 342 347
447 4 342 348
448 4 378 382
449 4 378 383
450 4 378 384
451 7 376 378
452 7 564 565
453 8 561 562
454 7 561 563
455 7 561 564
456 1 565 566
457 4 565 569
458 4 565 570
459 4 566 567
460 4 566 568
461 8 373 374
462 7 373 375
463 7 373 376
464 1 575 576
465 4 575 579
466 4 575 580
467 4 576 577
468 4 576 578
469 7 563 566
470 7 327 329
471 7 423 425
472 4 425 427
473 4 425 428
474 4 425 429
475 4 318 322
476 4 318 323
477 4 318 324
478 4 329 331
479 4 329 332
480 4 329 333
481 4 294 298
482 4 294 299
483 4 294 300
484 7 292 294
485 8 481 482
486 7 481 483
487 7 481 484
488 8 421 422
489 7 421 423
490 7 421 424
491 7 424 426
492 4 426 430
493 4 426 431
494 4 426 432
495 7 124 126
496 8 121 122
497 7 121 123
498 7 121 124
499 4 126 130
500 4 126 131
501 4 126 132
502 4 486 490
503 4 486 491
504 4 486 492
505 7 484 486
506 8 493 494
507 7 493 495
508 7 493 496
509 4 497 499
510 4 497 500
511 4 497 501
512 7 495 497
513 4 686 687
514 4 686 688
515 1 685 686
516 4 685 689
517 4 685 690
518 7 684 685
519 4 341 343
520 4 341 344
521 4 341 345
522 7 339 341
523 4 498 502
524 4 498 503
525 4 498 504
526 7 496 498
527 8 571 572
528 7 571 573
529 7 571 574
530 7 573 576
531 7 574 575
532 7 4 6
533 4 6 10
534 4 6 11
535 4 6 12
536 8 157 158
537 7 157 159
538 7 157 160
539 7 160 162
540 8 385 386
541 7 385 387
542 7 385 388
543 4 389 391
544 4 389 392
545 4 389 393
546 4 473 475
547 4 473 476
548 4 473 477
549 7 471 473
550 15 736 737
551 15 736 738
552 15 736 739
553 15 736 740
554 15 736 741
555 15 736 742
556 4 162 166
557 4 162 167
558 4 162 168
559 7 388 390
560 4 390 394
561 4 390 395
562 4 390 396
563 7 472 474
564 8 469 470
565 7 469 471
566 7 469 472
567 7 634 635
568 8 313 314
569 7 313 315
570 7 313 316
571 4 317 319
572 4 317 320
573 4 317 321
574 7 315 317
575 7 316 318
576 8 289 290
577 7 289 291
578 7 289 292
579 7 291 293
580 4 293 295
581 4 293 296
582 4 293 297
583 7 99 101
584 7 544 545
585 1 545 546
586 4 545 549
587 4 545 550
588 4 5 7
589 4 5 8
590 4 5 9
591 15 743 744
592 15 743 745
593 15 743 746
594 15 743 747
595 15 743 748
596 15 743 749
597 4 101 103
598 4 101 104
599 4 101 105
600 4 53 55
601 4 53 56
602 4 53 57
603 8 1 2
604 7 1 3
605 7 1 4
606 7 3 5
607 7 51 53
608 7 52 54
609 8 49 50
610 7 49 51
611 7 49 52
612 4 522 526
613 4 522 527
614 4 522 528
615 4 54 58
616 4 54 59
617 4 54 60
618 7 159 161
619 4 161 163
620 4 161 164
621 4 161 165
622 7 387 389
623 7 520 522
624 7 633 636
625 4 636 637
626 4 636 638
627 4 474 478
628 4 474 479
629 4 474 480
630 8 631 632
631 7 631 633
632 7 631 634
633 1 635 636
634 4 635 639
635 4 635 640
636 7 196 198
637 8 193 194
638 7 193 195
639 7 193 196
640 7 195 197
641 4 197 199
642 4 197 200
643 4 197 201
644 7 100 102
645 4 102 106
646 4 102 107
647 4 102 108
648 4 198 202
649 4 198 203
650 4 198 204
651 7 724 725
652 8 97 98
653 7 97 99
654 7 97 100
655 8 541 542
656 7 541 543
657 7 541 544
658 4 546 547
659 4 546 548
660 8 721 722
661 7 721 723
662 7 721 724
663 7 723 726
664 1 725 726
665 4 725 729
666 4 725 730
667 4 726 727
668 4 726 728
669 7 543 546
670 7 364 366
671 8 361 362
672 7 361 363
673 7 361 364
674 7 363 365
675 4 365 367
676 4 365 368
677 4 365 369
678 7 459 461
679 4 461 463
680 4 461 464
681 4 461 465
682 4 18 22
683 4 18 23
684 4 18 24
685 7 16 18
686 4 270 274
687 4 270 275
688 4 270 276
689 4 366 370
690 4 366 371
691 4 366 372
692 8 457 458
693 7 457 459
694 7 457 460
695 7 460 462
696 8 13 14
697 7 13 15
698 7 13 16
699 4 17 19
700 4 17 20
701 4 17 21
702 8 517 518
703 7 517 519
704 7 517 520
705 7 519 521
706 7 268 270
707 4 41 43
708 4 41 44
709 4 41 45
710 4 462 466
711 4 462 467
712 4 462 468
713 4 521 523
714 4 521 524
715 4 521 525

Angles

1 4 232 234 238
2 4 232 234 239
3 4 232 234 240
4 7 238 234 239
5 7 238 234 240
6 7 239 234 240
7 13 694 695 696
8 4 696 695 699
9 4 696 695 700
10 6 699 695 700
11 11 110 109 111
12 11 110 109 112
13 12 111 109 112
14 9 109 112 114
15 9 109 111 113
16 4 112 114 118
17 4 112 114 119
18 4 112 114 120
19 7 118 114 119
20 7 118 114 120
21 7 119 114 120
22 11 230 229 231
23 11 230 229 232
24 12 231 229 232
25 9 229 232 234
26 13 693 696 695
27 4 695 696 697
28 4 695 696 698
29 6 697 696 698
30 9 691 693 696
31 9 691 694 695
32 11 692 691 693
33 11 692 691 694
34 12 693 691 694
35 4 231 233 235
36 4 231 233 236
37 4 231 233 237
38 7 235 233 236
39 7 235 233 237
40 7 236 233 237
41 9 229 231 233
42 11 170 169 171
43 11 170 169 172
44 12 171 169 172
45 9 169 172 174
46 4 172 174 178
47 4 172 174 179
48 4 172 174 180
49 7 178 174 179
50 7 178 174 180
51 7 179 174 180
52 9 651 653 656
53 4 27 29 31
54 4 27 29 32
55 4 27 29 33
56 7 31 29 32
57 7 31 29 33
58 7 32 29 33
59 11 26 25 27
60 11 26 25 28
61 12 27 25 28
62 9 25 27 29
63 9 25 28 30
64 4 28 30 34
65 4 28 30 35
66 4 28 30 36
67 7 34 30 35
68 7 34 30 36
69 7 35 30 36
70 4 63 65 67
71 4 63 65 68
72 4 63 65 69
73 7 67 65 68
74 7 67 65 69
75 7 68 65 69
76 9 61 63 65
77 9 13 15 17
78 11 266 265 267
79 11 266 265 268
80 12 267 265 268
81 9 265 267 269
82 4 532 534 538
83 4 532 534 539
84 4 532 534 540
85 7 538 534 539
86 7 538 534 540
87 7 539 534 540
88 11 38 37 39
89 11 38 37 40
90 12 39 37 40
91 9 37 39 41
92 9 37 40 42
93 4 267 269 271
94 4 267 269 272
95 4 267 269 273
96 7 271 269 272
97 7 271 269 273
98 7 272 269 273
99 18 758 757 759
100 18 760 757 761
101 18 762 757 763
102 17 758 757 760
103 17 758 757 761
104 17 758 757 762
105 17 758 757 763
106 17 759 757 760
107 17 759 757 761
108 17 759 757 762
109 17 759 757 763
110 17 760 757 762
111 17 760 757 763
112 17 761 757 762
113 17 761 757 763
114 9 145 147 149
115 4 147 149 151
116 4 147 149 152
117 4 147 149 153
118 7 151 149 152
119 7 151 149 153
120 7 152 149 153
121 11 146 145 147
122 11 146 145 148
123 12 147 145 148
124 9 145 148 150
125 9 181 184 186
126 4 184 186 190
127 4 184 186 191
128 4 184 186 192
129 7 190 186 191
130 7 190 186 192
131 7 191 186 192
132 9 277 279 281
133 4 279 281 283
134 4 279 281 284
135 4 279 281 285
136 7 283 281 284
137 7 283 281 285
138 7 284 281 285
139 4 111 113 115
140 4 111 113 116
141 4 111 113 117
142 7 115 113 116
143 7 115 113 117
144 7 116 113 117
145 11 612 611 613
146 11 612 611 614
147 12 613 611 614
148 9 611 613 616
149 13 613 616 615
150 4 615 616 617
151 4 615 616 618
152 6 617 616 618
153 9 611 614 615
154 9 651 654 655
155 13 654 655 656
156 4 656 655 659
157 4 656 655 660
158 6 659 655 660
159 11 652 651 653
160 11 652 651 654
161 12 653 651 654
162 4 303 305 307
163 4 303 305 308
164 4 303 305 309
165 7 307 305 308
166 7 307 305 309
167 7 308 305 309
168 4 447 449 451
169 4 447 449 452
170 4 447 449 453
171 7 451 449 452
172 7 451 449 453
173 7 452 449 453
174 9 445 447 449
175 9 169 171 173
176 4 171 173 175
177 4 171 173 176
178 4 171 173 177
179 7 175 173 176
180 7 175 173 177
181 7 176 173 177
182 13 653 656 655
183 4 655 656 657
184 4 655 656 658
185 6 657 656 658
186 9 301 304 306
187 4 304 306 310
188 4 304 306 311
189 4 304 306 312
190 7 310 306 311
191 7 310 306 312
192 7 311 306 312
193 11 302 301 303
194 11 302 301 304
195 12 303 301 304
196 9 301 303 305
197 9 253 256 258
198 4 256 258 262
199 4 256 258 263
200 4 256 258 264
201 7 262 258 263
202 7 262 258 264
203 7 263 258 264
204 4 531 533 535
205 4 531 533 536
206 4 531 533 537
207 7 535 533 536
208 7 535 533 537
209 7 536 533 537
210 9 61 64 66
211 4 64 66 70
212 4 64 66 71
213 4 64 66 72
214 7 70 66 71
215 7 70 66 72
216 7 71 66 72
217 11 62 61 63
218 11 62 61 64
219 12 63 61 64
220 9 711 713 716
221 9 711 714 715
222 13 714 715 716
223 4 716 715 719
224 4 716 715 720
225 6 719 715 720
226 13 713 716 715
227 4 715 716 717
228 4 715 716 718
229 6 717 716 718
230 11 712 711 713
231 11 712 711 714
232 12 713 711 714
233 4 219 221 223
234 4 219 221 224
235 4 219 221 225
236 7 223 221 224
237 7 223 221 225
238 7 224 221 225
239 9 217 219 221
240 11 530 529 531
241 11 530 529 532
242 12 531 529 532
243 9 529 531 533
244 9 529 532 534
245 13 604 605 606
246 4 606 605 609
247 4 606 605 610
248 6 609 605 610
249 13 603 606 605
250 4 605 606 607
251 4 605 606 608
252 6 607 606 608
253 11 218 217 219
254 11 218 217 220
255 12 219 217 220
256 4 135 137 139
257 4 135 137 140
258 4 135 137 141
259 7 139 137 140
260 7 139 137 141
261 7 140 137 141
262 9 133 135 137
263 11 134 133 135
264 11 134 133 136
265 12 135 133 136
266 4 40 42 46
267 4 40 42 47
268 4 40 42 48
269 7 46 42 47
270 7 46 42 48
271 7 47 42 48
272 9 601 603 606
273 4 148 150 154
274 4 148 150 155
275 4 148 150 156
276 7 154 150 155
277 7 154 150 156
278 7 155 150 156
279 11 182 181 183
280 11 182 181 184
281 12 183 181 184
282 9 181 183 185
283 9 433 435 437
284 4 435 437 439
285 4 435 437 440
286 4 435 437 441
287 7 439 437 440
288 7 439 437 441
289 7 440 437 441
290 11 434 433 435
291 11 434 433 436
292 12 435 433 436
293 9 433 436 438
294 4 436 438 442
295 4 436 438 443
296 4 436 438 444
297 7 442 438 443
298 7 442 438 444
299 7 443 438 444
300 9 241 243 245
301 4 243 245 247
302 4 243 245 248
303 4 243 245 249
304 7 247 245 248
305 7 247 245 249
306 7 248 245 249
307 9 505 508 510
308 4 508 510 514
309 4 508 510 515
310 4 508 510 516
311 7 514 510 515
312 7 514 510 516
313 7 515 510 516
314 13 643 646 645
315 4 645 646 647
316 4 645 646 648
317 6 647 646 648
318 11 278 277 279
319 11 278 277 280
320 12 279 277 280
321 11 506 505 507
322 11 506 505 508
323 12 507 505 508
324 9 505 507 509
325 13 614 615 616
326 4 616 615 619
327 4 616 615 620
328 6 619 615 620
329 9 349 352 354
330 9 641 643 646
331 13 644 645 646
332 4 646 645 649
333 4 646 645 650
334 6 649 645 650
335 11 642 641 643
336 11 642 641 644
337 12 643 641 644
338 9 641 644 645
339 9 277 280 282
340 4 280 282 286
341 4 280 282 287
342 4 280 282 288
343 7 286 282 287
344 7 286 282 288
345 7 287 282 288
346 4 507 509 511
347 4 507 509 512
348 4 507 509 513
349 7 511 509 512
350 7 511 509 513
351 7 512 509 513
352 4 87 89 91
353 4 87 89 92
354 4 87 89 93
355 7 91 89 92
356 7 91 89 93
357 7 92 89 93
358 11 350 349 351
359 11 350 349 352
360 12 351 349 352
361 9 349 351 353
362 4 351 353 355
363 4 351 353 356
364 4 351 353 357
365 7 355 353 356
366 7 355 353 357
367 7 356 353 357
368 9 253 255 257
369 11 446 445 447
370 11 446 445 448
371 12 447 445 448
372 9 445 448 450
373 4 75 77 79
374 4 75 77 80
375 4 75 77 81
376 7 79 77 80
377 7 79 77 81
378 7 80 77 81
379 11 86 85 87
380 11 86 85 88
381 12 87 85 88
382 9 85 87 89
383 11 254 253 255
384 11 254 253 256
385 12 255 253 256
386 9 581 584 585
387 13 584 585 586
388 4 586 585 589
389 4 586 585 590
390 6 589 585 590
391 11 662 661 663
392 11 662 661 664
393 12 663 661 664
394 9 661 663 666
395 11 592 591 593
396 11 592 591 594
397 12 593 591 594
398 9 217 220 222
399 11 582 581 583
400 11 582 581 584
401 12 583 581 584
402 13 583 586 585
403 4 585 586 587
404 4 585 586 588
405 6 587 586 588
406 9 581 583 586
407 9 661 664 665
408 9 601 604 605
409 13 664 665 666
410 4 666 665 669
411 4 666 665 670
412 6 669 665 670
413 13 663 666 665
414 4 665 666 667
415 4 665 666 668
416 6 667 666 668
417 9 591 593 596
418 4 220 222 226
419 4 220 222 227
420 4 220 222 228
421 7 226 222 227
422 7 226 222 228
423 7 227 222 228
424 9 133 136 138
425 4 136 138 142
426 4 136 138 143
427 4 136 138 144
428 7 142 138 143
429 7 142 138 144
430 7 143 138 144
431 11 602 601 603
432 11 602 601 604
433 12 603 601 604
434 4 244 246 250
435 4 244 246 251
436 4 244 246 252
437 7 250 246 251
438 7 250 246 252
439 7 251 246 252
440 9 241 244 246
441 4 183 185 187
442 4 183 185 188
443 4 183 185 189
444 7 187 185 188
445 7 187 185 189
446 7 188 185 189
447 9 205 207 209
448 4 207 209 211
449 4 207 209 212
450 4 207 209 213
451 7 211 209 212
452 7 211 209 213
453 7 212 209 213
454 9 701 703 706
455 13 703 706 705
456 4 705 706 707
457 4 705 706 708
458 6 707 706 708
459 11 242 241 243
460 11 242 241 244
461 12 243 241 244
462 4 411 413 415
463 4 411 413 416
464 4 411 413 417
465 7 415 413 416
466 7 415 413 417
467 7 416 413 417
468 4 352 354 358
469 4 352 354 359
470 4 352 354 360
471 7 358 354 359
472 7 358 354 360
473 7 359 354 360
474 11 672 671 673
475 11 672 671 674
476 12 673 671 674
477 9 671 673 676
478 9 671 674 675
479 11 410 409 411
480 11 410 409 412
481 12 411 409 412
482 9 409 411 413
483 9 409 412 414
484 4 255 257 259
485 4 255 257 260
486 4 255 257 261
487 7 259 257 260
488 7 259 257 261
489 7 260 257 261
490 4 448 450 454
491 4 448 450 455
492 4 448 450 456
493 7 454 450 455
494 7 454 450 456
495 7 455 450 456
496 9 73 75 77
497 4 412 414 418
498 4 412 414 419
499 4 412 414 420
500 7 418 414 419
501 7 418 414 420
502 7 419 414 420
503 11 74 73 75
504 11 74 73 76
505 12 75 73 76
506 9 73 76 78
507 4 76 78 82
508 4 76 78 83
509 4 76 78 84
510 7 82 78 83
511 7 82 78 84
512 7 83 78 84
513 9 85 88 90
514 4 88 90 94
515 4 88 90 95
516 4 88 90 96
517 7 94 90 95
518 7 94 90 96
519 7 95 90 96
520 9 373 375 377
521 13 624 625 626
522 4 626 625 629
523 4 626 625 630
524 6 629 625 630
525 9 591 594 595
526 18 765 764 766
527 18 767 764 768
528 18 769 764 770
529 17 765 764 767
530 17 765 764 768
531 17 765 764 769
532 17 765 764 770
533 17 766 764 767
534 17 766 764 768
535 17 766 764 769
536 17 766 764 770
537 17 767 764 769
538 17 767 764 770
539 17 768 764 769
540 17 768 764 770
541 4 375 377 379
542 4 375 377 380
543 4 375 377 381
544 7 379 377 380
545 7 379 377 381
546 7 380 377 381
547 11 622 621 623
548 11 622 621 624
549 12 623 621 624
550 9 621 624 625
551 13 623 626 625
552 4 625 626 627
553 4 625 626 628
554 6 627 626 628
555 9 621 623 626
556 13 594 595 596
557 4 596 595 599
558 4 596 595 600
559 6 599 595 600
560 13 593 596 595
561 4 595 596 597
562 4 595 596 598
563 6 597 596 598
564 4 328 330 334
565 4 328 330 335
566 4 328 330 336
567 7 334 330 335
568 7 334 330 336
569 7 335 330 336
570 11 326 325 327
571 11 326 325 328
572 12 327 325 328
573 9 325 328 330
574 9 397 399 401
575 11 398 397 399
576 11 398 397 400
577 12 399 397 400
578 9 397 400 402
579 4 400 402 406
580 4 400 402 407
581 4 400 402 408
582 7 406 402 407
583 7 406 402 408
584 7 407 402 408
585 4 208 210 214
586 4 208 210 215
587 4 208 210 216
588 7 214 210 215
589 7 214 210 216
590 7 215 210 216
591 11 206 205 207
592 11 206 205 208
593 12 207 205 208
594 9 205 208 210
595 13 704 705 706
596 4 706 705 709
597 4 706 705 710
598 6 709 705 710
599 9 701 704 705
600 11 702 701 703
601 11 702 701 704
602 12 703 701 704
603 4 399 401 403
604 4 399 401 404
605 4 399 401 405
606 7 403 401 404
607 7 403 401 405
608 7 404 401 405
609 9 481 483 485
610 4 483 485 487
611 4 483 485 488
612 4 483 485 489
613 7 487 485 488
614 7 487 485 489
615 7 488 485 489
616 9 121 123 125
617 18 751 750 752
618 18 753 750 754
619 18 755 750 756
620 17 751 750 753
621 17 751 750 754
622 17 751 750 755
623 17 751 750 756
624 17 752 750 753
625 17 752 750 754
626 17 752 750 755
627 17 752 750 756
628 17 753 750 755
629 17 753 750 756
630 17 754 750 755
631 17 754 750 756
632 11 552 551 553
633 11 552 551 554
634 12 553 551 554
635 9 551 553 556
636 9 551 554 555
637 4 123 125 127
638 4 123 125 128
639 4 123 125 129
640 7 127 125 128
641 7 127 125 129
642 7 128 125 129
643 13 673 676 675
644 4 675 676 677
645 4 675 676 678
646 6 677 676 678
647 13 674 675 676
648 4 676 675 679
649 4 676 675 680
650 6 679 675 680
651 11 682 681 683
652 11 682 681 684
653 12 683 681 684
654 9 681 683 686
655 13 554 555 556
656 4 556 555 559
657 4 556 555 560
658 6 559 555 560
659 13 553 556 555
660 4 555 556 557
661 4 555 556 558
662 6 557 556 558
663 11 338 337 339
664 11 338 337 340
665 12 339 337 340
666 9 337 340 342
667 4 340 342 346
668 4 340 342 347
669 4 340 342 348
670 7 346 342 347
671 7 346 342 348
672 7 347 342 348
673 4 376 378 382
674 4 376 378 383
675 4 376 378 384
676 7 382 378 383
677 7 382 378 384
678 7 383 378 384
679 9 373 376 378
680 9 561 564 565
681 11 562 561 563
682 11 562 561 564
683 12 563 561 564
684 13 564 565 566
685 4 566 565 569
686 4 566 565 570
687 6 569 565 570
688 13 563 566 565
689 4 565 566 567
690 4 565 566 568
691 6 567 566 568
692 11 374 373 375
693 11 374 373 376
694 12 375 373 376
695 13 574 575 576
696 4 576 575 579
697 4 576 575 580
698 6 579 575 580
699 13 573 576 575
700 4 575 576 577
701 4 575 576 578
702 6 577 576 578
703 9 561 563 566
704 9 325 327 329
705 9 421 423 425
706 4 423 425 427
707 4 423 425 428
708 4 423 425 429
709 7 427 425 428
710 7 427 425 429
711 7 428 425 429
712 4 316 318 322
713 4 316 318 323
714 4 316 318 324
715 7 322 318 323
716 7 322 318 324
717 7 323 318 324
718 4 327 329 331
719 4 327 329 332
720 4 327 329 333
721 7 331 329 332
722 7 331 329 333
723 7 332 329 333
724 4 292 294 298
725 4 292 294 299
726 4 292 294 300
727 7 298 294 299
728 7 298 294 300
729 7 299 294 300
730 9 289 292 294
731 11 482 481 483
732 11 482 481 484
733 12 483 481 484
734 11 422 421 423
735 11 422 421 424
736 12 423 421 424
737 9 421 424 426
738 4 424 426 430
739 4 424 426 431
740 4 424 426 432
741 7 430 426 431
742 7 430 426 432
743 7 431 426 432
744 9 121 124 126
745 11 122 121 123
746 11 122 121 124
747 12 123 121 124
748 4 124 126 130
749 4 124 126 131
750 4 124 126 132
751 7 130 126 131
752 7 130 126 132
753 7 131 126 132
754 4 484 486 490
755 4 484 486 491
756 4 484 486 492
757 7 490 486 491
758 7 490 486 492
759 7 491 486 492
760 9 481 484 486
761 11 494 493 495
762 11 494 493 496
763 12 495 493 496
764 4 495 497 499
765 4 495 497 500
766 4 495 497 501
767 7 499 497 500
768 7 499 497 501
769 7 500 497 501
770 9 493 495 497
771 13 683 686 685
772 4 685 686 687
773 4 685 686 688
774 6 687 686 688
775 13 684 685 686
776 4 686 685 689
777 4 686 685 690
778 6 689 685 690
779 9 681 684 685
780 4 339 341 343
781 4 339 341 344
782 4 339 341 345
783 7 343 341 344
784 7 343 341 345
785 7 344 341 345
786 9 337 339 341
787 4 496 498 502
788 4 496 498 503
789 4 496 498 504
790 7 502 498 503
791 7 502 498 504
792 7 503 498 504
793 9 493 496 498
794 11 572 571 573
795 11 572 571 574
796 12 573 571 574
797 9 571 573 576
798 9 571 574 575
799 9 1 4 6
800 4 4 6 10
801 4 4 6 11
802 4 4 6 12
803 7 10 6 11
804 7 10 6 12
805 7 11 6 12
806 11 158 157 159
807 11 158 157 160
808 12 159 157 160
809 9 157 160 162
810 11 386 385 387
811 11 386 385 388
812 12 387 385 388
813 4 387 389 391
814 4 387 389 392
815 4 387 389 393
816 7 391 389 392
817 7 391 389 393
818 7 392 389 393
819 4 471 473 475
820 4 471 473 476
821 4 471 473 477
822 7 475 473 476
823 7 475 473 477
824 7 476 473 477
825 9 469 471 473
826 18 737 736 738
827 18 739 736 740
828 18 741 736 742
829 17 737 736 739
830 17 737 736 740
831 17 737 736 741
832 17 737 736 742
833 17 738 736 739
834 17 738 736 740
835 17 738 736 741
836 17 738 736 742
837 17 739 736 741
838 17 739 736 742
839 17 740 736 741
840 17 740 736 742
841 4 160 162 166
842 4 160 162 167
843 4 160 162 168
844 7 166 162 167
845 7 166 162 168
846 7 167 162 168
847 9 385 388 390
848 4 388 390 394
849 4 388 390 395
850 4 388 390 396
851 7 394 390 395
852 7 394 390 396
853 7 395 390 396
854 9 469 472 474
855 11 470 469 471
856 11 470 469 472
857 12 471 469 472
858 9 631 634 635
859 11 314 313 315
860 11 314 313 316
861 12 315 313 316
862 4 315 317 319
863 4 315 317 320
864 4 315 317 321
865 7 319 317 320
866 7 319 317 321
867 7 320 317 321
868 9 313 315 317
869 9 313 316 318
870 11 290 289 291
871 11 290 289 292
872 12 291 289 292
873 9 289 291 293
874 4 291 293 295
875 4 291 293 296
876 4 291 293 297
877 7 295 293 296
878 7 295 293 297
879 7 296 293 297
880 9 97 99 101
881 9 541 544 545
882 13 544 545 546
883 4 546 545 549
884 4 546 545 550
885 6 549 545 550
886 4 3 5 7
887 4 3 5 8
888 4 3 5 9
889 7 7 5 8
890 7 7 5 9
891 7 8 5 9
892 18 744 743 745
893 18 746 743 747
894 18 748 743 749
895 17 744 743 746
896 17 744 743 747
897 17 744 743 748
898 17 744 743 749
899 17 745 743 746
900 17 745 743 747
901 17 745 743 748
902 17 745 743 749
903 17 746 743 748
904 17 746 743 749
905 17 747 743 748
906 17 747 743 749
907 4 99 101 103
908 4 99 101 104
909 4 99 101 105
910 7 103 101 104
911 7 103 101 105
912 7 104 101 105
913 4 51 53 55
914 4 51 53 56
915 4 51 53 57
916 7 55 53 56
917 7 55 53 57
918 7 56 53 57
919 11 2 1 3
920 11 2 1 4
921 12 3 1 4
922 9 1 3 5
923 9 49 51 53
924 9 49 52 54
925 11 50 49 51
926 11 50 49 52
927 12 51 49 52
928 4 520 522 526
929 4 520 522 527
930 4 520 522 528
931 7 526 522 527
932 7 526 522 528
933 7 527 522 528
934 4 52 54 58
935 4 52 54 59
936 4 52 54 60
937 7 58 54 59
938 7 58 54 60
939 7 59 54 60
940 9 157 159 161
941 4 159 161 163
942 4 159 161 164
943 4 159 161 165
944 7 163 161 164
945 7 163 161 165
946 7 164 161 165
947 9 385 387 389
948 9 517 520 522
949 9 631 633 636
950 13 633 636 635
951 4 635 636 637
952 4 635 636 638
953 6 637 636 638
954 4 472 474 478
955 4 472 474 479
956 4 472 474 480
957 7 478 474 479
958 7 478 474 480
959 7 479 474 480
960 11 632 631 633
961 11 632 631 634
962 12 633 631 634
963 13 634 635 636
964 4 636 635 639
965 4 636 635 640
966 6 639 635 640
967 9 193 196 198
968 11 194 193 195
969 11 194 193 196
970 12 195 193 196
971 9 193 195 197
972 4 195 197 199
973 4 195 197 200
974 4 195 197 201
975 7 199 197 200
976 7 199 197 201
977 7 200 197 201
978 9 97 100 102
979 4 100 102 106
980 4 100 102 107
981 4 100 102 108
982 7 106 102 107
983 7 106 102 108
984 7 107 102 108
985 4 196 198 202
986 4 196 198 203
987 4 196 198 204
988 7 202 198 203
989 7 202 198 204
990 7 203 198 204
991 9 721 724 725
992 11 98 97 99
993 11 98 97 100
994 12 99 97 100
995 11 542 541 543
996 11 542 541 544
997 12 543 541 544
998 13 543 546 545
999 4 545 546 547
1000 4 545 546 548
1001 6 547 546 548
1002 11 722 721 723
1003 11 722 721 724
1004 12 723 721 724
1005 9 721 723 726
1006 13 724 725 726
1007 4 726 725 729
1008 4 726 725 730
1009 6 729 725 730
1010 13 723 726 725
1011 4 725 726 727
1012 4 725 726 728
1013 6 727 726 728
1014 9 541 543 546
1015 9 361 364 366
1016 11 362 361 363
1017 11 362 361 364
1018 12 363 361 364
1019 9 361 363 365
1020 4 363 365 367
1021 4 363 365 368
1022 4 363 365 369
1023 7 367 365 368
1024 7 367 365 369
1025 7 368 365 369
1026 9 457 459 461
1027 4 459 461 463
1028 4 459 461 464
1029 4 459 461 465
1030 7 463 461 464
1031 7 463 461 465
1032 7 464 461 465
1033 4 16 18 22
1034 4 16 18 23
1035 4 16 18 24
1036 7 22 18 23
1037 7 22 18 24
1038 7 23 18 24
1039 9 13 16 18
1040 4 268 270 274
1041 4 268 270 275
1042 4 268 270 276
1043 7 274 270 275
1044 7 274 270 276
1045 7 275 270 276
1046 4 364 366 370
1047 4 364 366 371
1048 4 364 366 372
1049 7 370 366 371
1050 7 370 366 372
1051 7 371 366 372
1052 11 458 457 459
1053 11 458 457 460
1054 12 459 457 460
1055 9 457 460 462
1056 11 14 13 15
1057 11 14 13 16
1058 12 15 13 16
1059 4 15 17 19
1060 4 15 17 20
1061 4 15 17 21
1062 7 19 17 20
1063 7 19 17 21
1064 7 20 17 21
1065 11 518 517 519
1066 11 518 517 520
1067 12 519 517 520
1068 9 517 519 521
1069 9 265 268 270
1070 4 39 41 43
1071 4 39 41 44
1072 4 39 41 45
1073 7 43 41 44
1074 7 43 41 45
1075 7 44 41 45
1076 4 460 462 466
1077 4 460 462 467
1078 4 460 462 468
1079 7 466 462 467
1080 7 466 462 468
1081 7 467 462 468
1082 4 519 521 523
1083 4 519 521 524
1084 4 519 521 525
1085 7 523 521 524
1086 7 523 521 525
1087 7 524 521 525

Dihedrals

1 8 110 109 111 113
2 8 110 109 112 114
3 6 109 112 114 118
4 6 109 112 114 119
5 6 109 112 114 120
6 6 109 111 113 115
7 6 109 111 113 116
8 6 109 111 113 117
9 8 230 229 231 233
10 8 230 229 232 234
11 6 229 232 234 238
12 6 229 232 234 239
13 6 229 232 234 240
14 7 693 696 695 694
15 5 691 693 696 695
16 7 691 694 695 696
17 8 692 691 693 696
18 8 692 691 694 695
19 6 229 231 233 235
20 6 229 231 233 236
21 6 229 231 233 237
22 8 170 169 171 173
23 8 170 169 172 174
24 6 169 172 174 178
25 6 169 172 174 179
26 6 169 172 174 180
27 5 651 653 656 655
28 8 26 25 27 29
29 8 26 25 28 30
30 6 25 27 29 31
31 6 25 27 29 32
32 6 25 27 29 33
33 6 25 28 30 34
34 6 25 28 30 35
35 6 25 28 30 36
36 6 61 63 65 67
37 6 61 63 65 68
38 6 61 63 65 69
39 6 13 15 17 19
40 6 13 15 17 20
41 6 13 15 17 21
42 8 266 265 267 269
43 8 266 265 268 270
44 6 265 267 269 271
45 6 265 267 269 272
46 6 265 267 269 273
47 8 38 37 39 41
48 8 38 37 40 42
49 6 37 39 41 43
50 6 37 39 41 44
51 6 37 39 41 45
52 6 37 40 42 46
53 6 37 40 42 47
54 6 37 40 42 48
55 6 145 147 149 151
56 6 145 147 149 152
57 6 145 147 149 153
58 8 146 145 147 149
59 8 146 145 148 150
60 6 145 148 150 154
61 6 145 148 150 155
62 6 145 148 150 156
63 6 181 184 186 190
64 6 181 184 186 191
65 6 181 184 186 192
66 6 277 279 281 283
67 6 277 279 281 284
68 6 277 279 281 285
69 8 612 611 613 616
70 8 612 611 614 615
71 5 611 613 616 615
72 7 613 616 615 614
73 7 611 614 615 616
74 7 651 654 655 656
75 8 652 651 653 656
76 8 652 651 654 655
77 6 445 447 449 451
78 6 445 447 449 452
79 6 445 447 449 453
80 6 169 171 173 175
81 6 169 171 173 176
82 6 169 171 173 177
83 7 653 656 655 654
84 6 301 304 306 310
85 6 301 304 306 311
86 6 301 304 306 312
87 8 302 301 303 305
88 8 302 301 304 306
89 6 301 303 305 307
90 6 301 303 305 308
91 6 301 303 305 309
92 6 253 256 258 262
93 6 253 256 258 263
94 6 253 256 258 264
95 6 61 64 66 70
96 6 61 64 66 71
97 6 61 64 66 72
98 8 62 61 63 65
99 8 62 61 64 66
100 5 711 713 716 715
101 7 711 714 715 716
102 7 713 716 715 714
103 8 712 711 713 716
104 8 712 711 714 715
105 6 217 219 221 223
106 6 217 219 221 224
107 6 217 219 221 225
108 8 530 529 531 533
109 8 530 529 532 534
110 6 529 531 533 535
111 6 529 531 533 536
112 6 529 531 533 537
113 6 529 532 534 538
114 6 529 532 534 539
115 6 529 532 534 540
116 7 603 606 605 604
117 8 218 217 219 221
118 8 218 217 220 222
119 6 133 135 137 139
120 6 133 135 137 140
121 6 133 135 137 141
122 8 134 133 135 137
123 8 134 133 136 138
124 5 601 603 606 605
125 8 182 181 183 185
126 8 182 181 184 186
127 6 181 183 185 187
128 6 181 183 185 188
129 6 181 183 185 189
130 6 433 435 437 439
131 6 433 435 437 440
132 6 433 435 437 441
133 8 434 433 435 437
134 8 434 433 436 438
135 6 433 436 438 442
136 6 433 436 438 443
137 6 433 436 438 444
138 6 241 243 245 247
139 6 241 243 245 248
140 6 241 243 245 249
141 6 505 508 510 514
142 6 505 508 510 515
143 6 505 508 510 516
144 7 643 646 645 644
145 8 278 277 279 281
146 8 278 277 280 282
147 8 506 505 507 509
148 8 506 505 508 510
149 6 505 507 509 511
150 6 505 507 509 512
151 6 505 507 509 513
152 6 349 352 354 358
153 6 349 352 354 359
154 6 349 352 354 360
155 5 641 643 646 645
156 8 642 641 643 646
157 8 642 641 644 645
158 7 641 644 645 646
159 6 277 280 282 286
160 6 277 280 282 287
161 6 277 280 282 288
162 8 350 349 351 353
163 8 350 349 352 354
164 6 349 351 353 355
165 6 349 351 353 356
166 6 349 351 353 357
167 6 253 255 257 259
168 6 253 255 257 260
169 6 253 255 257 261
170 8 446 445 447 449
171 8 446 445 448 450
172 6 445 448 450 454
173 6 445 448 450 455
174 6 445 448 450 456
175 8 86 85 87 89
176 8 86 85 88 90
177 6 85 87 89 91
178 6 85 87 89 92
179 6 85 87 89 93
180 8 254 253 255 257
181 8 254 253 256 258
182 7 581 584 585 586
183 8 662 661 663 666
184 8 662 661 664 665
185 5 661 663 666 665
186 8 592 591 593 596
187 8 592 591 594 595
188 6 217 220 222 226
189 6 217 220 222 227
190 6 217 220 222 228
191 8 582 581 583 586
192 8 582 581 584 585
193 7 583 586 585 584
194 5 581 583 586 585
195 7 661 664 665 666
196 7 601 604 605 606
197 7 663 666 665 664
198 5 591 593 596 595
199 6 133 136 138 142
200 6 133 136 138 143
201 6 133 136 138 144
202 8 602 601 603 606
203 8 602 601 604 605
204 6 241 244 246 250
205 6 241 244 246 251
206 6 241 244 246 252
207 6 205 207 209 211
208 6 205 207 209 212
209 6 205 207 209 213
210 5 701 703 706 705
211 7 703 706 705 704
212 8 242 241 243 245
213 8 242 241 244 246
214 8 672 671 673 676
215 8 672 671 674 675
216 5 671 673 676 675
217 7 671 674 675 676
218 8 410 409 411 413
219 8 410 409 412 414
220 6 409 411 413 415
221 6 409 411 413 416
222 6 409 411 413 417
223 6 409 412 414 418
224 6 409 412 414 419
225 6 409 412 414 420
226 6 73 75 77 79
227 6 73 75 77 80
228 6 73 75 77 81
229 8 74 73 75 77
230 8 74 73 76 78
231 6 73 76 78 82
232 6 73 76 78 83
233 6 73 76 78 84
234 6 85 88 90 94
235 6 85 88 90 95
236 6 85 88 90 96
237 6 373 375 377 379
238 6 373 375 377 380
239 6 373 375 377 381
240 7 591 594 595 596
241 8 622 621 623 626
242 8 622 621 624 625
243 7 621 624 625 626
244 7 623 626 625 624
245 5 621 623 626 625
246 7 593 596 595 594
247 8 326 325 327 329
248 8 326 325 328 330
249 6 325 328 330 334
250 6 325 328 330 335
251 6 325 328 330 336
252 6 397 399 401 403
253 6 397 399 401 404
254 6 397 399 401 405
255 8 398 397 399 401
256 8 398 397 400 402
257 6 397 400 402 406
258 6 397 400 402 407
259 6 397 400 402 408
260 8 206 205 207 209
261 8 206 205 208 210
262 6 205 208 210 214
263 6 205 208 210 215
264 6 205 208 210 216
265 7 701 704 705 706
266 8 702 701 703 706
267 8 702 701 704 705
268 6 481 483 485 487
269 6 481 483 485 488
270 6 481 483 485 489
271 6 121 123 125 127
272 6 121 123 125 128
273 6 121 123 125 129
274 8 552 551 553 556
275 8 552 551 554 555
276 5 551 553 556 555
277 7 551 554 555 556
278 7 673 676 675 674
279 8 682 681 683 686
280 8 682 681 684 685
281 5 681 683 686 685
282 7 553 556 555 554
283 8 338 337 339 341
284 8 338 337 340 342
285 6 337 340 342 346
286 6 337 340 342 347
287 6 337 340 342 348
288 6 373 376 378 382
289 6 373 376 378 383
290 6 373 376 378 384
291 7 561 564 565 566
292 8 562 561 563 566
293 8 562 561 564 565
294 7 563 566 565 564
295 8 374 373 375 377
296 8 374 373 376 378
297 7 573 576 575 574
298 5 561 563 566 565
299 6 325 327 329 331
300 6 325 327 329 332
301 6 325 327 329 333
302 6 421 423 425 427
303 6 421 423 425 428
304 6 421 423 425 429
305 6 289 292 294 298
306 6 289 292 294 299
307 6 289 292 294 300
308 8 482 481 483 485
309 8 482 481 484 486
310 8 422 421 423 425
311 8 422 421 424 426
312 6 421 424 426 430
313 6 421 424 426 431
314 6 421 424 426 432
315 6 121 124 126 130
316 6 121 124 126 131
317 6 121 124 126 132
318 8 122 121 123 125
319 8 122 121 124 126
320 6 481 484 486 490
321 6 481 484 486 491
322 6 481 484 486 492
323 8 494 493 495 497
324 8 494 493 496 498
325 6 493 495 497 499
326 6 493 495 497 500
327 6 493 495 497 501
328 7 683 686 685 684
329 7 681 684 685 686
330 6 337 339 341 343
331 6 337 339 341 344
332 6 337 339 341 345
333 6 493 496 498 502
334 6 493 496 498 503
335 6 493 496 498 504
336 8 572 571 573 576
337 8 572 571 574 575
338 5 571 573 576 575
339 7 571 574 575 576
340 6 1 4 6 10
341 6 1 4 6 11
342 6 1 4 6 12
343 8 158 157 159 161
344 8 158 157 160 162
345 6 157 160 162 166
346 6 157 160 162 167
347 6 157 160 162 168
348 8 386 385 387 389
349 8 386 385 388 390
350 6 469 471 473 475
351 6 469 471 473 476
352 6 469 471 473 477
353 6 385 388 390 394
354 6 385 388 390 395
355 6 385 388 390 396
356 6 469 472 474 478
357 6 469 472 474 479
358 6 469 472 474 480
359 8 470 469 471 473
360 8 470 469 472 474
361 7 631 634 635 636
362 8 314 313 315 317
363 8 314 313 316 318
364 6 313 315 317 319
365 6 313 315 317 320
366 6 313 315 317 321
367 6 313 316 318 322
368 6 313 316 318 323
369 6 313 316 318 324
370 8 290 289 291 293
371 8 290 289 292 294
372 6 289 291 293 295
373 6 289 291 293 296
374 6 289 291 293 297
375 6 97 99 101 103
376 6 97 99 101 104
377 6 97 99 101 105
378 7 541 544 545 546
379 8 2 1 3 5
380 8 2 1 4 6
381 6 1 3 5 7
382 6 1 3 5 8
383 6 1 3 5 9
384 6 49 51 53 55
385 6 49 51 53 56
386 6 49 51 53 57
387 6 49 52 54 58
388 6 49 52 54 59
389 6 49 52 54 60
390 8 50 49 51 53
391 8 50 49 52 54
392 6 157 159 161 163
393 6 157 159 161 164
394 6 157 159 161 165
395 6 385 387 389 391
396 6 385 387 389 392
397 6 385 387 389 393
398 6 517 520 522 526
399 6 517 520 522 527
400 6 517 520 522 528
401 5 631 633 636 635
402 7 633 636 635 634
403 8 632 631 633 636
404 8 632 631 634 635
405 6 193 196 198 202
406 6 193 196 198 203
407 6 193 196 198 204
408 8 194 193 195 197
409 8 194 193 196 198
410 6 193 195 197 199
411 6 193 195 197 200
412 6 193 195 197 201
413 6 97 100 102 106
414 6 97 100 102 107
415 6 97 100 102 108
416 7 721 724 725 726
417 8 98 97 99 101
418 8 98 97 100 102
419 8 542 541 543 546
420 8 542 541 544 545
421 7 543 546 545 544
422 8 722 721 723 726
423 8 722 721 724 725
424 5 721 723 726 725
425 7 723 726 725 724
426 5 541 543 546 545
427 6 361 364 366 370
428 6 361 364 366 371
429 6 361 364 366 372
430 8 362 361 363 365
431 8 362 361 364 366
432 6 361 363 365 367
433 6 361 363 365 368
434 6 361 363 365 369
435 6 457 459 461 463
436 6 457 459 461 464
437 6 457 459 461 465
438 6 13 16 18 22
439 6 13 16 18 23
440 6 13 16 18 24
441 8 458 457 459 461
442 8 458 457 460 462
443 6 457 460 462 466
444 6 457 460 462 467
445 6 457 460 462 468
446 8 14 13 15 17
447 8 14 13 16 18
448 8 518 517 519 521
449 8 518 517 520 522
450 6 517 519 521 523
451 6 517 519 521 524
452 6 517 519 521 525
453 6 265 268 270 274
454 6 265 268 270 275
455 6 265 268 270 276
