LAMMPS data file via write_data, version 23 Jun 2022, timestep = 75171

260 atoms
31 atom types
240 bonds
17 bond types
375 angles
18 angle types
130 dihedrals
9 dihedral types
0 impropers
2 improper types

6.342359536555442 23.657640463444473 xlo xhi
6.342359536555442 23.657640463444473 ylo yhi
6.342359536555442 23.657640463444473 zlo zhi

Masses

1 12.011
2 12.011
3 12.011
4 12.011
5 12.011
6 12.011
7 12.011
8 12.011
9 12.011
10 12.011
11 1.008
12 1.008
13 1.008
14 1.008
15 1.008
16 1.008
17 1.008
18 15.999
19 15.999
20 15.999
21 15.999
22 14.007
23 14.007
24 14.007
25 14.007
26 18.998
27 30.974
28 6.941
29 32.065
30 32.065
31 6.941

Pair Coeffs # lj/cut/coul/long/gpu

1 0.066 3.5
2 0.066 3.5
3 0.066 3.5
4 0.066 3.5
5 0.07 3.55
6 0.07 3.55
7 0.07 3.55
8 0.07 3.55
9 0.105 3.75
10 0.105 3.75
11 0.03 2.5
12 0.03 2.5
13 0.03 2.5
14 0.03 2.42
15 0.03 2.5
16 0.03 2.5
17 0.03 2.5
18 0.17 3
19 0.17 3
20 0.17 2.96
21 0.17 3
22 0.17 3.25
23 0.17 3.25
24 0.17 3.25
25 0.17 3.25
26 0.255 2.95
27 0.2 3.7
28 0.0025 1.506
29 0.25 3.55
30 0.25 3.55
31 0.00034 2.126

Bond Coeffs # harmonic

1 268 1.529
2 414 1.33
3 320 1.4
4 340 1.09
5 340 1.08
6 340 1.08
7 320 1.41
8 570 1.229
9 320 1.36
10 300 1.47
11 440 1.27
12 350 1.34
13 340 0.96
14 340 1.01
15 420 1.56
16 200 1.81
17 300 1.43

Angle Coeffs # harmonic

1 50 109.5
2 80 120
3 60 120
4 37.5 110.7
5 40 120
6 33 106.4
7 33 107.8
8 35 120
9 60 109.5
10 60 124
11 80 123
12 80 120.4
13 50 109.5
14 50 109.5
15 50 109.5
16 50 120
17 80 90
18 80 180

Dihedral Coeffs # opls

1 0 0 0.278 0
2 0 0 0 0
3 0 0 0.278 0
4 0 0 0.278 0
5 0.5 -0.5 0.5 0
6 0 0 0 0
7 0 0 0 0
8 0 0 0 0
9 0 0 0 0

Improper Coeffs # harmonic

1 10 0
2 10 0

Atoms # full

230 26 26 -0.39 9.05862296572702 7.325569446159452 12.322270556544265 0 0 0
122 11 20 -0.5 7.156868607562455 7.431648317485514 14.725999063567313 0 0 0
183 17 19 -0.35 8.68489112269338 11.098407256039376 8.642882951403873 0 0 0
181 17 9 0.52 8.737668540333415 9.801422665977686 7.953228307253166 0 0 0
186 17 2 0.22 9.212420780196123 10.747038714026054 9.841983210200787 0 0 0
246 28 26 -0.39 7.5788207843104605 15.219738579608975 13.177620251306912 0 0 0
187 17 11 0.06 8.84427484422112 10.906185609040175 10.86039229865913 0 0 0
184 17 19 -0.35 9.635281187837586 8.823494673507462 8.473490134319324 0 0 0
185 17 2 0.22 10.055160430640209 9.494081644563376 9.641723649839568 0 0 0
192 18 20 -0.5 11.773245376791557 12.938154640545587 11.701578062001136 0 0 0
250 29 26 -0.39 10.58639224455581 12.059979797364505 14.155421123086771 0 0 0
252 29 26 -0.39 11.003419367771127 10.06171979116007 14.964823163921842 0 0 0
224 24 31 1 10.80924790286765 13.418883000084374 13.034776074869589 -1 0 0
247 29 27 1.34 9.802880268690012 10.72498242954088 14.20944250332851 0 0 0
249 29 26 -0.39 9.161318637321637 11.063034159414702 15.56841107715452 0 0 0
248 29 26 -0.39 10.418687723875571 10.392094918477035 12.842612134084693 0 0 0
253 29 26 -0.39 8.612924268667456 11.388783056127542 13.470094047180735 0 0 0
244 28 26 -0.39 9.234871346642372 13.97545857864019 12.483386164186687 0 0 0
251 29 26 -0.39 9.085742032959981 9.354861464457915 14.238421397101419 0 0 0
260 30 26 -0.39 6.725870492394791 9.182284898519445 12.629948244074772 0 0 0
225 25 31 1 7.9319863754801485 8.230307003515687 13.509743674018296 0 0 0
189 17 11 0.06 9.701410779115298 8.735165449722375 10.365982403181546 0 0 0
188 17 11 0.06 9.790528924351499 11.619817028233307 9.538077062828869 0 0 0
190 17 11 0.06 11.090779389753692 9.70549588869226 9.98605913697418 0 0 0
242 28 26 -0.39 9.360457248760902 16.14139861236439 12.339165200915842 0 0 0
240 28 27 1.34 8.311671701198353 15.052253629621468 11.856973172814865 0 0 0
223 23 31 1 8.87823444857881 11.842969384445073 17.398294770188578 0 0 0
191 18 9 0.52 12.6902646570231 12.305048413980266 11.289845815386883 0 0 0
241 28 26 -0.39 7.37785379321546 13.88598805514238 11.414882326736887 0 0 0
152 14 20 -0.5 7.21484557658273 12.03012176377974 17.47716541359352 0 0 0
151 14 9 0.52 6.493157294265353 12.251071671877895 16.473562257370887 0 0 0
193 18 19 -0.35 13.880020670889964 12.210763905125258 12.042597618903738 0 0 0
194 18 19 -0.35 12.988747606051945 12.138458752478549 9.929749131023806 0 0 0
154 14 19 -0.35 6.92444545746711 12.901977175001022 15.28880699031442 0 0 0
243 28 26 -0.39 7.457580925447321 16.192012285298034 11.25179532393739 0 0 0
200 18 11 0.06 14.285371510548913 13.369942115034487 9.290064566224006 0 0 0
245 28 26 -0.39 9.042263183118093 14.823915036970154 10.553504106511966 0 0 0
142 13 20 -0.5 10.032472783859129 10.91566132712008 18.503646136953254 0 0 0
197 18 11 0.06 14.876313719174023 13.604472616092613 11.531396424052325 0 0 0
195 18 2 0.22 14.362301982762153 12.418447890750894 9.72094140394253 0 0 0
196 18 2 0.22 14.982372179893673 12.578888158472322 11.134769487360998 0 0 0
199 18 11 0.06 14.919790620040986 11.82137851796907 9.021001678346703 0 0 0
131 12 9 0.52 15.308382342845983 10.317128361512522 15.856493170705656 0 0 0
239 27 26 -0.39 11.521822199447882 14.769039469840834 13.832788114365854 0 0 0
62 6 20 -0.5 9.68403235015007 13.393813034550007 17.461075829745642 0 0 0
139 12 11 0.06 12.64313871446916 12.111121986441665 16.209140064466776 0 0 0
140 12 11 0.06 13.323956317870355 11.851298720284644 14.759395003284075 0 0 0
135 12 2 0.22 13.571237361062032 11.686073243580001 15.786356124815075 0 0 0
134 12 19 -0.35 14.052378812107552 10.436653873122934 15.37334285925951 0 0 0
136 12 2 0.22 14.844495835566386 12.515259397648332 16.128544084784615 0 0 0
50 5 20 -0.5 9.93883181931449 18.60443357812961 13.224576249363357 0 0 0
221 21 31 1 10.66426432878621 17.31398279905408 12.472657668469855 -1 0 0
234 27 26 -0.39 12.298727675538105 16.571994225790526 13.018415922672501 0 0 0
133 12 19 -0.35 15.856194528150088 11.52938764412185 16.44236871102202 0 0 0
198 18 11 0.06 16.05573389116153 12.508767802718783 11.01248973234586 0 0 0
137 12 11 0.06 15.165092157088145 13.313766758671235 15.472817090753622 0 0 0
38 4 20 -0.5 11.216021879658143 17.501557779023095 10.854335121667638 0 0 0
236 27 26 -0.39 11.526176218790358 16.657535641856935 15.032347854151777 0 0 0
237 27 26 -0.39 13.723848345330516 14.986258097382885 13.548705903233564 0 0 0
233 27 27 1.34 12.602626521444316 15.759845470857814 14.323979997034868 0 0 0
166 15 2 0.22 13.996914230691068 7.109250634954211 13.67264907499449 0 0 0
132 12 20 -0.5 15.953991805322183 9.251354097217114 15.801342990825503 0 0 0
235 27 26 -0.39 12.912817912275663 14.86687561955458 15.619522305108868 0 0 0
238 27 26 -0.39 13.73527862156751 16.68489865375922 14.754537313266866 0 0 0
40 4 19 -0.35 11.137074356214384 16.756576550903574 8.673938926390123 0 0 0
170 15 11 0.06 14.394168509852099 9.20231260039991 12.753914906161192 0 0 0
74 7 20 -0.5 17.693849378799037 10.46646138667253 10.611611992536375 0 0 0
165 15 2 0.22 13.62569446762448 8.358055187364894 12.751209699799997 0 0 0
169 15 11 0.06 12.73649791798216 8.83284610356824 13.159246642487563 0 0 0
73 7 9 0.52 17.313150846632205 9.54527113207969 11.329555704013696 0 0 0
138 12 11 0.06 14.53250344562392 12.8696280528316 17.126030143773253 0 0 0
42 4 1 0.22 12.365875581983392 15.963487379611147 8.696254737855636 0 0 0
46 4 11 0.06 12.408872590020701 15.206078116531003 7.86600575343718 0 0 0
47 4 11 0.06 13.243299590111246 16.474712684840267 8.548258177745044 0 0 0
48 4 11 0.06 12.341897935715494 15.444913340982685 9.674650273331075 0 0 0
164 15 19 -0.35 13.683246549162222 7.962238231853609 11.37145789714079 0 0 0
37 4 9 0.52 11.034220800268447 17.753628048890807 9.677235997757831 0 0 0
206 19 2 0.22 14.794944716102776 8.705011872296636 8.283949989299828 0 0 0
39 4 19 -0.35 10.726613415228233 19.033604099904615 9.299685689051055 0 0 0
205 19 2 0.22 15.78202115505391 7.606123967486983 7.819111315565621 0 0 0
210 19 11 0.06 16.771081295705233 7.799644929498176 8.226448816083082 0 0 0
209 19 11 0.06 15.566974775579313 6.652438070741022 8.324703015915285 0 0 0
44 4 11 0.06 8.683381101876813 18.571713289083306 9.002944689076013 0 0 0
41 4 1 0.22 9.347545106105182 19.25877651013549 9.459291306672627 0 0 0
45 4 11 0.06 8.930707768903886 20.21712476335675 9.122056132101767 0 0 0
33 3 11 0.06 8.027502588363047 14.87618390117908 8.153461665065565 4 4 0
143 13 19 -0.35 12.305368769468217 11.074864314636585 18.778368237150353 0 0 0
141 13 9 0.52 11.047664560293155 10.634346544605059 19.174391027466015 0 0 0
146 13 2 0.22 13.149324208520653 10.148284075723923 19.490443076075696 0 0 0
75 7 19 -0.35 17.056879168512914 9.773307829131012 12.685863160298583 0 0 0
79 7 11 0.06 17.867386143803135 11.702463549033057 13.394202429514555 0 0 0
71 6 11 0.06 8.716447309355152 15.219123778557437 15.681196957527156 0 0 0
76 7 19 -0.35 17.241266681305376 8.26723207688191 10.858017419066611 0 0 0
77 7 1 0.22 18.000780368918385 10.56578202642976 13.37471588111218 0 0 0
81 7 11 0.06 17.86163960628003 10.375650209705139 14.490846627792365 0 0 0
78 7 1 0.22 18.416538732260214 7.5168211314758615 11.14189399889627 0 0 0
182 17 20 -0.5 8.022742922413713 9.545773440145542 6.988604293498072 0 0 0
43 4 11 0.06 9.201034818288289 19.313870672213024 10.485633073491844 0 0 0
208 19 11 0.06 13.684294078615352 8.300294588597572 8.238950673654928 0 0 0
22 2 11 0.06 16.13549322848543 17.28847265067128 14.013129039613549 0 -1 0
49 5 9 0.52 9.293895621523857 19.198293726046238 14.098801088751959 0 0 0
24 2 11 0.06 15.286321895766685 18.74370068402525 14.122293629500483 0 -1 0
18 2 1 0.22 16.175511595929656 18.329130888608216 13.695091073398153 0 -1 0
66 6 1 0.22 8.462689598831398 15.967597880396886 16.400395991170015 0 0 0
70 6 11 0.06 9.182287066834794 16.78889240381521 16.43706687789704 0 0 0
61 6 9 0.52 9.538488971406503 14.51735258970346 17.949369651244265 0 0 0
14 2 20 -0.5 14.768922598344666 17.62338659419081 10.797094517186789 0 -1 0
72 6 11 0.06 7.490405717111482 16.380376062343284 16.170081701758193 0 0 0
64 6 19 -0.35 8.362922564170729 15.24788035624638 17.637237675873532 0 0 0
148 13 11 0.06 14.06122486317026 10.327652090535064 19.93340802811933 0 0 0
63 6 19 -0.35 10.633459377031103 15.295327300234552 18.467266515523065 0 0 0
53 5 1 0.22 7.3763905026259335 20.115623006665178 13.185588220973408 0 0 0
51 5 19 -0.35 7.899627156611323 19.12633193101415 14.028963359395036 0 0 0
56 5 11 0.06 6.418277660685811 19.785535716796176 12.87117969791359 0 0 0
147 13 11 0.06 13.38870410735371 9.68330307780434 18.54776670994018 0 0 0
207 19 11 0.06 15.053092465759827 9.043758164375197 9.27203443770815 0 0 0
7 1 11 0.06 19.012910679054762 9.270604105340098 8.112781853554264 -1 0 0
5 1 1 0.22 20.005064801667963 9.615128677642165 8.338281171992598 -1 0 0
9 1 11 0.06 20.107744055513592 9.688231896142694 9.392087230126814 -1 0 0
228 26 26 -0.39 10.916368417323334 6.74048851628913 11.45242372580839 0 0 0
23 2 11 0.06 17.06968890499529 18.804831217993645 14.161262101436414 0 -1 0
231 26 26 -0.39 10.792245535191205 7.012597327958588 13.560119351602456 0 0 0
16 2 19 -0.35 16.143087834058306 18.545339872998795 12.282551593032274 0 -1 0
20 2 11 0.06 12.919904241431066 20.471821557129534 10.84030372727365 0 -1 0
15 2 19 -0.35 13.773033540795936 19.124449751485386 12.292229484371308 0 -1 0
13 2 9 0.52 14.871245865993231 18.509707398175088 11.61517882841013 0 -1 0
203 19 19 -0.35 14.33280840915622 9.421240358718212 7.12345880218348 0 0 0
65 6 1 0.22 11.268838514450781 14.92552502471595 19.63933106110062 0 0 0
69 6 11 0.06 12.03260227952817 15.703075152573733 19.918369511806425 0 0 0
68 6 11 0.06 10.595523041844462 14.786315780695771 20.46345904149169 0 0 0
167 15 11 0.06 13.152019478924736 6.408193033436181 13.861900520514546 0 0 0
91 8 11 0.06 7.728515584229574 6.744949746945452 9.060022234480515 0 0 0
178 16 11 0.06 9.624043104774376 7.566346555072519 15.843909597921302 0 0 0
55 5 11 0.06 7.7754539848710325 20.306657534222865 12.192427763575541 0 0 0
173 16 19 -0.35 10.540874999995786 7.5286254690881895 17.931201527459734 0 0 0
17 2 1 0.22 13.553530091117562 20.381605467300407 11.761541372373006 0 -1 0
176 16 2 0.22 9.759427774603061 7.074601605236241 16.830007413301985 0 0 0
177 16 11 0.06 8.776900141978215 7.251525282174438 17.3549972550337 0 0 0
67 6 11 0.06 11.812020820912997 14.056800878895416 19.489641788180187 0 0 0
212 20 20 -0.5 6.484531959549254 7.1956070327956025 20.246035081085502 0 0 0
121 11 9 0.52 6.378287700933184 7.349769768913616 15.69538741810971 0 0 0
3 1 19 -0.35 20.415491804355195 10.950065958651422 7.847002985122147 -1 0 0
80 7 11 0.06 18.99769958394963 10.361231150817478 13.120330234503943 0 0 0
168 15 11 0.06 14.21457320885727 7.5737582735101645 14.676384665485358 0 0 0
82 7 11 0.06 18.713626197700542 7.431755561308357 12.203030003857972 0 0 0
161 15 9 0.52 14.2046234692767 6.729046629839202 11.47280070772904 0 0 0
162 15 20 -0.5 14.45360241189172 23.389637407521416 10.454778707726117 0 -1 0
52 5 19 -0.35 9.879526394661832 19.914559619949113 15.193390200686382 0 0 0
163 15 19 -0.35 14.306728386449937 23.463472144650467 12.747673804199444 0 -1 0
54 5 1 0.22 11.299322883243928 20.13320158299561 15.235880887003123 0 0 0
59 5 11 0.06 11.788963415388622 19.134748614826798 15.184881732362708 0 0 0
60 5 11 0.06 11.48217243977715 20.594910507061137 16.21474478114921 0 0 0
84 7 11 0.06 19.23099219961526 8.022619782894209 10.617836151526504 0 0 0
124 11 19 -0.35 22.653278341974687 6.412490750202072 15.682594575854758 -1 0 0
29 3 1 0.22 7.93713544863469 14.074435674374618 7.42552827869377 4 4 0
31 3 11 0.06 8.749855842111918 13.402408169942484 7.400771672802078 4 4 0
144 13 19 -0.35 10.951527366283425 9.662062247812516 20.201856770455223 0 0 0
32 3 11 0.06 6.997707173576064 13.495337346324419 7.650841148563105 4 4 0
107 9 11 0.06 8.322614802628632 11.676152850203607 20.05147649091333 0 0 -1
27 3 19 -0.35 7.875311465062165 14.695055348886415 23.433964079994823 4 4 0
159 14 11 0.06 23.336308163132934 11.818552984645285 13.463603425873012 -1 0 0
12 1 11 0.06 23.08860474700589 12.790492162517854 9.960626770285732 -1 0 0
155 14 2 0.22 23.351189826261894 12.43437965117492 14.322373480745464 -1 0 0
123 11 19 -0.35 23.521360670618222 8.448385054046268 16.514954848908673 -1 0 0
8 1 11 0.06 20.610137154789854 8.810566221834364 7.989684901725083 -1 0 0
160 14 11 0.06 23.341154380505913 13.455283450847288 13.89654404653864 -1 0 0
127 11 11 0.06 23.236164036316552 7.754055371656206 18.151707712122324 -1 0 0
10 1 11 0.06 21.433928766509666 12.87201469015302 10.37429066510984 -1 0 0
158 14 11 0.06 21.833561360286446 11.149086375366434 15.034508399060318 -1 0 0
156 14 2 0.22 22.033149700422378 12.203686631861494 15.138993949149935 -1 0 0
153 14 19 -0.35 22.4501217078213 12.063847355232092 16.493270112547393 -1 0 0
157 14 11 0.06 21.195072662916306 12.810885736531633 14.749267138284695 -1 0 0
255 30 26 -0.39 22.694711749556877 10.153999881538958 11.259228185616529 -1 0 0
258 30 26 -0.39 22.019037218858397 8.647359291392746 12.796193570292955 -1 0 0
126 11 2 0.22 22.524506545573793 8.028556664423842 17.406502995478228 -1 0 0
254 30 27 1.34 23.023677612901448 8.644508089546576 11.596871108169548 -1 0 0
256 30 26 -0.39 23.35676544940233 7.20360570461294 12.000039518727553 -1 0 0
128 11 11 0.06 21.87949967875109 8.800125042195344 17.80295661024661 -1 0 0
125 11 2 0.22 21.8957992611113 6.752214030627196 16.85683391689611 -1 0 0
222 22 31 1 23.514303620338378 9.502682597262645 6.646926028254725 -1 0 0
2 1 20 -0.5 22.590267986398665 10.540317592350245 7.726371483034366 -1 0 0
1 1 9 0.52 21.724740564021495 11.27192790607443 8.134991604774866 -1 0 0
259 30 26 -0.39 22.056779171169012 8.056947690072622 10.55298722205756 -1 0 0
257 30 26 -0.39 6.737204727450052 8.687627367168082 10.526826030827412 0 0 0
85 8 9 0.52 23.0936406247366 6.531141194704906 6.631201692855991 -1 0 0
86 8 20 -0.5 22.888367737631352 7.740489920145343 6.5416505306022446 -1 0 0
6 1 1 0.22 22.120711994604207 13.077387870564145 9.614970408112749 -1 0 0
4 1 19 -0.35 21.92207540740482 12.670687345871855 8.266442458353286 -1 0 0
11 1 11 0.06 22.161847278518746 14.198549965347599 9.623200205034854 -1 0 0
83 7 11 0.06 18.339310364518887 6.494307812339969 10.781574680318261 0 0 0
87 8 19 -0.35 6.9718073864323715 23.438983987076217 7.28812004887389 0 -1 0
89 8 1 0.22 6.898946563037309 23.441012380505413 8.686819858600849 0 -1 0
58 5 11 0.06 11.639700554594098 20.696973326750822 14.39394304056262 0 0 0
179 16 11 0.06 10.695875089386549 22.721435311451415 15.886540240590648 0 -1 0
93 8 11 0.06 23.33027547142539 6.5657348355775715 9.147806176657332 -1 0 0
57 5 11 0.06 7.305106552856134 21.070261472830403 13.667108575528978 0 0 0
92 8 11 0.06 6.90455845308644 22.42725940537379 9.032435893075043 0 -1 0
226 26 27 1.34 10.003474620313025 23.46355699764836 12.510230089702574 0 -1 0
232 26 26 -0.39 9.145324266235964 22.69476391551854 11.460120752953966 0 -1 0
115 10 11 0.06 12.386243487451122 23.439160321773652 8.651058420496895 0 -1 0
116 10 11 0.06 11.044506766208286 22.569850804154566 8.539143543840037 0 -1 0
113 10 1 0.22 12.084357480213669 22.429113901945676 8.537526277517733 0 -1 0
117 10 11 0.06 12.32384757880974 21.9980694578273 9.547795536524895 0 -1 0
227 26 26 -0.39 9.117254912586793 22.87650409820885 13.648680852024981 0 -1 0
175 16 2 0.22 10.040534727998937 22.880717511776353 16.74138372854771 0 -1 0
229 26 26 -0.39 10.89237200689233 22.207136337948942 12.628605208941279 0 -1 0
111 10 19 -0.35 12.636646442083798 21.61954961951217 7.55752861118924 0 -1 0
21 2 11 0.06 14.543633171706317 20.871922272477907 11.4458447047447 0 -1 0
19 2 11 0.06 13.249378666978737 21.15609119416049 12.423400322310563 0 -1 0
180 16 11 0.06 9.222407299898602 22.230407403756182 16.648880159590504 0 -1 0
174 16 19 -0.35 11.188229669258671 22.678392149458194 17.552262094179 0 -1 0
171 16 9 0.52 11.56331715291817 6.563352574244251 18.024822008847217 0 0 0
172 16 20 -0.5 12.647764788783205 6.720628784916351 18.58622365614497 0 0 0
109 10 9 0.52 11.806298594596575 21.35730356513042 6.456246114911278 0 -1 0
214 20 19 -0.35 7.987138407615655 22.864792518346682 20.264651950030157 0 -1 0
88 8 19 -0.35 22.111226048912904 22.891423078207264 23.508781675429507 -1 -1 -1
129 11 11 0.06 22.207072658571825 23.308450852871207 17.57413686042377 -1 -1 0
130 11 11 0.06 20.798787153599065 6.8159110958248315 16.953929106126992 -1 0 0
204 19 19 -0.35 16.16878760139879 8.041966016960767 6.5467091690219945 0 0 0
201 19 9 0.52 15.195835201901197 8.975503441863733 23.43618809204409 0 0 -1
145 13 2 0.22 12.274756445630825 9.208839503578385 20.405961942553333 0 0 0
149 13 11 0.06 12.421769832778157 9.581318946736788 21.44365676608524 0 0 0
150 13 11 0.06 12.719441167982286 8.28038344197673 20.320940349568577 0 0 0
28 3 19 -0.35 9.083340254650809 16.411637234983072 22.321695358981295 4 4 -1
34 3 11 0.06 9.495264523062666 18.4242466255633 22.71732461639902 4 4 -1
25 3 9 0.52 9.12813909384117 15.176645908541119 22.986048081455216 4 4 0
26 3 20 -0.5 10.114897035193334 14.47513095595424 22.708722602549 4 4 0
36 3 11 0.06 10.646162880076751 17.381660772395144 23.392411552843956 4 4 -1
106 9 11 0.06 8.518268173945545 10.737189416289743 21.48212764045312 0 0 -1
108 9 11 0.06 8.905432169022774 12.518681239387762 21.427865354563828 0 0 -1
102 9 1 0.22 8.19011682136094 11.711485881352397 21.132908825383893 0 0 -1
202 19 20 -0.5 14.977426603172917 9.25928576017047 22.284822690412597 0 0 -1
211 20 9 0.52 7.639948616166256 6.87442734583167 20.546376782167954 0 0 0
30 3 1 0.22 9.651695103000735 17.468116351593892 23.13682332964717 4 4 -1
35 3 11 0.06 9.044586382964596 17.614654781625795 6.751406866319587 4 4 0
218 20 11 0.06 10.15238295854932 7.0279027192251995 21.901432560172793 0 0 0
213 20 19 -0.35 8.396816313010966 7.53744497338099 21.53285230196431 0 0 0
216 20 2 0.22 9.225713906466005 6.493064396607301 22.042422584182454 0 0 0
100 9 19 -0.35 6.837708936264038 11.94842445562109 21.49080481783629 0 0 -1
217 20 11 0.06 9.110706649075892 23.56256245865657 23.10130984781104 0 -1 0
219 20 11 0.06 9.833423827450368 22.52443544608057 20.37774290445212 0 -1 0
96 8 11 0.06 21.697235989192198 6.577988786823355 21.679007607468016 -1 0 -1
105 9 11 0.06 20.4947484925921 11.47372325938074 19.719065813351293 -1 0 -1
103 9 11 0.06 21.49839684290076 12.755474528778695 20.365856698109113 -1 0 -1
99 9 19 -0.35 22.398031668655946 10.842781917788901 20.370566000847596 -1 0 -1
97 9 9 0.52 23.347443411600718 10.836849202716344 21.417603118692828 -1 0 -1
98 9 20 -0.5 23.230675824184107 10.12404538978015 22.389405894821856 -1 0 -1
101 9 1 0.22 21.246504986793866 11.689165599141514 20.480985365437306 -1 0 -1
104 9 11 0.06 20.762629654781648 11.502053950075746 21.478167233855913 -1 0 -1
110 10 20 -0.5 10.851744169554658 20.563638644287018 6.531358348275494 0 -1 0
112 10 19 -0.35 11.993469252586866 22.23639648377616 22.598750356399023 0 -1 -1
220 20 11 0.06 9.122910675782906 21.658760179330557 21.80206777360756 0 -1 0
215 20 2 0.22 9.050471283612591 22.56379885172649 21.14903531753682 0 -1 0
119 10 11 0.06 13.629264452352986 21.061803070097483 21.889366295711536 0 -1 -1
114 10 1 0.22 13.391453741993598 22.106858882649277 22.14454070885703 0 -1 -1
120 10 11 0.06 13.62692623198841 22.76374238625349 21.395800627655255 0 -1 -1
118 10 11 0.06 14.109111950168398 22.25110786785634 22.986295272232017 0 -1 -1
94 8 11 0.06 20.599390204872712 22.586111863237868 22.2611532261254 -1 -1 -1
90 8 1 0.22 21.620717161631447 22.940846906683227 22.223120426254944 -1 -1 -1
95 8 11 0.06 22.218485832726337 22.170572106096262 21.711703016288325 -1 -1 -1

Velocities

230 0.0001135535811296513 0.004216263734975908 -0.0016221765807263031
122 -0.0022594278155943295 -0.003932437047159869 -0.0033285864656705235
183 -0.003204277826839278 0.002965100854525876 -0.007047911036028827
181 0.0019374053355767466 -0.004681294267184412 -0.01264082559304151
186 -0.0037596107850267897 0.0026640849112423756 0.0011419283474941744
246 0.005687329099001629 0.0027097726514755498 -0.00046269794455093793
187 0.005814366076910501 -0.003215768857414009 -0.00044629791136018525
184 -0.002172409566538152 -0.0032745128896330793 1.705497807308702e-05
185 0.0022880558977997584 0.0047378221686821 -0.003449137848998692
192 -0.00023080020057805227 -0.014946136046564416 0.0025774400728826837
250 -0.0028113531674001527 -0.00317199791956923 0.0036107174450292633
252 -0.00525681568229528 -0.003578941248938265 -0.004906112620022583
224 0.007249174032899898 0.0018922735696622415 -0.0014250946736434234
247 -0.002466840548624722 0.0028847349276054568 0.00011960320829807588
249 0.007616782477992345 -0.0016069790554234485 -0.0023653607336905063
248 0.004444467304192596 -0.005057365566854071 0.00847280844776805
253 0.0011348261105382292 -0.0024828182319809006 0.001271601872074657
244 0.0023891246964973687 0.00011367463436061332 -0.004172929948712598
251 -0.0034692341478632406 -0.005155990835655189 6.007714973024025e-05
260 -0.009678497880995174 -0.0023499851865385404 0.001154412933474208
225 0.00872345891972104 -0.007228053911106634 0.006733596883939989
189 0.0009506497836521636 -0.006372998270501711 -0.007359785789049624
188 0.0031458817029184085 0.013117727781389695 -0.005332681777309125
190 0.01338028709019279 0.005015495510955237 -0.002338870021076329
242 0.002119165819472926 -0.00446850729706874 0.0030158548994075117
240 0.00044183594447718875 -0.00029810746676400406 -0.0022549144341149014
223 -0.0015784699015202208 -0.0035356241347918585 -0.0053007306019607035
191 -0.008423257994573176 -0.005404918692315273 -0.003300007770830722
241 -0.002153827581093881 0.0031144073646916857 -0.0022774383077987783
152 0.0014496386336107243 0.0014302084959871863 0.0022963595885728658
151 -0.00032416195538419293 -0.0011466480309065157 0.0006553987300609449
193 -0.0039510179422920745 -0.0038155473480422255 0.0022691679778941857
194 0.0007600894237157652 0.004066816681425565 0.002813020352479425
154 0.0018431487994739707 0.0042389843389472525 -0.005630906407982665
243 -0.002787349074662859 -0.004956936460388482 -0.00039549050478434537
200 -0.04566149110037417 -0.017065617565178142 -0.000346445632314452
245 0.001172837476482837 -0.005457749780501654 0.002442048729392595
142 -0.002132289699146392 0.0034759009952995148 0.00933781674926892
197 -0.01703285246019629 0.03597349811288152 -0.006163320175849726
195 0.002353171055391645 -0.00147813237592484 0.001579899616410502
196 -0.004341736496728926 0.004656806191735143 -0.0034908006605022354
199 0.0015468836932282634 0.013862920089163644 -0.004658289819047441
131 -0.0011055455037781822 0.002438084944312371 -0.0012028863897818633
239 0.000872066343670501 0.004946207982516558 -0.0031122117830273623
62 -0.012018257872722354 -0.001894802207396447 0.00450351194615549
139 0.007178838602089273 -0.00440580176907753 -0.021109168926756718
140 -0.006257217569290052 0.020275757654528683 0.008080430506943861
135 -0.0037147375367239006 -0.008040250353864107 0.004916195313824204
134 0.001179684089951826 0.0024331505256657325 0.0018290165722207206
136 0.005931161766489851 0.0028961156249883743 0.0004790905763720776
50 -2.3053967684197503e-05 -2.4241742109249097e-05 -0.007789377146796312
221 -0.006001975458709349 0.00012728706324867425 0.0017601559548096255
234 -0.00016936537451588748 -0.0014982603390432927 0.0014055854672251355
133 -0.0035280080192578297 -0.00031887299011298996 0.0024715566482154602
198 0.02223886236227121 0.0009243803006877648 0.010636609362414532
137 0.0019201327317016396 0.00031479293205983577 -0.010304381424642026
38 -0.01197618640334009 0.0017366135978525686 -0.0002494761570140129
236 0.0019820424123287565 0.0006555552045805892 -0.0035916913110346626
237 -0.002159877902291087 0.0017440192602246778 -0.0013872850604797291
233 0.0023405845221009963 0.003118344526330264 -0.0006997651937884114
166 0.006660504866694302 -0.0042543479418531704 -0.001469263532976858
132 -0.0063849781490582305 0.0031144481792404837 0.003838434883266455
235 0.001316341193138364 -0.0037236954759479594 -0.0008460776045616654
238 -0.004800184677552482 -0.0017233728786996713 0.0030638993257383726
40 -0.001804253895576701 0.00067065289824489 0.005187105025032177
170 -0.016086610552021634 -0.002383553947881246 -0.006349890823996597
74 -0.001490404315910392 -0.004912648355292125 -0.006040554860138497
165 -0.003929519384778678 0.0007529017896446029 0.005227402690690209
169 -0.03335270143322109 -0.003829407130031049 -0.003903372157488022
73 0.0013595951937490824 0.010060246589914201 0.003710457530591418
138 0.030428638695081243 -0.008861781144510729 -0.0028796010273597953
42 -0.008101887641827081 0.002288620813614555 0.0029684232859977615
46 -0.0362366051845878 -0.013241887964521727 0.005843606320346747
47 0.005259222727042854 -0.008068058114720424 -0.003434646901105978
48 0.0017876454024125944 -0.01585798875845847 0.008629473610320503
164 0.0003152987957486855 0.0024319198116168274 -0.00012888654953734124
37 0.0011639345334492222 0.0009678812541281107 -0.0035267612297699633
206 0.003436803164652639 -0.00561626703165906 0.0019873077884040085
39 0.00890084740933623 -0.004209558963502348 -0.001274380992253221
205 0.0036922815256291283 -0.0012037855433012599 0.0031989859797810646
210 0.004037979020906104 -0.009041765203924933 -0.022527961386259867
209 0.025609208883766645 0.012112412724715759 -0.009952604288994643
44 -0.011747882064347624 -0.005987131997919054 0.0291830523334039
41 0.006992485036628612 -0.001965166634327226 -0.004961357901849131
45 -0.022394158217089153 -0.013577053556756365 -0.027598442824438407
33 -0.010828127877842996 -0.02778229021230125 0.007207668983516262
143 0.007237768465665652 -0.0007330378519322359 -0.0016648552730416744
141 0.0031631684225223037 -0.006154205171162859 0.006558193500023062
146 -0.0008706689795010079 0.003532710489021949 -0.002706183222331878
75 0.0004412877981076635 -0.00039623356225658695 0.004797059967964971
79 -0.008088793180542973 0.005344026234306112 -0.002635649223567685
71 -0.024471617317748214 0.017921041346337777 -0.0011018841758851721
76 -0.0017549475333675632 0.0038870025919997895 -0.002292521627152901
77 0.012486443965735412 0.0029873544708774163 0.007779980664178098
81 -0.008656573869931163 0.0027667942127692128 -0.04129873654574692
78 0.002446585613662178 0.0049343759121442815 -0.002192026598849908
182 -0.006381452693451803 -0.00072997895878126 -0.00023738917427442845
43 0.010470088845943075 0.015082943637526828 0.04641451486725005
208 0.0070178643303912625 -0.004916869629426533 -0.017104583607250954
22 -0.00268728265885251 -0.008002750001162049 -0.015564642421330935
49 -0.0020008417129133336 0.0004685113435015027 -0.0024559540438970724
24 -0.010403636436857542 0.011684411120736007 0.010931358896388495
18 -0.00042342041560286694 0.004920077923016379 0.004045562242329319
66 -0.0019045272600278047 -0.003672171252044745 0.005038971346448199
70 -0.007474689878566217 0.00980522770391799 0.015974131575039283
61 -0.007848709008098823 -0.004502333295451012 0.002120184799297067
14 -0.0037243254483942303 -0.00472541315123103 0.0017569424495559247
72 0.014111767828685399 0.041034673375802855 -0.011045249163587475
64 -0.000876962627178062 0.005198844791360018 -0.0005224032060859287
148 -0.0006460299258926119 -0.028996844154523284 -0.028958013890614278
63 0.0003386154165326777 -0.002179293638291345 -0.0042667144988047705
53 0.0006359855205563779 -0.002256541534729115 -0.006030152358001297
51 -0.0026242018165768435 0.0010110087551579519 0.003775569819759395
56 -0.019406464339786718 0.008321371152586462 0.019342992100603834
147 -0.007342889774555537 0.01882080151286593 0.02112162431362071
207 0.029350678428162177 -0.010161074298733794 0.023156225473281396
7 0.003699827502938151 0.020147629243892486 0.007549647444244311
5 -0.0010231497068919609 0.004071635053987669 0.00226041698241906
9 -0.01285953921688396 0.01520937156924213 -0.00888715398654482
228 -0.0014864344023411999 -0.0006428781972461095 0.0021355496815418417
23 -0.0038601988316941246 0.017030316813065244 -0.007452701335177778
231 -0.0032054266045061256 0.0012484396882302545 -0.0032330064884370175
16 0.008643296330119503 0.005188500888148983 0.004431280892860445
20 0.015409040694686169 -0.005469333279871326 0.014650196001995661
15 0.00223067728685397 0.004816153664276118 0.001991594670518667
13 0.004194051427055694 -0.0059020379135183145 0.0064876143303904815
203 0.0007163874014906018 -0.0006193594560596544 -0.001554504500753119
65 0.0005727578281231567 -0.0005642979180999155 0.001678086627343369
69 0.009314036074320615 0.007496478537867691 0.03387636285306513
68 -0.022018544797380815 0.017146274004361042 0.009969103405274298
167 -0.028490096670395846 0.007597136853544624 0.017651601837752905
91 0.022144380640012153 -0.0021724870977218244 -0.00033428406568814
178 0.021285453300426627 0.010810008978324948 -0.0009716808329719008
55 -0.011900775217194836 -0.04238452165756545 0.010641562791772042
173 -0.0034717950232761997 -0.0036472326851619452 -0.005532662309710855
17 0.0010985313019273519 -0.0016194964547572607 -0.0002039109832743212
176 0.0016618649165812212 0.007988292281042525 -0.003330054840820231
177 -0.010732952408805226 -0.005110185173553674 0.019126538835310677
67 0.006173421003211944 0.02754177381468165 0.0017389953326015994
212 0.0031217150837875764 0.005622218691530483 -0.00112592958367953
121 -0.0015812160206657327 0.0016783666727082944 -0.006650775808033989
3 0.000646246492670504 0.0020978660100922364 -0.003574587687022516
80 0.0012550011858211622 0.006228224845840598 -0.007848805048818248
168 -0.007431259850864492 -0.0009306125118473699 -0.0123307665019247
82 0.0030931385486691106 0.0014627281734469581 -0.012298093492984705
161 0.002493845347825292 -0.0032912846827454806 -0.0005396380985413662
162 0.004652661397395958 0.0009064235450886792 -0.0024664309672353013
52 0.005385299137524317 0.004016735372952896 0.004850326485838492
163 -0.002351717994812498 -0.004308216457139556 -0.002380037387003206
54 0.0024023294097322108 0.000741522980828824 -0.00892426425167216
59 0.0005736761753757265 0.024075228902000496 0.009544088043419776
60 -0.023411269587728534 -0.001150769185677166 0.0010438355169456283
84 0.000747034613756303 -0.028360603474490716 -0.003134053917043495
124 -0.00649126067035818 -0.0018706187257176772 -0.00807968751841232
29 -0.00018646811371858407 -0.005291065463116962 0.001830923724909612
31 -0.002324339704851558 0.011983800281387395 -0.01864350480850689
144 0.0008688670792034888 0.0018016473334670202 -0.0011832872069079934
32 0.007144352121288317 -0.0032075221204191755 -0.01874406827656155
107 0.018878054086835114 0.009588334613773395 0.003510930074509113
27 -0.0012213115520076949 0.0010875765789515697 -0.0030847336213280815
159 -0.014477970808974954 0.009232869061761089 -0.03216764323059339
12 -0.001441786983872655 0.0055270657264454145 -0.02125666753219857
155 -0.0016962884323441314 0.0033502288255913043 0.008117853115647718
123 0.002652953587951523 -0.003539489952343444 -0.0002655970491847995
8 0.006833263839494641 -0.004287760874858627 -0.01810301706476332
160 -0.008286460807215545 0.0029259244512672053 0.012061264123242613
127 0.012647726584372201 -0.04479684102142099 -0.006969433437575724
10 -0.0026360176270163464 0.015266289545971248 0.025933440886881542
158 0.013420878033599995 -0.0039031904546001184 0.005718090952777837
156 5.049771494860482e-05 0.00024291091411181165 0.0013071027212925002
153 0.0001941073675256215 0.002887677061341401 -0.005701328823183582
157 -0.00557313598113088 -0.005712502496351028 -0.00602819408033298
255 0.0028202469368527093 0.000653499246980306 0.006083883293910708
258 0.002445795004684182 -0.0020579885246763256 -0.002232812792205299
126 0.000906447663563243 0.004991066465891327 0.0008976247201179634
254 0.0015954393119756675 -0.0012789109758396626 0.005210455558309944
256 -0.0008078670304900397 -0.0011575608635755186 0.009043860039511558
128 0.01168875378657555 0.014901757172165794 0.0065255441786315534
125 0.0007055597042058219 0.0070707189126533706 0.0015463576493265866
222 -0.005534311751495157 -0.006385763735185339 0.00807863498145003
2 0.00569989790233501 -0.002846772472934734 0.00423766084173909
1 0.0025666617041805633 0.0007578797094017285 0.004442546987419079
259 -0.0020046334862351156 -0.0063540485310957275 -0.003260767462894994
257 0.004983581315748877 -0.0002955339952588414 -0.0035407822471426012
85 -0.00023361700943529647 -0.004055648942524739 -0.0008787250941050455
86 0.004187987182515653 -0.0017813055972140041 -0.0005629254386081107
6 -0.005377580858542809 -0.0007849481069648641 0.0008758315753848027
4 -0.002692674544714779 0.005047862578139135 -0.0029166836819003407
11 0.003196322061426094 -0.028260175734601167 0.011148310975805233
83 -0.0024715288135345645 -0.008406872566800198 0.016270166692682473
87 -0.002382920732310039 -0.00920846145511604 -0.0013589736550619637
89 0.0013623920919746757 -0.0066739492791220755 0.004600315675762024
58 -0.007806638238860692 0.010220449064667302 -0.02176535967221123
179 -0.01782225630761333 -0.0015359207748617098 -0.012628744624656074
93 -0.04125819000913776 -0.026052412273987417 0.01438423215526584
57 0.0021022117747245416 -0.011724056016752183 -0.02761322939520451
92 0.020116264652933136 0.017959817607173845 0.013111821876628975
226 -0.0051378545738223974 0.0010812314121125548 -0.0029981019716382286
232 0.004204994946979366 0.005553895709702083 0.001164733317587598
115 -0.00960508513889799 -0.004303975162549649 0.011879055797248014
116 0.0003919496000954448 -0.0056013714048728245 -0.002309036085305723
113 -0.004281592178422792 0.005042026804379322 -0.011566362147130313
117 0.0039475368475751 0.010278848443083043 -0.02004899400964092
227 0.0019934338744187984 1.2492443156667116e-05 -0.002095345383076549
175 -0.006934472111114117 0.001224090502554659 0.0019743411334141965
229 0.005305260077766818 -0.00434901998935544 0.0011570370554614602
111 0.005207654993384919 0.00527561365024082 0.00321253865258502
21 0.03183014608761964 0.03342287786664385 -0.017333263354949596
19 -0.0021681116926995647 0.0014261362211243332 -0.01096503694850443
180 0.008151025212106536 0.007545837294275683 -0.0025128642315710523
174 -0.0064878255978371106 0.0048522071994582 0.003924409575411268
171 0.003342622589782312 0.005073749462400429 -0.007759262773264863
172 -0.00019754574069484612 0.0047383023504067095 -0.0036145207799929305
109 -0.007297668535183529 0.0016651539145473167 0.0036632683331189334
214 0.0010620007071671213 -0.007998823146955554 0.007727602621367691
88 -0.0019182477167583613 -0.003506699166004382 0.0030786345866214435
129 -0.006971264270612565 0.01374121499266533 0.012512238254377368
130 0.0011913541476902421 0.03356180137808132 -0.008457054197910544
204 0.0026703891575971406 0.0030201944806037013 0.0011627866128758294
201 0.0032438238104630594 0.001891503285308853 0.004578340847798026
145 0.008078129803480797 0.0022346253555994415 0.006047634202434507
149 -0.0063346896201396385 0.011233652662692066 0.008253514038581341
150 0.026246455721920612 0.004747390017617732 0.0333704424806919
28 -0.0016422839272169482 0.0033018283927343348 0.0013344927454591862
34 -0.007754066505555885 -0.02035677447023318 0.0013610519136599895
25 0.0031113863530904218 0.004255031666226187 0.005376385277535121
26 0.003857898275569489 -0.0008572272202651626 0.00026742229971704536
36 -0.003390736844870782 -0.0012856830579399134 0.011670177800654255
106 -0.0030732150624415457 -0.005965725217363842 -0.00036860747976664207
108 0.018711503245854962 0.020946732751476013 0.011606320067995715
102 -0.0026865368477106025 -0.002986663555477317 -0.0011184070640168251
202 0.003810562576335072 0.0009699799375876911 2.527730372091531e-06
211 0.0032262165707116395 0.006986487663309283 -0.009980479827867386
30 -0.003540145133350316 0.004600614132146017 0.0029117914813984584
35 -0.01714888159675748 0.0029052858486947088 -0.015281966953380091
218 -0.0008736712801559611 -0.005499665050057026 -0.00736358629489977
213 0.00641390396613228 -9.067573278119741e-05 -0.0046475433922772685
216 -0.00849044107793613 -0.0009519574364084469 0.00478717383218008
100 -0.002455285048813117 0.0055319235410033136 -0.008787106345906645
217 0.0037818085890838366 -0.0026300527424758914 0.017558897677517518
219 0.004447024199326788 0.01757700867444567 0.000639766461566867
96 -0.006992642610502073 -0.0034495931328177845 -0.019624257074573225
105 -0.0016660477702871567 -0.010206243621069318 -0.005940127602627169
103 -0.006670409149112949 -0.0027501638431284177 -0.03767109356435594
99 -0.0005141691940953743 -0.0037729243441569265 0.0013027390504845968
97 0.010625134843679673 0.009088006636232417 0.00904406529820816
98 0.005568625749052422 0.0015270941482324722 -0.0011915952556952512
101 0.00010423599562502118 -0.007140801558908295 -0.009796555407419968
104 -0.008338839932671453 -0.016986473268888563 -0.013087183001029932
110 -0.007082335042983227 -0.00254405831117833 0.0021086962269611332
112 0.004381268149372399 0.0025809474233918863 -0.005697467185365397
220 0.0016155252247275261 -0.0230934434076323 -0.011076254185254606
215 -0.0005568548419415943 -0.005108400670862349 -0.004989194451608799
119 -0.0015867617424336268 0.007442121270359363 0.019622459149894602
114 0.007693175237886708 0.0015387710840660276 0.0013617910139053595
120 -0.008542687835538196 -0.027296920111791887 0.016533247042243942
118 0.006301013163201798 0.002275329183566956 -0.008737492766588754
94 0.012935759656462712 -0.011754683211323138 0.023215735471694966
90 -0.0049347925559360606 0.0016707996190472336 0.004601701228930103
95 -0.005151976454454336 0.0005459738803167702 -0.0007001291514067068

Bonds

1 7 183 186
2 8 181 182
3 7 181 183
4 7 181 184
5 4 186 187
6 4 186 188
7 7 184 185
8 1 185 186
9 4 185 189
10 4 185 190
11 15 247 248
12 15 247 249
13 15 247 250
14 15 247 251
15 15 247 252
16 15 247 253
17 15 240 241
18 15 240 242
19 15 240 243
20 15 240 244
21 15 240 245
22 15 240 246
23 8 191 192
24 7 191 193
25 7 191 194
26 8 151 152
27 7 151 153
28 7 151 154
29 7 193 196
30 7 194 195
31 7 154 155
32 1 195 196
33 4 195 199
34 4 195 200
35 4 196 197
36 4 196 198
37 8 131 132
38 7 131 133
39 7 131 134
40 1 135 136
41 4 135 139
42 4 135 140
43 7 134 135
44 4 136 137
45 4 136 138
46 7 133 136
47 15 233 234
48 15 233 235
49 15 233 236
50 15 233 237
51 15 233 238
52 15 233 239
53 4 166 167
54 4 166 168
55 7 40 42
56 1 165 166
57 4 165 169
58 4 165 170
59 8 73 74
60 7 73 75
61 7 73 76
62 4 42 46
63 4 42 47
64 4 42 48
65 7 164 165
66 8 37 38
67 7 37 39
68 7 37 40
69 4 206 207
70 4 206 208
71 7 39 41
72 1 205 206
73 4 205 209
74 4 205 210
75 4 41 43
76 4 41 44
77 4 41 45
78 7 143 146
79 8 141 142
80 7 141 143
81 7 141 144
82 4 146 147
83 4 146 148
84 7 75 77
85 7 76 78
86 4 77 79
87 4 77 80
88 4 77 81
89 4 78 82
90 4 78 83
91 4 78 84
92 8 49 50
93 7 49 51
94 7 49 52
95 4 18 22
96 4 18 23
97 4 18 24
98 4 66 70
99 4 66 71
100 4 66 72
101 8 61 62
102 7 61 63
103 7 61 64
104 7 64 66
105 7 63 65
106 4 53 55
107 4 53 56
108 4 53 57
109 7 51 53
110 4 5 7
111 4 5 8
112 4 5 9
113 7 16 18
114 7 15 17
115 8 13 14
116 7 13 15
117 7 13 16
118 7 203 206
119 4 65 67
120 4 65 68
121 4 65 69
122 7 173 176
123 4 17 19
124 4 17 20
125 4 17 21
126 4 176 177
127 4 176 178
128 8 121 122
129 7 121 123
130 7 121 124
131 7 3 5
132 8 161 162
133 7 161 163
134 7 161 164
135 7 52 54
136 7 163 166
137 4 54 58
138 4 54 59
139 4 54 60
140 7 124 125
141 4 29 31
142 4 29 32
143 4 29 33
144 7 144 145
145 7 27 29
146 1 155 156
147 4 155 159
148 4 155 160
149 7 123 126
150 4 156 157
151 4 156 158
152 7 153 156
153 4 126 127
154 4 126 128
155 15 254 255
156 15 254 256
157 15 254 257
158 15 254 258
159 15 254 259
160 15 254 260
161 1 125 126
162 4 125 129
163 4 125 130
164 8 1 2
165 7 1 3
166 7 1 4
167 8 85 86
168 7 85 87
169 7 85 88
170 4 6 10
171 4 6 11
172 4 6 12
173 7 4 6
174 7 87 89
175 4 89 91
176 4 89 92
177 4 89 93
178 15 226 227
179 15 226 228
180 15 226 229
181 15 226 230
182 15 226 231
183 15 226 232
184 4 113 115
185 4 113 116
186 4 113 117
187 1 175 176
188 4 175 179
189 4 175 180
190 7 111 113
191 7 174 175
192 8 171 172
193 7 171 173
194 7 171 174
195 8 109 110
196 7 109 111
197 7 109 112
198 7 214 215
199 7 88 90
200 7 204 205
201 8 201 202
202 7 201 203
203 7 201 204
204 1 145 146
205 4 145 149
206 4 145 150
207 7 28 30
208 8 25 26
209 7 25 27
210 7 25 28
211 4 102 106
212 4 102 107
213 4 102 108
214 8 211 212
215 7 211 213
216 7 211 214
217 4 30 34
218 4 30 35
219 4 30 36
220 7 213 216
221 4 216 217
222 4 216 218
223 7 100 102
224 7 99 101
225 8 97 98
226 7 97 99
227 7 97 100
228 4 101 103
229 4 101 104
230 4 101 105
231 7 112 114
232 1 215 216
233 4 215 219
234 4 215 220
235 4 114 118
236 4 114 119
237 4 114 120
238 4 90 94
239 4 90 95
240 4 90 96

Angles

1 9 181 183 186
2 11 182 181 183
3 11 182 181 184
4 12 183 181 184
5 13 183 186 185
6 4 185 186 187
7 4 185 186 188
8 6 187 186 188
9 9 181 184 185
10 13 184 185 186
11 4 186 185 189
12 4 186 185 190
13 6 189 185 190
14 18 248 247 249
15 18 250 247 251
16 18 252 247 253
17 17 248 247 250
18 17 248 247 251
19 17 248 247 252
20 17 248 247 253
21 17 249 247 250
22 17 249 247 251
23 17 249 247 252
24 17 249 247 253
25 17 250 247 252
26 17 250 247 253
27 17 251 247 252
28 17 251 247 253
29 18 241 240 242
30 18 243 240 244
31 18 245 240 246
32 17 241 240 243
33 17 241 240 244
34 17 241 240 245
35 17 241 240 246
36 17 242 240 243
37 17 242 240 244
38 17 242 240 245
39 17 242 240 246
40 17 243 240 245
41 17 243 240 246
42 17 244 240 245
43 17 244 240 246
44 11 192 191 193
45 11 192 191 194
46 12 193 191 194
47 11 152 151 153
48 11 152 151 154
49 12 153 151 154
50 9 191 193 196
51 9 191 194 195
52 9 151 154 155
53 13 194 195 196
54 4 196 195 199
55 4 196 195 200
56 6 199 195 200
57 13 193 196 195
58 4 195 196 197
59 4 195 196 198
60 6 197 196 198
61 11 132 131 133
62 11 132 131 134
63 12 133 131 134
64 13 134 135 136
65 4 136 135 139
66 4 136 135 140
67 6 139 135 140
68 9 131 134 135
69 13 133 136 135
70 4 135 136 137
71 4 135 136 138
72 6 137 136 138
73 9 131 133 136
74 18 234 233 235
75 18 236 233 237
76 18 238 233 239
77 17 234 233 236
78 17 234 233 237
79 17 234 233 238
80 17 234 233 239
81 17 235 233 236
82 17 235 233 237
83 17 235 233 238
84 17 235 233 239
85 17 236 233 238
86 17 236 233 239
87 17 237 233 238
88 17 237 233 239
89 13 163 166 165
90 4 165 166 167
91 4 165 166 168
92 6 167 166 168
93 9 37 40 42
94 13 164 165 166
95 4 166 165 169
96 4 166 165 170
97 6 169 165 170
98 11 74 73 75
99 11 74 73 76
100 12 75 73 76
101 4 40 42 46
102 4 40 42 47
103 4 40 42 48
104 7 46 42 47
105 7 46 42 48
106 7 47 42 48
107 9 161 164 165
108 11 38 37 39
109 11 38 37 40
110 12 39 37 40
111 13 203 206 205
112 4 205 206 207
113 4 205 206 208
114 6 207 206 208
115 9 37 39 41
116 13 204 205 206
117 4 206 205 209
118 4 206 205 210
119 6 209 205 210
120 4 39 41 43
121 4 39 41 44
122 4 39 41 45
123 7 43 41 44
124 7 43 41 45
125 7 44 41 45
126 9 141 143 146
127 11 142 141 143
128 11 142 141 144
129 12 143 141 144
130 13 143 146 145
131 4 145 146 147
132 4 145 146 148
133 6 147 146 148
134 9 73 75 77
135 9 73 76 78
136 4 75 77 79
137 4 75 77 80
138 4 75 77 81
139 7 79 77 80
140 7 79 77 81
141 7 80 77 81
142 4 76 78 82
143 4 76 78 83
144 4 76 78 84
145 7 82 78 83
146 7 82 78 84
147 7 83 78 84
148 11 50 49 51
149 11 50 49 52
150 12 51 49 52
151 4 16 18 22
152 4 16 18 23
153 4 16 18 24
154 7 22 18 23
155 7 22 18 24
156 7 23 18 24
157 4 64 66 70
158 4 64 66 71
159 4 64 66 72
160 7 70 66 71
161 7 70 66 72
162 7 71 66 72
163 11 62 61 63
164 11 62 61 64
165 12 63 61 64
166 9 61 64 66
167 9 61 63 65
168 4 51 53 55
169 4 51 53 56
170 4 51 53 57
171 7 55 53 56
172 7 55 53 57
173 7 56 53 57
174 9 49 51 53
175 4 3 5 7
176 4 3 5 8
177 4 3 5 9
178 7 7 5 8
179 7 7 5 9
180 7 8 5 9
181 9 13 16 18
182 9 13 15 17
183 11 14 13 15
184 11 14 13 16
185 12 15 13 16
186 9 201 203 206
187 4 63 65 67
188 4 63 65 68
189 4 63 65 69
190 7 67 65 68
191 7 67 65 69
192 7 68 65 69
193 9 171 173 176
194 4 15 17 19
195 4 15 17 20
196 4 15 17 21
197 7 19 17 20
198 7 19 17 21
199 7 20 17 21
200 13 173 176 175
201 4 175 176 177
202 4 175 176 178
203 6 177 176 178
204 11 122 121 123
205 11 122 121 124
206 12 123 121 124
207 9 1 3 5
208 11 162 161 163
209 11 162 161 164
210 12 163 161 164
211 9 49 52 54
212 9 161 163 166
213 4 52 54 58
214 4 52 54 59
215 4 52 54 60
216 7 58 54 59
217 7 58 54 60
218 7 59 54 60
219 9 121 124 125
220 4 27 29 31
221 4 27 29 32
222 4 27 29 33
223 7 31 29 32
224 7 31 29 33
225 7 32 29 33
226 9 141 144 145
227 9 25 27 29
228 13 154 155 156
229 4 156 155 159
230 4 156 155 160
231 6 159 155 160
232 9 121 123 126
233 13 153 156 155
234 4 155 156 157
235 4 155 156 158
236 6 157 156 158
237 9 151 153 156
238 13 123 126 125
239 4 125 126 127
240 4 125 126 128
241 6 127 126 128
242 18 255 254 256
243 18 257 254 258
244 18 259 254 260
245 17 255 254 257
246 17 255 254 258
247 17 255 254 259
248 17 255 254 260
249 17 256 254 257
250 17 256 254 258
251 17 256 254 259
252 17 256 254 260
253 17 257 254 259
254 17 257 254 260
255 17 258 254 259
256 17 258 254 260
257 13 124 125 126
258 4 126 125 129
259 4 126 125 130
260 6 129 125 130
261 11 2 1 3
262 11 2 1 4
263 12 3 1 4
264 11 86 85 87
265 11 86 85 88
266 12 87 85 88
267 4 4 6 10
268 4 4 6 11
269 4 4 6 12
270 7 10 6 11
271 7 10 6 12
272 7 11 6 12
273 9 1 4 6
274 9 85 87 89
275 4 87 89 91
276 4 87 89 92
277 4 87 89 93
278 7 91 89 92
279 7 91 89 93
280 7 92 89 93
281 18 227 226 228
282 18 229 226 230
283 18 231 226 232
284 17 227 226 229
285 17 227 226 230
286 17 227 226 231
287 17 227 226 232
288 17 228 226 229
289 17 228 226 230
290 17 228 226 231
291 17 228 226 232
292 17 229 226 231
293 17 229 226 232
294 17 230 226 231
295 17 230 226 232
296 4 111 113 115
297 4 111 113 116
298 4 111 113 117
299 7 115 113 116
300 7 115 113 117
301 7 116 113 117
302 13 174 175 176
303 4 176 175 179
304 4 176 175 180
305 6 179 175 180
306 9 109 111 113
307 9 171 174 175
308 11 172 171 173
309 11 172 171 174
310 12 173 171 174
311 11 110 109 111
312 11 110 109 112
313 12 111 109 112
314 9 211 214 215
315 9 85 88 90
316 9 201 204 205
317 11 202 201 203
318 11 202 201 204
319 12 203 201 204
320 13 144 145 146
321 4 146 145 149
322 4 146 145 150
323 6 149 145 150
324 9 25 28 30
325 11 26 25 27
326 11 26 25 28
327 12 27 25 28
328 4 100 102 106
329 4 100 102 107
330 4 100 102 108
331 7 106 102 107
332 7 106 102 108
333 7 107 102 108
334 11 212 211 213
335 11 212 211 214
336 12 213 211 214
337 4 28 30 34
338 4 28 30 35
339 4 28 30 36
340 7 34 30 35
341 7 34 30 36
342 7 35 30 36
343 9 211 213 216
344 13 213 216 215
345 4 215 216 217
346 4 215 216 218
347 6 217 216 218
348 9 97 100 102
349 9 97 99 101
350 11 98 97 99
351 11 98 97 100
352 12 99 97 100
353 4 99 101 103
354 4 99 101 104
355 4 99 101 105
356 7 103 101 104
357 7 103 101 105
358 7 104 101 105
359 9 109 112 114
360 13 214 215 216
361 4 216 215 219
362 4 216 215 220
363 6 219 215 220
364 4 112 114 118
365 4 112 114 119
366 4 112 114 120
367 7 118 114 119
368 7 118 114 120
369 7 119 114 120
370 4 88 90 94
371 4 88 90 95
372 4 88 90 96
373 7 94 90 95
374 7 94 90 96
375 7 95 90 96

Dihedrals

1 5 181 183 186 185
2 8 182 181 183 186
3 8 182 181 184 185
4 7 183 186 185 184
5 7 181 184 185 186
6 8 192 191 193 196
7 8 192 191 194 195
8 8 152 151 153 156
9 8 152 151 154 155
10 5 191 193 196 195
11 7 191 194 195 196
12 7 151 154 155 156
13 7 193 196 195 194
14 8 132 131 133 136
15 8 132 131 134 135
16 7 131 134 135 136
17 7 133 136 135 134
18 5 131 133 136 135
19 7 163 166 165 164
20 6 37 40 42 46
21 6 37 40 42 47
22 6 37 40 42 48
23 8 74 73 75 77
24 8 74 73 76 78
25 7 161 164 165 166
26 8 38 37 39 41
27 8 38 37 40 42
28 7 203 206 205 204
29 6 37 39 41 43
30 6 37 39 41 44
31 6 37 39 41 45
32 5 141 143 146 145
33 8 142 141 143 146
34 8 142 141 144 145
35 7 143 146 145 144
36 6 73 75 77 79
37 6 73 75 77 80
38 6 73 75 77 81
39 6 73 76 78 82
40 6 73 76 78 83
41 6 73 76 78 84
42 8 50 49 51 53
43 8 50 49 52 54
44 8 62 61 63 65
45 8 62 61 64 66
46 6 61 64 66 70
47 6 61 64 66 71
48 6 61 64 66 72
49 6 61 63 65 67
50 6 61 63 65 68
51 6 61 63 65 69
52 6 49 51 53 55
53 6 49 51 53 56
54 6 49 51 53 57
55 6 13 16 18 22
56 6 13 16 18 23
57 6 13 16 18 24
58 6 13 15 17 19
59 6 13 15 17 20
60 6 13 15 17 21
61 8 14 13 15 17
62 8 14 13 16 18
63 5 201 203 206 205
64 5 171 173 176 175
65 7 173 176 175 174
66 8 122 121 123 126
67 8 122 121 124 125
68 6 1 3 5 7
69 6 1 3 5 8
70 6 1 3 5 9
71 8 162 161 163 166
72 8 162 161 164 165
73 6 49 52 54 58
74 6 49 52 54 59
75 6 49 52 54 60
76 5 161 163 166 165
77 7 121 124 125 126
78 7 141 144 145 146
79 6 25 27 29 31
80 6 25 27 29 32
81 6 25 27 29 33
82 5 121 123 126 125
83 7 153 156 155 154
84 5 151 153 156 155
85 7 123 126 125 124
86 8 2 1 3 5
87 8 2 1 4 6
88 8 86 85 87 89
89 8 86 85 88 90
90 6 1 4 6 10
91 6 1 4 6 11
92 6 1 4 6 12
93 6 85 87 89 91
94 6 85 87 89 92
95 6 85 87 89 93
96 6 109 111 113 115
97 6 109 111 113 116
98 6 109 111 113 117
99 7 171 174 175 176
100 8 172 171 173 176
101 8 172 171 174 175
102 8 110 109 111 113
103 8 110 109 112 114
104 7 211 214 215 216
105 6 85 88 90 94
106 6 85 88 90 95
107 6 85 88 90 96
108 7 201 204 205 206
109 8 202 201 203 206
110 8 202 201 204 205
111 6 25 28 30 34
112 6 25 28 30 35
113 6 25 28 30 36
114 8 26 25 27 29
115 8 26 25 28 30
116 8 212 211 213 216
117 8 212 211 214 215
118 5 211 213 216 215
119 7 213 216 215 214
120 6 97 100 102 106
121 6 97 100 102 107
122 6 97 100 102 108
123 6 97 99 101 103
124 6 97 99 101 104
125 6 97 99 101 105
126 8 98 97 99 101
127 8 98 97 100 102
128 6 109 112 114 118
129 6 109 112 114 119
130 6 109 112 114 120
