LAMMPS (23 Jun 2022 - Update 4)
package gpu 0
package gpu 1
# =============================================================================
# LAMMPS能量最小化输入脚本
# 由Jinja2模板引擎自动生成
# 生成时间: 2026-06-07
# 任务ID: test_001
# =============================================================================

# 初始化设置
units           real
atom_style      full
dimension       3
boundary        p p p

# 力场样式设置
bond_style      harmonic
angle_style     harmonic
dihedral_style  opls
improper_style  harmonic
pair_style      lj/cut/coul/long 12.0 12.0
special_bonds   lj 0.0 0.0 0.5 coul 0.0 0.0 0.5
kspace_style    pppm 1.0e-4

# 读取结构文件
read_data       system.data
Reading data file ...
  orthogonal box = (0 0 0) to (48 48 48)
  1 by 1 by 1 MPI processor grid
  reading atoms ...
  260 atoms
  scanning bonds ...
  6 = max bonds/atom
  scanning angles ...
  15 = max angles/atom
  scanning dihedrals ...
  3 = max dihedrals/atom
  reading bonds ...
  240 bonds
  reading angles ...
  375 angles
  reading dihedrals ...
  130 dihedrals
Finding 1-2 1-3 1-4 neighbors ...
  special bond factors lj:    0        0        0.5     
  special bond factors coul:  0        0        0.5     
     6 = max # of 1-2 neighbors
     5 = max # of 1-3 neighbors
     9 = max # of 1-4 neighbors
    11 = max # of special neighbors
  special bonds CPU = 0.000 seconds
  read_data CPU = 0.021 seconds

# 力场参数
include         system.in.settings
pair_coeff 1 1 0.066 3.50
pair_coeff 2 2 0.066 3.50
pair_coeff 3 3 0.066 3.50
pair_coeff 4 4 0.066 3.50
pair_coeff 5 5 0.070 3.55
pair_coeff 6 6 0.070 3.55
pair_coeff 7 7 0.070 3.55
pair_coeff 8 8 0.070 3.55
pair_coeff 9 9 0.105 3.75
pair_coeff 10 10 0.105 3.75
pair_coeff 11 11 0.030 2.50
pair_coeff 12 12 0.030 2.50
pair_coeff 13 13 0.030 2.50
pair_coeff 14 14 0.030 2.42
pair_coeff 15 15 0.030 2.50
pair_coeff 16 16 0.030 2.50
pair_coeff 17 17 0.030 2.50
pair_coeff 18 18 0.170 3.00
pair_coeff 19 19 0.170 3.00
pair_coeff 20 20 0.170 2.96
pair_coeff 21 21 0.170 3.00
pair_coeff 22 22 0.170 3.25
pair_coeff 23 23 0.170 3.25
pair_coeff 24 24 0.170 3.25
pair_coeff 25 25 0.170 3.25
pair_coeff 26 26 0.255 2.95
pair_coeff 27 27 0.200 3.70
pair_coeff 28 28 0.0025 1.506
pair_coeff 29 29 0.250 3.55
pair_coeff 30 30 0.250 3.55
# 碳-碳键
bond_coeff 1  268.0  1.529   # C-C单键 (sp3-sp3)
bond_coeff 2  414.0  1.330   # C=C双键 (sp2-sp2)
bond_coeff 3 320.0  1.400   # 芳香C-C键

# 碳-氢键
bond_coeff 4     340.0  1.090   # C-H键 (sp3碳)
bond_coeff 5     340.0  1.080   # C-H键 (sp2碳)
bond_coeff 6    340.0  1.080   # C-H键 (芳香碳)

# 碳-氧键
bond_coeff 7  320.0  1.410   # C-O单键 (醇、醚)
bond_coeff 8  570.0  1.229   # C=O双键 (羰基)
bond_coeff 9    320.0  1.360   # C-O键 (羧酸)

# 碳-氮键
bond_coeff 10  300.0  1.470   # C-N单键 (胺)
bond_coeff 11  440.0  1.270   # C=N双键 (亚胺)
bond_coeff 12   350.0  1.340   # C-N键 (酰胺)

# 氧-氢键
bond_coeff 13         340.0  0.960   # O-H键 (醇、羧酸)

# 氮-氢键
bond_coeff 14         340.0  1.010   # N-H键 (胺)

# 磷-氟键 (PF6)
bond_coeff 15         420.0  1.560   # P-F键 (六氟磷酸盐)

# 硫-碳键
bond_coeff 16         200.0  1.810   # S-C键 (硫醚)

# 硫-氧键
bond_coeff 17         300.0  1.430   # S-O键 (磺酰基)
# 碳-碳-碳角度
angle_coeff 1    50.0  109.5   # C-C-C (sp3)
angle_coeff 2    80.0  120.0   # C-C-C (sp2)
angle_coeff 3   60.0  120.0   # C-C-C (芳香)

# 碳-碳-氢角度
angle_coeff 4    37.5  110.7   # C-C-H (sp3)
angle_coeff 5    40.0  120.0   # C-C-H (sp2)

# 氢-碳-氢角度
angle_coeff 6    33.0  106.4   # H-C-H (sp3亚甲基)
angle_coeff 7   33.0  107.8   # H-C-H (sp3甲基)
angle_coeff 8    35.0  120.0   # H-C-H (sp2)

# 碳-氧-碳角度
angle_coeff 9  60.0  109.5   # C-O-C (醚)
angle_coeff 10  60.0  124.0   # C-O-C (酯)

# 氧-碳-氧角度
angle_coeff 11   80.0  123.0   # O-C=O (羰基)
angle_coeff 12  80.0  120.4   # O-C-O (酯)

# 碳-碳-氧角度
angle_coeff 13        50.0  109.5   # C-C-O

# 碳-氧-氢角度
angle_coeff 14        50.0  109.5   # C-O-H (醇)

# 碳-氮-碳角度
angle_coeff 15        50.0  109.5   # C-N-C (胺)
angle_coeff 16  50.0  120.0   # C-N-C (酰胺)

# 氟-磷-氟角度 (PF6)
angle_coeff 17        80.0   90.0   # F-P-F (六氟磷酸盐)
angle_coeff 18    80.0  180.0   # F-P-F (对角)
# 碳-碳-碳-碳二面角
dihedral_coeff 1  0.0  0.0  0.278  0.0   # C-C-C-C (烷烃)
dihedral_coeff 2  0.0  0.0  0.0    0.0   # C-C-C-C (烯烃)

# 碳-碳-碳-氢二面角
dihedral_coeff 3  0.0  0.0  0.278  0.0   # C-C-C-H

# 氢-碳-碳-氢二面角
dihedral_coeff 4 0.0  0.0  0.278  0.0   # H-C-C-H

# 碳-氧-碳-碳二面角
dihedral_coeff 5  0.5 -0.5  0.5   0.0   # C-O-C-C (醚)
dihedral_coeff 6 0.0  0.0  0.0   0.0   # C-O-C-C (酯)

# 碳-碳-氧-碳二面角
dihedral_coeff 7  0.0  0.0  0.0   0.0   # C-C-O-C

# 氧-碳-氧-碳二面角
dihedral_coeff 8  0.0  0.0  0.0   0.0   # O-C-O-C (碳酸酯)

# 碳-碳-氧=碳二面角
dihedral_coeff 9 0.0  0.0  0.0  0.0   # C-C-O=C (羰基)
# 羰基平面构型
improper_coeff 1  10.0  0.0   # C=O平面

# 芳香平面构型
improper_coeff 2  10.0  0.0   # 芳香平面
pair_coeff 31 31 0.00034 2.126

# 邻居列表设置
neighbor        2.0 bin
neigh_modify    every 1 delay 0 check yes

# 热力学输出
thermo          100
thermo_style    custom step temp pe ke etotal press vol

# 最小化设置
min_style       cg
minimize        0.0001 1e-06 1000 10000

CITE-CITE-CITE-CITE-CITE-CITE-CITE-CITE-CITE-CITE-CITE-CITE-CITE

Your simulation uses code contributions which should be cited:

- GPU package (short-range, long-range and three-body potentials):

@Article{Brown11,
 author = {W. M. Brown, P. Wang, S. J. Plimpton, A. N. Tharrington},
 title = {Implementing Molecular Dynamics on Hybrid High Performance Computers - Short Range Forces},
 journal = {Comp.~Phys.~Comm.},
 year =    2011,
 volume =  182,
 pages =   {898--911}
}

@Article{Brown12,
 author = {W. M. Brown, A. Kohlmeyer, S. J. Plimpton, A. N. Tharrington},
 title = {Implementing Molecular Dynamics on Hybrid High Performance Computers - Particle-Particle Particle-Mesh},
 journal = {Comp.~Phys.~Comm.},
 year =    2012,
 volume =  183,
 pages =   {449--459}
}

@Article{Brown13,
 author = {W. M. Brown, Y. Masako},
 title = {Implementing Molecular Dynamics on Hybrid High Performance Computers – Three-Body Potentials},
 journal = {Comp.~Phys.~Comm.},
 year =    2013,
 volume =  184,
 pages =   {2785--2793}
}

@Article{Trung15,
 author = {T. D. Nguyen, S. J. Plimpton},
 title = {Accelerating dissipative particle dynamics simulations for soft matter systems},
 journal = {Comput.~Mater.~Sci.},
 year =    2015,
 volume =  100,
 pages =   {173--180}
}

@Article{Trung17,
 author = {T. D. Nguyen},
 title = {GPU-accelerated Tersoff potentials for massively parallel Molecular Dynamics simulations},
 journal = {Comp.~Phys.~Comm.},
 year =    2017,
 volume =  212,
 pages =   {113--122}
}

@Article{Nikolskiy19,
 author = {V. Nikolskiy, V. Stegailov},
 title = {GPU acceleration of four-site water models in LAMMPS},
 journal = {Proceeding of the International Conference on Parallel Computing (ParCo 2019), Prague, Czech Republic},
 year =    2019
}

CITE-CITE-CITE-CITE-CITE-CITE-CITE-CITE-CITE-CITE-CITE-CITE-CITE

PPPM initialization ...
WARNING: System is not charge neutral, net charge = 1.2 (../kspace.cpp:327)
  using 12-bit tables for long-range coulomb (../kspace.cpp:342)
  G vector (1/distance) = 0.17877424
  grid = 12 12 12
  stencil order = 5
  estimated absolute RMS force accuracy = 0.018328777
  estimated relative force accuracy = 5.5196569e-05
  using double precision KISS FFT
  3d grid and FFT values/proc = 4913 1728
Generated 465 of 465 mixed pair_coeff terms from geometric mixing rule
WARNING: Inconsistent image flags (../domain.cpp:819)
WARNING: Bond/angle/dihedral extent > half of periodic box length (../domain.cpp:940)
Per MPI rank memory allocation (min/avg/max) = 12.98 | 12.98 | 12.98 Mbytes
   Step          Temp          PotEng         KinEng         TotEng         Press          Volume    
         0   0              1.1588163e+09  0              1.1588163e+09  2.8578026e+09  110592       
       100   0              1532950.9      0              1532950.9     -695259.16      110592       
       200   0              141759.87      0              141759.87     -76229.32       110592       
       300   0             -163.86354      0             -163.86354      6.4822249      110592       
       400   0             -843.94015      0             -843.94015     -91.781127      110592       
       500   0             -1024.8508      0             -1024.8508     -74.661683      110592       
       600   0             -1140.5133      0             -1140.5133     -31.183291      110592       
       700   0             -1214.0504      0             -1214.0504     -29.891186      110592       
       800   0             -1256.96        0             -1256.96       -24.923877      110592       
       845   0             -1280.8044      0             -1280.8044     -44.412962      110592       
Loop time of 0.918508 on 1 procs for 845 steps with 260 atoms

83.8% CPU use with 1 MPI tasks x no OpenMP threads

Minimization stats:
  Stopping criterion = energy tolerance
  Energy initial, next-to-last, final = 
      1158816345.28871  -1280.68214351305   -1280.8044010735
  Force two-norm initial, final = 1.5868529e+10 14.194924
  Force max component initial, final = 4.5516875e+09 3.5144682
  Final line search alpha, max atom move = 0.008321658 0.029246202
  Iterations, force evaluations = 845 1324

MPI task timing breakdown:
Section |  min time  |  avg time  |  max time  |%varavg| %total
---------------------------------------------------------------
Pair    | 0.31273    | 0.31273    | 0.31273    |   0.0 | 34.05
Bond    | 0.046632   | 0.046632   | 0.046632   |   0.0 |  5.08
Kspace  | 0.54765    | 0.54765    | 0.54765    |   0.0 | 59.62
Neigh   | 0.0018156  | 0.0018156  | 0.0018156  |   0.0 |  0.20
Comm    | 0.0029637  | 0.0029637  | 0.0029637  |   0.0 |  0.32
Output  | 0.00020329 | 0.00020329 | 0.00020329 |   0.0 |  0.02
Modify  | 8.2166e-05 | 8.2166e-05 | 8.2166e-05 |   0.0 |  0.01
Other   |            | 0.006438   |            |       |  0.70

Nlocal:            260 ave         260 max         260 min
Histogram: 1 0 0 0 0 0 0 0 0 0
Nghost:            287 ave         287 max         287 min
Histogram: 1 0 0 0 0 0 0 0 0 0
Neighs:              0 ave           0 max           0 min
Histogram: 1 0 0 0 0 0 0 0 0 0

Total # of neighbors = 0
Ave neighs/atom = 0
Ave special neighs/atom = 6.8846154
Neighbor list builds = 63
Dangerous builds = 0

# 输出最小化后的构型
write_data      minimized.data
System init for write_data ...
PPPM initialization ...
  using 12-bit tables for long-range coulomb (../kspace.cpp:342)
  G vector (1/distance) = 0.17877424
  grid = 12 12 12
  stencil order = 5
  estimated absolute RMS force accuracy = 0.018328777
  estimated relative force accuracy = 5.5196569e-05
  using double precision KISS FFT
  3d grid and FFT values/proc = 4913 1728
Generated 465 of 465 mixed pair_coeff terms from geometric mixing rule
Total wall time: 0:00:01
