LAMMPS data file via write_data, version 23 Jun 2022, timestep = 845

260 atoms
31 atom types
240 bonds
17 bond types
375 angles
18 angle types
130 dihedrals
9 dihedral types
0 impropers
2 improper types

0 48 xlo xhi
0 48 ylo yhi
0 48 zlo zhi

Masses

1 12.011
2 12.011
3 12.011
4 12.011
5 12.011
6 12.011
7 12.011
8 12.011
9 12.011
10 12.011
11 1.008
12 1.008
13 1.008
14 1.008
15 1.008
16 1.008
17 1.008
18 15.999
19 15.999
20 15.999
21 15.999
22 14.007
23 14.007
24 14.007
25 14.007
26 18.998
27 30.974
28 6.941
29 32.065
30 32.065
31 6.941

Pair Coeffs # lj/cut/coul/long/gpu

1 0.066 3.5
2 0.066 3.5
3 0.066 3.5
4 0.066 3.5
5 0.07 3.55
6 0.07 3.55
7 0.07 3.55
8 0.07 3.55
9 0.105 3.75
10 0.105 3.75
11 0.03 2.5
12 0.03 2.5
13 0.03 2.5
14 0.03 2.42
15 0.03 2.5
16 0.03 2.5
17 0.03 2.5
18 0.17 3
19 0.17 3
20 0.17 2.96
21 0.17 3
22 0.17 3.25
23 0.17 3.25
24 0.17 3.25
25 0.17 3.25
26 0.255 2.95
27 0.2 3.7
28 0.0025 1.506
29 0.25 3.55
30 0.25 3.55
31 0.00034 2.126

Bond Coeffs # harmonic

1 268 1.529
2 414 1.33
3 320 1.4
4 340 1.09
5 340 1.08
6 340 1.08
7 320 1.41
8 570 1.229
9 320 1.36
10 300 1.47
11 440 1.27
12 350 1.34
13 340 0.96
14 340 1.01
15 420 1.56
16 200 1.81
17 300 1.43

Angle Coeffs # harmonic

1 50 109.5
2 80 120
3 60 120
4 37.5 110.7
5 40 120
6 33 106.4
7 33 107.8
8 35 120
9 60 109.5
10 60 124
11 80 123
12 80 120.4
13 50 109.5
14 50 109.5
15 50 109.5
16 50 120
17 80 90
18 80 180

Dihedral Coeffs # opls

1 0 0 0.278 0
2 0 0 0 0
3 0 0 0.278 0
4 0 0 0.278 0
5 0.5 -0.5 0.5 0
6 0 0 0 0
7 0 0 0 0
8 0 0 0 0
9 0 0 0 0

Improper Coeffs # harmonic

1 10 0
2 10 0

Atoms # full

53 5 1 0.22 17.955762290481207 11.871076188371513 16.886078532634432 0 0 0
114 10 1 0.22 12.31371631270487 20.25936714027179 18.961702898638816 0 0 0
115 10 11 0.06 11.965479161706012 16.886093100296236 16.10582487422258 0 0 0
116 10 11 0.06 11.72805316268571 18.18148696925611 14.947637490161682 0 0 0
223 23 31 1 22.546824288272262 12.72730317825755 11.926171166437397 0 0 0
37 4 9 0.52 22.997510029892364 12.181037926776549 9.218439779234853 0 0 0
38 4 20 -0.5 22.866456650107978 12.06618594486908 10.441529253381757 0 0 0
39 4 19 -0.35 24.212416439195973 12.63826180266106 8.671370896173409 0 0 0
40 4 19 -0.35 21.95353846675589 11.811417051971821 8.344044202102596 0 0 0
41 4 1 0.22 24.150890966792012 13.973334413273216 8.175630361807826 0 0 0
42 4 1 0.22 20.77928417156869 12.592114229234134 8.521899387734614 0 0 0
43 4 11 0.06 25.01131295318493 14.1778753554313 7.537697231963617 0 0 0
45 4 11 0.06 23.266141472891892 14.174219870733948 7.5713636177336125 0 0 0
46 4 11 0.06 19.978835049508852 12.226428284869275 7.878143317653412 0 0 0
47 4 11 0.06 20.397128754793652 12.536475148105266 9.542180443687293 0 0 0
48 4 11 0.06 20.9348404215759 13.645213808277997 8.27519399037675 0 0 0
49 5 9 0.52 17.127025974713263 13.74049492259429 15.694825038417493 0 0 0
50 5 20 -0.5 16.295289540809605 14.642740125518396 15.717706513082021 0 0 0
51 5 19 -0.35 17.684210540744132 13.267553467667812 16.905925286794922 0 0 0
52 5 19 -0.35 17.768567007448414 13.438664785352904 14.479740546236002 0 0 0
54 5 1 0.22 18.98041404600132 14.161091753345357 14.329572394441582 0 0 0
247 29 27 1.34 21.776010702092762 15.283122253239034 11.782827973260165 0 0 0
248 29 26 -0.39 21.087956213767864 13.889712607897787 11.755317443101584 0 0 0
251 29 26 -0.39 23.116388647032196 14.495747729413267 11.751586719690776 0 0 0
253 29 26 -0.39 21.810898547792902 15.237353063341136 13.333116138102758 0 0 0
44 4 11 0.06 24.176441733896954 14.71028394317047 8.977837751045609 0 0 0
28 3 19 -0.35 11.061227457477269 22.946112825124548 44.75974307299645 0 0 -1
29 3 1 0.22 8.423043015860554 22.631208192309494 42.95688979690251 0 0 -1
30 3 1 0.22 11.83464642466605 22.5776476790939 45.89140801121766 0 0 -1
32 3 11 0.06 9.287700776494717 22.386762182637163 42.33717044371473 0 0 -1
34 3 11 0.06 12.854002430179474 22.949343655681844 45.789020817880626 0 0 -1
35 3 11 0.06 11.435120648539405 22.984452169873634 46.82272223856025 0 0 -1
104 9 11 0.06 15.442135652884945 23.22860613802925 15.247310406560066 0 0 0
105 9 11 0.06 14.443471537308913 22.47554219607655 16.495491753857674 0 0 0
106 9 11 0.06 10.025060216800272 24.20499551854318 16.740359723402463 0 0 0
107 9 11 0.06 10.610834526841087 23.29507416557416 15.356931294948694 0 0 0
108 9 11 0.06 11.365713104705831 23.09620168365698 16.940524479381015 0 0 0
109 10 9 0.52 11.372786994447631 20.035090140299747 16.814053638483816 0 0 0
110 10 20 -0.5 10.813885244925755 20.669263148617464 15.923083124849514 0 0 0
111 10 19 -0.35 11.195986854602703 18.63573158640687 16.91364794641633 0 0 0
112 10 19 -0.35 12.365737808766543 20.66028018383723 17.600990137898552 0 0 0
113 10 1 0.22 12.02305417805578 17.96479649411689 15.976389768309723 0 0 0
183 17 19 -0.35 15.637786296438968 21.34159117162428 13.186686906212557 0 0 0
185 17 2 0.22 13.381167857011393 20.76131915208215 13.6424561137782 0 0 0
186 17 2 0.22 14.338701547284 21.419594548699035 12.63178651666807 0 0 0
189 17 11 0.06 12.77514919553269 19.99275469500683 13.163777055983218 0 0 0
190 17 11 0.06 12.669922298792244 21.486696089433764 14.036919177623878 0 0 0
191 18 9 0.52 17.722320873983872 19.882679406707368 11.032834032219675 0 0 0
221 21 31 1 43.88705628817415 12.885711515702027 17.973010853648823 -1 0 0
224 24 31 1 4.159847121721176 31.079870621822053 0.6064000133262071 0 0 0
1 1 9 0.52 21.45795695548568 20.154868594223686 11.821399935149525 0 0 0
2 1 20 -0.5 21.008205075989977 21.300639033645616 11.792731544164448 0 0 0
3 1 19 -0.35 21.09857190788202 19.309163524046635 10.761951648346171 0 0 0
4 1 19 -0.35 21.586599888957114 19.558868679763624 13.089129773481773 0 0 0
5 1 1 0.22 22.11093901193722 19.15326213475695 9.781881428534897 0 0 0
6 1 1 0.22 22.915310928055934 19.16996347327755 13.406009497310828 0 0 0
7 1 11 0.06 22.329264465011928 20.088303103206897 9.263446860206862 0 0 0
8 1 11 0.06 23.043401140359926 18.764465392038097 10.191273930040355 0 0 0
9 1 11 0.06 21.774002268368832 18.439013566693596 9.032270037737707 0 0 0
82 7 11 0.06 15.987868315218822 15.45944292155957 17.99541743096417 0 0 0
83 7 11 0.06 17.54066478649055 16.259257883129234 18.000380590419567 0 0 0
84 7 11 0.06 16.938672189784022 15.509421605964361 19.471035339793673 0 0 0
85 8 9 0.52 19.422859849830317 22.803443256990732 14.579129395836803 0 0 0
86 8 20 -0.5 19.194361413249432 22.76899138936532 13.367013599508251 0 0 0
87 8 19 -0.35 19.898018152565683 23.978142147290857 15.213146943927953 0 0 0
88 8 19 -0.35 19.59872462690574 21.581217909779813 15.252335315375642 0 0 0
89 8 1 0.22 19.577045000736526 25.18419131732275 14.533800016887838 0 0 0
90 8 1 0.22 18.738496227360827 21.44558626258231 16.37392928100962 0 0 0
182 17 20 -0.5 16.46272229089396 19.96029564013351 14.833677121335784 0 0 0
184 17 19 -0.35 14.181396415447177 20.21929194612799 14.67568435218765 0 0 0
187 17 11 0.06 14.36361493518098 20.86321530923487 11.694403351810328 0 0 0
188 17 11 0.06 13.999108738728449 22.42190386445442 12.368721624287115 0 0 0
192 18 20 -0.5 18.19132783690816 20.96908325520448 11.374710109821251 0 0 0
193 18 19 -0.35 17.086545870351756 19.736708066269657 9.794103562773087 0 0 0
194 18 19 -0.35 18.267927395736702 18.706374569578553 11.554561470612205 0 0 0
195 18 2 0.22 18.23521319201233 17.780326363725393 10.48530422117935 0 0 0
196 18 2 0.22 17.288329088110665 18.383757107144387 9.436332457122024 0 0 0
197 18 11 0.06 16.32374360365815 17.87459240086975 9.440723799355615 0 0 0
198 18 11 0.06 17.69708438556043 18.263458367866498 8.433088183358086 0 0 0
199 18 11 0.06 19.23909587223625 17.685750903300967 10.070445807013837 0 0 0
200 18 11 0.06 17.941291395500883 16.759485612065667 10.72895538655801 0 0 0
201 19 9 0.52 14.447931572852841 17.450312630314386 12.287618672492544 0 0 0
202 19 20 -0.5 14.012739945583052 18.307506951579153 11.525276211287341 0 0 0
203 19 19 -0.35 15.742128709203945 16.94384645088678 12.126158152836332 0 0 0
204 19 19 -0.35 13.931609588496926 17.316825457365848 13.584459903127268 0 0 0
205 19 2 0.22 15.049609876814616 16.998551607807592 14.392453371058588 0 0 0
206 19 2 0.22 16.239663768416957 16.801130524220596 13.441421694761127 0 0 0
207 19 11 0.06 16.505824461267203 15.748124754337853 13.357051543929812 0 0 0
222 22 31 1 19.44088694832354 21.646646018540352 12.178387744142027 0 0 0
240 28 27 1.34 23.894877242803496 17.817781573811583 6.6000299106473985 0 0 0
241 28 26 -0.39 24.8470911706226 16.591632206919183 6.460237696042088 0 0 0
242 28 26 -0.39 22.937321201432784 19.040711595365188 6.751370834173043 0 0 0
243 28 26 -0.39 24.43437015719817 18.069401937405907 8.041438720762827 0 0 0
244 28 26 -0.39 23.347019073662263 17.562822102283604 5.164507585741744 0 0 0
245 28 26 -0.39 22.791315715734882 16.88236732847324 7.185648944556086 0 0 0
246 28 26 -0.39 24.998864773262625 18.753881102622667 6.023284064892278 0 0 0
249 29 26 -0.39 22.516925902880367 16.64617439765374 11.795350336816254 0 0 0
250 29 26 -0.39 20.40153206796218 16.011106610389124 11.834123751973687 0 0 0
252 29 26 -0.39 21.7356268104971 15.294971596403352 10.230253377248268 0 0 0
31 3 11 0.06 7.934452437557763 21.69667729763041 43.240337437791084 0 0 -1
33 3 11 0.06 7.7224263225011995 23.182187744443016 42.33074215017449 0 0 -1
36 3 11 0.06 11.895286544872704 21.49298069131979 45.997294484062735 0 0 -1
22 2 11 0.06 15.278275911942202 18.81583692887445 25.82738283185494 0 0 0
23 2 11 0.06 15.586981836106604 17.783857108430638 24.42850982589444 0 0 0
24 2 11 0.06 15.154836383052336 19.469933742547 24.205039956254367 0 0 0
25 3 9 0.52 9.674515714360574 22.701477040356508 44.92018281989075 0 0 0
27 3 19 -0.35 8.78510882246755 23.408577377630344 44.08625633855809 0 0 0
64 6 19 -0.35 14.258655444713067 12.82543306561939 17.290110111800107 0 0 0
65 6 1 0.22 12.84114585686973 11.506236796603119 19.875420459438278 0 0 0
66 6 1 0.22 13.391588548030633 13.858538078618365 16.8462556073559 0 0 0
67 6 11 0.06 12.658527796538346 10.537399353886554 20.337448752308234 0 0 0
68 6 11 0.06 12.079252937095756 11.647208832205644 19.106675810745923 0 0 0
69 6 11 0.06 12.69355970096505 12.264407467716845 20.646764662862275 0 0 0
70 6 11 0.06 12.464871740647471 13.89932538326957 17.41832388082114 0 0 0
71 6 11 0.06 13.86813978420877 14.83667525846116 16.908538963683046 0 0 0
72 6 11 0.06 13.115784327497192 13.702657968856277 15.803410818698632 0 0 0
130 11 11 0.06 17.85341156577836 23.099373237419123 25.82244265793314 0 0 0
131 12 9 0.52 9.52705991803248 14.041018863561625 16.183291739085444 0 0 0
132 12 20 -0.5 10.358171047271249 14.939425315621323 16.274375673052027 0 0 0
133 12 19 -0.35 9.933027126928883 12.69946382160296 16.136962180667407 0 0 0
135 12 2 0.22 7.749221805819122 12.973913889951664 17.022112115197544 0 0 0
136 12 2 0.22 8.842690245150548 11.961190387702953 16.651098518742437 0 0 0
140 12 11 0.06 7.550070700378037 12.950068474615602 18.094664969436817 0 0 0
141 13 9 0.52 7.016656149563159 9.926870721313934 19.02118738500457 0 0 0
142 13 20 -0.5 6.412255241300853 10.493944732936711 18.115604096759963 0 0 0
143 13 19 -0.35 6.7040446141580485 10.181401778157367 20.364689971975224 0 0 0
144 13 19 -0.35 8.313947319766243 9.436371572775442 18.806024760160156 0 0 0
145 13 2 0.22 8.965442175964762 9.553031335767747 20.054075069665735 0 0 0
146 13 2 0.22 7.940800993565893 10.127866665715517 21.043914566001074 0 0 0
147 13 11 0.06 8.260890671915561 11.102151345462355 21.41390518984275 0 0 0
148 13 11 0.06 7.849339005324326 9.485438062140364 21.919822703148924 0 0 0
149 13 11 0.06 9.180253976076445 8.50661985830209 20.27641145479942 0 0 0
150 13 11 0.06 9.91664019400635 10.080079640290501 20.12873556640738 0 0 0
151 14 9 0.52 9.955874066222655 13.931729941518464 19.957780319414955 0 0 0
152 14 20 -0.5 9.781004146488044 12.713533986464725 19.95289868561691 0 0 0
153 14 19 -0.35 11.237565281647381 14.48099497741526 19.817013446496865 0 0 0
154 14 19 -0.35 8.897491800867625 14.823613882338659 19.733189699491238 0 0 0
155 14 2 0.22 9.50690263657329 16.007981365194638 19.252969556443638 0 0 0
56 5 11 0.06 17.03894623876817 11.279978360297232 16.85977368598761 0 0 0
57 5 11 0.06 18.580797435781804 11.56470617627203 16.044760512936083 0 0 0
58 5 11 0.06 19.516478808254107 14.352839605721455 15.262043878140398 0 0 0
62 6 20 -0.5 14.67393782212916 13.776503167400477 19.35591646904711 0 0 0
63 6 19 -0.35 14.14747139051793 11.548087652027695 19.335716776773218 0 0 0
233 27 27 1.34 21.65364220517959 10.911820882009199 14.450949577019482 0 0 0
234 27 26 -0.39 20.305378230878535 11.074069805986172 13.690893759540709 0 0 0
235 27 26 -0.39 23.01340908146377 10.771261588039518 15.193537523077952 0 0 0
236 27 26 -0.39 21.29203078168775 12.145170499656821 15.330183248463856 0 0 0
237 27 26 -0.39 22.01359735349136 9.697721241027518 13.54860276845867 0 0 0
238 27 26 -0.39 22.32855759488863 11.8622131459427 13.403096288783065 0 0 0
239 27 26 -0.39 20.968690523923325 9.97277745353423 15.486535077952324 0 0 0
73 7 9 0.52 14.68041275420951 17.15773698082882 19.293656893232658 0 0 0
74 7 20 -0.5 13.82978784925668 17.03331406276432 18.41415007119837 0 0 0
75 7 19 -0.35 14.286007033587714 17.40085331664033 20.62613861313345 0 0 0
76 7 19 -0.35 16.04345109361371 17.320538621904703 18.959859851488456 0 0 0
77 7 1 0.22 14.32765232049132 16.218528429589433 21.408503755981094 0 0 0
78 7 1 0.22 16.644247614687814 16.08743412327635 18.594804358414788 0 0 0
79 7 11 0.06 13.602633990992866 15.478298713538686 21.06857630350764 0 0 0
80 7 11 0.06 14.087138018731356 16.450022085794707 22.44396647242316 0 0 0
81 7 11 0.06 15.313663810210073 15.75106108084382 21.406850703063213 0 0 0
95 8 11 0.06 17.72159432530168 21.79177645767593 16.182911429142138 0 0 0
98 9 20 -0.5 13.116174648656026 23.99412039276021 14.297596245445668 0 0 0
99 9 19 -0.35 14.1849246576831 24.541055867360956 16.264959905988015 0 0 0
100 9 19 -0.35 11.813087692926688 24.887658771673234 15.964443428347899 0 0 0
134 12 19 -0.35 8.207878685516405 14.246178104118993 16.612997629280983 0 0 0
137 12 11 0.06 9.380834910954535 11.623481940483703 17.536874162897426 0 0 0
138 12 11 0.06 8.400883476753396 11.065167677273482 16.212985010201507 0 0 0
139 12 11 0.06 6.8064649998941285 12.717419966358625 16.538222551465914 0 0 0
156 14 2 0.22 11.026809244826518 15.794857027492414 19.332315836635125 0 0 0
157 14 11 0.06 11.486785271571831 15.985866672335801 18.364137835167988 0 0 0
158 14 11 0.06 11.481153683738361 16.509643256585353 20.017330591570722 0 0 0
159 14 11 0.06 9.179939162428182 16.743127491578267 19.988969126657558 0 0 0
160 14 11 0.06 9.227561566724987 16.417413778703832 18.281348404278763 0 0 0
161 15 9 0.52 11.3130376535469 23.197883588707775 20.695325054012798 0 0 0
162 15 20 -0.5 10.451484592514847 22.32553194743953 20.715544196377664 0 0 0
163 15 19 -0.35 11.612237200421985 23.867081233420766 19.49818949539768 0 0 0
164 15 19 -0.35 12.358518069098496 23.187711206266627 21.632463259023655 0 0 0
165 15 2 0.22 13.471302834289297 23.74077736608198 20.961093758687607 0 0 0
166 15 2 0.22 13.003311751777954 24.112135238624834 19.54391169906006 0 0 0
167 15 11 0.06 13.23125258605918 23.327317277549458 18.821601757636248 0 0 0
168 15 11 0.06 13.517836884907481 25.004127918118012 19.183615583648834 0 0 0
10 1 11 0.06 23.388542968465398 19.917445736867446 14.042729623214045 0 0 0
11 1 11 0.06 23.565451233619385 19.01313842714227 12.54206496133005 0 0 0
14 2 20 -0.5 13.446616429294101 15.963905772339299 24.89158229295758 0 0 0
15 2 19 -0.35 12.923447017611906 17.12763992922393 26.810982815593434 0 0 0
16 2 19 -0.35 13.57870640285179 18.249408061440462 24.763034314446173 0 0 0
55 5 11 0.06 18.494780181293223 11.586791301811092 17.789548414944765 0 0 0
59 5 11 0.06 18.807637881140554 15.118998157737296 13.840373054729852 0 0 0
60 5 11 0.06 19.65748846506408 13.592053051647653 13.704902764738812 0 0 0
61 6 9 0.52 14.385972478460221 12.780129335381822 18.696168819013558 0 0 0
91 8 11 0.06 18.5038428559602 25.29211026859985 14.366616610740666 0 0 0
92 8 11 0.06 20.079055826410524 25.253204933080386 13.56707046835566 0 0 0
93 8 11 0.06 19.900374124847062 26.04293948625316 15.121144527038789 0 0 0
94 8 11 0.06 18.664319197910675 20.398395943011497 16.666607166039302 0 0 0
118 10 11 0.06 11.309165962819229 20.32313947304077 19.382601246687226 0 0 0
120 10 11 0.06 12.96102813963355 20.88845126190809 19.569522502741094 0 0 0
121 11 9 0.52 16.57359414866562 25.39502643911441 26.101982356940958 0 0 0
124 11 19 -0.35 17.184805907778063 24.39888920539552 26.86931404155282 0 0 0
125 11 2 0.22 16.84826423287396 23.180536294823476 26.23576504745162 0 0 0
126 11 2 0.22 15.839977223213397 23.522617417137088 25.124350486110284 0 0 0
169 15 11 0.06 14.147761545655476 22.88787389844698 20.954113120593682 0 0 0
170 15 11 0.06 14.018772189989345 24.56184205194934 21.422149091297157 0 0 0
171 16 9 0.52 19.129945995620027 24.21245021635919 23.04790792055725 0 0 0
172 16 20 -0.5 17.990165035380294 24.315018504162758 22.602228697905257 0 0 0
173 16 19 -0.35 20.095341209914682 23.39804926240102 22.43555090838232 0 0 0
174 16 19 -0.35 19.458855962578046 24.674601621236373 24.3330537752217 0 0 0
175 16 2 0.22 20.672363006280992 24.0120542569457 24.64843426370258 0 0 0
176 16 2 0.22 21.02476502739247 23.106931435889148 23.45899071365465 0 0 0
177 16 11 0.06 21.35416101982814 22.129321308325064 23.807176883809174 0 0 0
178 16 11 0.06 21.866995576593286 23.51937336820469 22.901308592397495 0 0 0
179 16 11 0.06 21.4327153776193 24.784417257745403 24.76369789958419 0 0 0
180 16 11 0.06 20.678170969728267 23.452150827644108 25.58589316169992 0 0 0
181 17 9 0.52 15.497737587424181 20.473328302135492 14.274840723806259 0 0 0
208 19 11 0.06 17.124656484679914 17.317718403464976 13.814483245484405 0 0 0
209 19 11 0.06 15.392677041845568 17.36901050879244 15.360225830711666 0 0 0
210 19 11 0.06 14.534702563887185 16.059440105164622 14.595592785367579 0 0 0
211 20 9 0.52 16.16349496461561 21.220796800341606 19.411280702726255 0 0 0
212 20 20 -0.5 15.341193203454916 21.95596767942497 18.874292380782137 0 0 0
213 20 19 -0.35 15.755550448860054 20.26567941148076 20.35025959931432 0 0 0
214 20 19 -0.35 17.509206855088177 21.604718850285668 19.501312904671188 0 0 0
215 20 2 0.22 17.95991568406103 21.026745020761677 20.71220001167799 0 0 0
216 20 2 0.22 16.931517843399522 19.943182351668842 21.065528913507645 0 0 0
217 20 11 0.06 17.422648085935965 18.986528948375234 21.248539359750595 0 0 0
218 20 11 0.06 16.37900450598769 20.188054490849673 21.970613542413833 0 0 0
219 20 11 0.06 17.96531393120529 21.810174346696243 21.471282099676653 0 0 0
220 20 11 0.06 18.97039061252888 20.61634494140695 20.702466996238115 0 0 0
228 26 26 -0.39 19.98958909494518 25.93488167777797 27.08021263816436 0 0 0
231 26 26 -0.39 20.453814221502505 27.236535224269357 25.47874381209395 0 0 0
254 30 27 1.34 18.619365814645185 19.988807781940366 24.609224250680747 0 0 0
255 30 26 -0.39 19.353213076075612 21.149767636399798 25.34003715805512 0 0 0
256 30 26 -0.39 17.875609168772066 18.839510987139118 23.86753131476985 0 0 0
257 30 26 -0.39 19.691290724057257 18.98223410019779 25.113345827918074 0 0 0
258 30 26 -0.39 17.540613204469352 20.993033842719477 24.103938394903 0 0 0
259 30 26 -0.39 19.461820983606593 20.25897010166172 23.328971352262926 0 0 0
260 30 26 -0.39 17.753709764222762 19.73252657275905 25.878462247291917 0 0 0
225 25 31 1 18.765256150873757 26.80164504783864 26.04962914459461 0 0 0
96 8 11 0.06 19.121237556207042 21.997650434898787 17.233064535694144 0 0 0
97 9 9 0.52 13.036711834217101 24.41249917093257 15.45148789977736 0 0 0
101 9 1 0.22 14.997034539864838 23.379461554418803 16.231207484100278 0 0 0
102 9 1 0.22 10.92444990063848 23.823340823026786 16.25884027623801 0 0 0
103 9 11 0.06 15.822327531008732 23.483110728610633 16.933892926800045 0 0 0
19 2 11 0.06 13.629719273891638 15.275101484658574 27.464902011587053 0 0 0
20 2 11 0.06 13.47064190463749 16.506368555228605 28.703977684149343 0 0 0
21 2 11 0.06 14.801995833950564 16.592785814163346 27.56318187951349 0 0 0
26 3 20 -0.5 9.257977215153666 21.797337672256063 45.640481475845334 0 0 0
123 11 19 -0.35 15.633764887320044 24.924170973128458 25.18025996714022 0 0 0
127 11 11 0.06 14.934321735341374 22.920257754041344 25.22583352569085 0 0 0
128 11 11 0.06 16.25043593665335 23.27933569368963 24.144141265707315 0 0 0
129 11 11 0.06 16.628722104718886 22.211185158457578 26.685465338076767 0 0 0
12 1 11 0.06 22.90118087854373 18.2317694070407 13.962076617898697 0 0 0
13 2 9 0.52 13.320747752782138 17.04821107751416 25.45631212226106 0 0 0
17 2 1 0.22 13.744111961852651 16.342568125559435 27.661773853237953 0 0 0
18 2 1 0.22 14.954427946301339 18.586815074513993 24.811264265435135 0 0 0
117 10 11 0.06 13.073564829120532 18.236363866873553 16.094586933997373 0 0 0
119 10 11 0.06 12.659520385557059 19.23644557424414 19.09336499464346 0 0 0
122 11 20 -0.5 17.197921248594124 26.438275023966845 25.89185641668245 0 0 0
226 26 27 1.34 20.859335866734835 27.220888715933256 26.981986970414283 0 0 0
227 26 26 -0.39 21.658849247344257 28.54165417431533 26.823483375319416 0 0 0
229 26 26 -0.39 22.131725430862684 26.382666225424018 26.67362515638869 0 0 0
230 26 26 -0.39 19.528947496971746 27.99393627066042 27.22288941170842 0 0 0
232 26 26 -0.39 21.17225462184135 27.17925632515019 28.500895997622987 0 0 0

Velocities

53 0 0 0
114 0 0 0
115 0 0 0
116 0 0 0
223 0 0 0
37 0 0 0
38 0 0 0
39 0 0 0
40 0 0 0
41 0 0 0
42 0 0 0
43 0 0 0
45 0 0 0
46 0 0 0
47 0 0 0
48 0 0 0
49 0 0 0
50 0 0 0
51 0 0 0
52 0 0 0
54 0 0 0
247 0 0 0
248 0 0 0
251 0 0 0
253 0 0 0
44 0 0 0
28 0 0 0
29 0 0 0
30 0 0 0
32 0 0 0
34 0 0 0
35 0 0 0
104 0 0 0
105 0 0 0
106 0 0 0
107 0 0 0
108 0 0 0
109 0 0 0
110 0 0 0
111 0 0 0
112 0 0 0
113 0 0 0
183 0 0 0
185 0 0 0
186 0 0 0
189 0 0 0
190 0 0 0
191 0 0 0
221 0 0 0
224 0 0 0
1 0 0 0
2 0 0 0
3 0 0 0
4 0 0 0
5 0 0 0
6 0 0 0
7 0 0 0
8 0 0 0
9 0 0 0
82 0 0 0
83 0 0 0
84 0 0 0
85 0 0 0
86 0 0 0
87 0 0 0
88 0 0 0
89 0 0 0
90 0 0 0
182 0 0 0
184 0 0 0
187 0 0 0
188 0 0 0
192 0 0 0
193 0 0 0
194 0 0 0
195 0 0 0
196 0 0 0
197 0 0 0
198 0 0 0
199 0 0 0
200 0 0 0
201 0 0 0
202 0 0 0
203 0 0 0
204 0 0 0
205 0 0 0
206 0 0 0
207 0 0 0
222 0 0 0
240 0 0 0
241 0 0 0
242 0 0 0
243 0 0 0
244 0 0 0
245 0 0 0
246 0 0 0
249 0 0 0
250 0 0 0
252 0 0 0
31 0 0 0
33 0 0 0
36 0 0 0
22 0 0 0
23 0 0 0
24 0 0 0
25 0 0 0
27 0 0 0
64 0 0 0
65 0 0 0
66 0 0 0
67 0 0 0
68 0 0 0
69 0 0 0
70 0 0 0
71 0 0 0
72 0 0 0
130 0 0 0
131 0 0 0
132 0 0 0
133 0 0 0
135 0 0 0
136 0 0 0
140 0 0 0
141 0 0 0
142 0 0 0
143 0 0 0
144 0 0 0
145 0 0 0
146 0 0 0
147 0 0 0
148 0 0 0
149 0 0 0
150 0 0 0
151 0 0 0
152 0 0 0
153 0 0 0
154 0 0 0
155 0 0 0
56 0 0 0
57 0 0 0
58 0 0 0
62 0 0 0
63 0 0 0
233 0 0 0
234 0 0 0
235 0 0 0
236 0 0 0
237 0 0 0
238 0 0 0
239 0 0 0
73 0 0 0
74 0 0 0
75 0 0 0
76 0 0 0
77 0 0 0
78 0 0 0
79 0 0 0
80 0 0 0
81 0 0 0
95 0 0 0
98 0 0 0
99 0 0 0
100 0 0 0
134 0 0 0
137 0 0 0
138 0 0 0
139 0 0 0
156 0 0 0
157 0 0 0
158 0 0 0
159 0 0 0
160 0 0 0
161 0 0 0
162 0 0 0
163 0 0 0
164 0 0 0
165 0 0 0
166 0 0 0
167 0 0 0
168 0 0 0
10 0 0 0
11 0 0 0
14 0 0 0
15 0 0 0
16 0 0 0
55 0 0 0
59 0 0 0
60 0 0 0
61 0 0 0
91 0 0 0
92 0 0 0
93 0 0 0
94 0 0 0
118 0 0 0
120 0 0 0
121 0 0 0
124 0 0 0
125 0 0 0
126 0 0 0
169 0 0 0
170 0 0 0
171 0 0 0
172 0 0 0
173 0 0 0
174 0 0 0
175 0 0 0
176 0 0 0
177 0 0 0
178 0 0 0
179 0 0 0
180 0 0 0
181 0 0 0
208 0 0 0
209 0 0 0
210 0 0 0
211 0 0 0
212 0 0 0
213 0 0 0
214 0 0 0
215 0 0 0
216 0 0 0
217 0 0 0
218 0 0 0
219 0 0 0
220 0 0 0
228 0 0 0
231 0 0 0
254 0 0 0
255 0 0 0
256 0 0 0
257 0 0 0
258 0 0 0
259 0 0 0
260 0 0 0
225 0 0 0
96 0 0 0
97 0 0 0
101 0 0 0
102 0 0 0
103 0 0 0
19 0 0 0
20 0 0 0
21 0 0 0
26 0 0 0
123 0 0 0
127 0 0 0
128 0 0 0
129 0 0 0
12 0 0 0
13 0 0 0
17 0 0 0
18 0 0 0
117 0 0 0
119 0 0 0
122 0 0 0
226 0 0 0
227 0 0 0
229 0 0 0
230 0 0 0
232 0 0 0

Bonds

1 4 53 55
2 4 53 56
3 4 53 57
4 4 114 118
5 4 114 119
6 4 114 120
7 8 37 38
8 7 37 39
9 7 37 40
10 7 39 41
11 7 40 42
12 4 41 43
13 4 41 44
14 4 41 45
15 4 42 46
16 4 42 47
17 4 42 48
18 8 49 50
19 7 49 51
20 7 49 52
21 7 51 53
22 7 52 54
23 4 54 58
24 4 54 59
25 4 54 60
26 15 247 248
27 15 247 249
28 15 247 250
29 15 247 251
30 15 247 252
31 15 247 253
32 7 28 30
33 4 29 31
34 4 29 32
35 4 29 33
36 4 30 34
37 4 30 35
38 4 30 36
39 8 109 110
40 7 109 111
41 7 109 112
42 7 111 113
43 7 112 114
44 4 113 115
45 4 113 116
46 4 113 117
47 7 183 186
48 1 185 186
49 4 185 189
50 4 185 190
51 4 186 187
52 4 186 188
53 8 191 192
54 7 191 193
55 7 191 194
56 8 1 2
57 7 1 3
58 7 1 4
59 7 3 5
60 7 4 6
61 4 5 7
62 4 5 8
63 4 5 9
64 4 6 10
65 4 6 11
66 4 6 12
67 8 85 86
68 7 85 87
69 7 85 88
70 7 87 89
71 7 88 90
72 4 89 91
73 4 89 92
74 4 89 93
75 4 90 94
76 4 90 95
77 4 90 96
78 7 184 185
79 7 193 196
80 7 194 195
81 1 195 196
82 4 195 199
83 4 195 200
84 4 196 197
85 4 196 198
86 8 201 202
87 7 201 203
88 7 201 204
89 7 203 206
90 7 204 205
91 1 205 206
92 4 205 209
93 4 205 210
94 4 206 207
95 4 206 208
96 15 240 241
97 15 240 242
98 15 240 243
99 15 240 244
100 15 240 245
101 15 240 246
102 8 25 26
103 7 25 27
104 7 25 28
105 7 27 29
106 7 64 66
107 4 65 67
108 4 65 68
109 4 65 69
110 4 66 70
111 4 66 71
112 4 66 72
113 8 131 132
114 7 131 133
115 7 131 134
116 7 133 136
117 1 135 136
118 4 135 139
119 4 135 140
120 4 136 137
121 4 136 138
122 8 141 142
123 7 141 143
124 7 141 144
125 7 143 146
126 7 144 145
127 1 145 146
128 4 145 149
129 4 145 150
130 4 146 147
131 4 146 148
132 8 151 152
133 7 151 153
134 7 151 154
135 7 153 156
136 7 154 155
137 1 155 156
138 4 155 159
139 4 155 160
140 7 63 65
141 15 233 234
142 15 233 235
143 15 233 236
144 15 233 237
145 15 233 238
146 15 233 239
147 8 73 74
148 7 73 75
149 7 73 76
150 7 75 77
151 7 76 78
152 4 77 79
153 4 77 80
154 4 77 81
155 4 78 82
156 4 78 83
157 4 78 84
158 7 99 101
159 7 100 102
160 7 134 135
161 4 156 157
162 4 156 158
163 8 161 162
164 7 161 163
165 7 161 164
166 7 163 166
167 7 164 165
168 1 165 166
169 4 165 169
170 4 165 170
171 4 166 167
172 4 166 168
173 7 15 17
174 7 16 18
175 8 61 62
176 7 61 63
177 7 61 64
178 8 121 122
179 7 121 123
180 7 121 124
181 7 124 125
182 1 125 126
183 4 125 129
184 4 125 130
185 4 126 127
186 4 126 128
187 8 171 172
188 7 171 173
189 7 171 174
190 7 173 176
191 7 174 175
192 1 175 176
193 4 175 179
194 4 175 180
195 4 176 177
196 4 176 178
197 8 181 182
198 7 181 183
199 7 181 184
200 8 211 212
201 7 211 213
202 7 211 214
203 7 213 216
204 7 214 215
205 1 215 216
206 4 215 219
207 4 215 220
208 4 216 217
209 4 216 218
210 15 254 255
211 15 254 256
212 15 254 257
213 15 254 258
214 15 254 259
215 15 254 260
216 8 97 98
217 7 97 99
218 7 97 100
219 4 101 103
220 4 101 104
221 4 101 105
222 4 102 106
223 4 102 107
224 4 102 108
225 7 123 126
226 8 13 14
227 7 13 15
228 7 13 16
229 4 17 19
230 4 17 20
231 4 17 21
232 4 18 22
233 4 18 23
234 4 18 24
235 15 226 227
236 15 226 228
237 15 226 229
238 15 226 230
239 15 226 231
240 15 226 232

Angles

1 4 51 53 55
2 4 51 53 56
3 4 51 53 57
4 7 55 53 56
5 7 55 53 57
6 7 56 53 57
7 4 112 114 118
8 4 112 114 119
9 4 112 114 120
10 7 118 114 119
11 7 118 114 120
12 7 119 114 120
13 11 38 37 39
14 11 38 37 40
15 12 39 37 40
16 9 37 39 41
17 9 37 40 42
18 4 39 41 43
19 4 39 41 44
20 4 39 41 45
21 7 43 41 44
22 7 43 41 45
23 7 44 41 45
24 4 40 42 46
25 4 40 42 47
26 4 40 42 48
27 7 46 42 47
28 7 46 42 48
29 7 47 42 48
30 11 50 49 51
31 11 50 49 52
32 12 51 49 52
33 9 49 51 53
34 9 49 52 54
35 4 52 54 58
36 4 52 54 59
37 4 52 54 60
38 7 58 54 59
39 7 58 54 60
40 7 59 54 60
41 18 248 247 249
42 18 250 247 251
43 18 252 247 253
44 17 248 247 250
45 17 248 247 251
46 17 248 247 252
47 17 248 247 253
48 17 249 247 250
49 17 249 247 251
50 17 249 247 252
51 17 249 247 253
52 17 250 247 252
53 17 250 247 253
54 17 251 247 252
55 17 251 247 253
56 9 25 28 30
57 4 27 29 31
58 4 27 29 32
59 4 27 29 33
60 7 31 29 32
61 7 31 29 33
62 7 32 29 33
63 4 28 30 34
64 4 28 30 35
65 4 28 30 36
66 7 34 30 35
67 7 34 30 36
68 7 35 30 36
69 11 110 109 111
70 11 110 109 112
71 12 111 109 112
72 9 109 111 113
73 9 109 112 114
74 4 111 113 115
75 4 111 113 116
76 4 111 113 117
77 7 115 113 116
78 7 115 113 117
79 7 116 113 117
80 9 181 183 186
81 13 184 185 186
82 4 186 185 189
83 4 186 185 190
84 6 189 185 190
85 13 183 186 185
86 4 185 186 187
87 4 185 186 188
88 6 187 186 188
89 11 192 191 193
90 11 192 191 194
91 12 193 191 194
92 11 2 1 3
93 11 2 1 4
94 12 3 1 4
95 9 1 3 5
96 9 1 4 6
97 4 3 5 7
98 4 3 5 8
99 4 3 5 9
100 7 7 5 8
101 7 7 5 9
102 7 8 5 9
103 4 4 6 10
104 4 4 6 11
105 4 4 6 12
106 7 10 6 11
107 7 10 6 12
108 7 11 6 12
109 11 86 85 87
110 11 86 85 88
111 12 87 85 88
112 9 85 87 89
113 9 85 88 90
114 4 87 89 91
115 4 87 89 92
116 4 87 89 93
117 7 91 89 92
118 7 91 89 93
119 7 92 89 93
120 4 88 90 94
121 4 88 90 95
122 4 88 90 96
123 7 94 90 95
124 7 94 90 96
125 7 95 90 96
126 9 181 184 185
127 9 191 193 196
128 9 191 194 195
129 13 194 195 196
130 4 196 195 199
131 4 196 195 200
132 6 199 195 200
133 13 193 196 195
134 4 195 196 197
135 4 195 196 198
136 6 197 196 198
137 11 202 201 203
138 11 202 201 204
139 12 203 201 204
140 9 201 203 206
141 9 201 204 205
142 13 204 205 206
143 4 206 205 209
144 4 206 205 210
145 6 209 205 210
146 13 203 206 205
147 4 205 206 207
148 4 205 206 208
149 6 207 206 208
150 18 241 240 242
151 18 243 240 244
152 18 245 240 246
153 17 241 240 243
154 17 241 240 244
155 17 241 240 245
156 17 241 240 246
157 17 242 240 243
158 17 242 240 244
159 17 242 240 245
160 17 242 240 246
161 17 243 240 245
162 17 243 240 246
163 17 244 240 245
164 17 244 240 246
165 11 26 25 27
166 11 26 25 28
167 12 27 25 28
168 9 25 27 29
169 9 61 64 66
170 4 63 65 67
171 4 63 65 68
172 4 63 65 69
173 7 67 65 68
174 7 67 65 69
175 7 68 65 69
176 4 64 66 70
177 4 64 66 71
178 4 64 66 72
179 7 70 66 71
180 7 70 66 72
181 7 71 66 72
182 11 132 131 133
183 11 132 131 134
184 12 133 131 134
185 9 131 133 136
186 13 134 135 136
187 4 136 135 139
188 4 136 135 140
189 6 139 135 140
190 13 133 136 135
191 4 135 136 137
192 4 135 136 138
193 6 137 136 138
194 11 142 141 143
195 11 142 141 144
196 12 143 141 144
197 9 141 143 146
198 9 141 144 145
199 13 144 145 146
200 4 146 145 149
201 4 146 145 150
202 6 149 145 150
203 13 143 146 145
204 4 145 146 147
205 4 145 146 148
206 6 147 146 148
207 11 152 151 153
208 11 152 151 154
209 12 153 151 154
210 9 151 153 156
211 9 151 154 155
212 13 154 155 156
213 4 156 155 159
214 4 156 155 160
215 6 159 155 160
216 9 61 63 65
217 18 234 233 235
218 18 236 233 237
219 18 238 233 239
220 17 234 233 236
221 17 234 233 237
222 17 234 233 238
223 17 234 233 239
224 17 235 233 236
225 17 235 233 237
226 17 235 233 238
227 17 235 233 239
228 17 236 233 238
229 17 236 233 239
230 17 237 233 238
231 17 237 233 239
232 11 74 73 75
233 11 74 73 76
234 12 75 73 76
235 9 73 75 77
236 9 73 76 78
237 4 75 77 79
238 4 75 77 80
239 4 75 77 81
240 7 79 77 80
241 7 79 77 81
242 7 80 77 81
243 4 76 78 82
244 4 76 78 83
245 4 76 78 84
246 7 82 78 83
247 7 82 78 84
248 7 83 78 84
249 9 97 99 101
250 9 97 100 102
251 9 131 134 135
252 13 153 156 155
253 4 155 156 157
254 4 155 156 158
255 6 157 156 158
256 11 162 161 163
257 11 162 161 164
258 12 163 161 164
259 9 161 163 166
260 9 161 164 165
261 13 164 165 166
262 4 166 165 169
263 4 166 165 170
264 6 169 165 170
265 13 163 166 165
266 4 165 166 167
267 4 165 166 168
268 6 167 166 168
269 9 13 15 17
270 9 13 16 18
271 11 62 61 63
272 11 62 61 64
273 12 63 61 64
274 11 122 121 123
275 11 122 121 124
276 12 123 121 124
277 9 121 124 125
278 13 124 125 126
279 4 126 125 129
280 4 126 125 130
281 6 129 125 130
282 13 123 126 125
283 4 125 126 127
284 4 125 126 128
285 6 127 126 128
286 11 172 171 173
287 11 172 171 174
288 12 173 171 174
289 9 171 173 176
290 9 171 174 175
291 13 174 175 176
292 4 176 175 179
293 4 176 175 180
294 6 179 175 180
295 13 173 176 175
296 4 175 176 177
297 4 175 176 178
298 6 177 176 178
299 11 182 181 183
300 11 182 181 184
301 12 183 181 184
302 11 212 211 213
303 11 212 211 214
304 12 213 211 214
305 9 211 213 216
306 9 211 214 215
307 13 214 215 216
308 4 216 215 219
309 4 216 215 220
310 6 219 215 220
311 13 213 216 215
312 4 215 216 217
313 4 215 216 218
314 6 217 216 218
315 18 255 254 256
316 18 257 254 258
317 18 259 254 260
318 17 255 254 257
319 17 255 254 258
320 17 255 254 259
321 17 255 254 260
322 17 256 254 257
323 17 256 254 258
324 17 256 254 259
325 17 256 254 260
326 17 257 254 259
327 17 257 254 260
328 17 258 254 259
329 17 258 254 260
330 11 98 97 99
331 11 98 97 100
332 12 99 97 100
333 4 99 101 103
334 4 99 101 104
335 4 99 101 105
336 7 103 101 104
337 7 103 101 105
338 7 104 101 105
339 4 100 102 106
340 4 100 102 107
341 4 100 102 108
342 7 106 102 107
343 7 106 102 108
344 7 107 102 108
345 9 121 123 126
346 11 14 13 15
347 11 14 13 16
348 12 15 13 16
349 4 15 17 19
350 4 15 17 20
351 4 15 17 21
352 7 19 17 20
353 7 19 17 21
354 7 20 17 21
355 4 16 18 22
356 4 16 18 23
357 4 16 18 24
358 7 22 18 23
359 7 22 18 24
360 7 23 18 24
361 18 227 226 228
362 18 229 226 230
363 18 231 226 232
364 17 227 226 229
365 17 227 226 230
366 17 227 226 231
367 17 227 226 232
368 17 228 226 229
369 17 228 226 230
370 17 228 226 231
371 17 228 226 232
372 17 229 226 231
373 17 229 226 232
374 17 230 226 231
375 17 230 226 232

Dihedrals

1 8 38 37 39 41
2 8 38 37 40 42
3 6 37 39 41 43
4 6 37 39 41 44
5 6 37 39 41 45
6 6 37 40 42 46
7 6 37 40 42 47
8 6 37 40 42 48
9 8 50 49 51 53
10 8 50 49 52 54
11 6 49 51 53 55
12 6 49 51 53 56
13 6 49 51 53 57
14 6 49 52 54 58
15 6 49 52 54 59
16 6 49 52 54 60
17 6 25 28 30 34
18 6 25 28 30 35
19 6 25 28 30 36
20 8 110 109 111 113
21 8 110 109 112 114
22 6 109 111 113 115
23 6 109 111 113 116
24 6 109 111 113 117
25 6 109 112 114 118
26 6 109 112 114 119
27 6 109 112 114 120
28 5 181 183 186 185
29 7 183 186 185 184
30 8 192 191 193 196
31 8 192 191 194 195
32 8 2 1 3 5
33 8 2 1 4 6
34 6 1 3 5 7
35 6 1 3 5 8
36 6 1 3 5 9
37 6 1 4 6 10
38 6 1 4 6 11
39 6 1 4 6 12
40 8 86 85 87 89
41 8 86 85 88 90
42 6 85 87 89 91
43 6 85 87 89 92
44 6 85 87 89 93
45 6 85 88 90 94
46 6 85 88 90 95
47 6 85 88 90 96
48 7 181 184 185 186
49 5 191 193 196 195
50 7 191 194 195 196
51 7 193 196 195 194
52 8 202 201 203 206
53 8 202 201 204 205
54 5 201 203 206 205
55 7 201 204 205 206
56 7 203 206 205 204
57 8 26 25 27 29
58 8 26 25 28 30
59 6 25 27 29 31
60 6 25 27 29 32
61 6 25 27 29 33
62 6 61 64 66 70
63 6 61 64 66 71
64 6 61 64 66 72
65 8 132 131 133 136
66 8 132 131 134 135
67 5 131 133 136 135
68 7 133 136 135 134
69 8 142 141 143 146
70 8 142 141 144 145
71 5 141 143 146 145
72 7 141 144 145 146
73 7 143 146 145 144
74 8 152 151 153 156
75 8 152 151 154 155
76 5 151 153 156 155
77 7 151 154 155 156
78 6 61 63 65 67
79 6 61 63 65 68
80 6 61 63 65 69
81 8 74 73 75 77
82 8 74 73 76 78
83 6 73 75 77 79
84 6 73 75 77 80
85 6 73 75 77 81
86 6 73 76 78 82
87 6 73 76 78 83
88 6 73 76 78 84
89 6 97 99 101 103
90 6 97 99 101 104
91 6 97 99 101 105
92 6 97 100 102 106
93 6 97 100 102 107
94 6 97 100 102 108
95 7 131 134 135 136
96 7 153 156 155 154
97 8 162 161 163 166
98 8 162 161 164 165
99 5 161 163 166 165
100 7 161 164 165 166
101 7 163 166 165 164
102 6 13 15 17 19
103 6 13 15 17 20
104 6 13 15 17 21
105 6 13 16 18 22
106 6 13 16 18 23
107 6 13 16 18 24
108 8 62 61 63 65
109 8 62 61 64 66
110 8 122 121 123 126
111 8 122 121 124 125
112 7 121 124 125 126
113 7 123 126 125 124
114 8 172 171 173 176
115 8 172 171 174 175
116 5 171 173 176 175
117 7 171 174 175 176
118 7 173 176 175 174
119 8 182 181 183 186
120 8 182 181 184 185
121 8 212 211 213 216
122 8 212 211 214 215
123 5 211 213 216 215
124 7 211 214 215 216
125 7 213 216 215 214
126 8 98 97 99 101
127 8 98 97 100 102
128 5 121 123 126 125
129 8 14 13 15 17
130 8 14 13 16 18
