LAMMPS data file via write_data, version 23 Jun 2022, timestep = 1000

770 atoms
31 atom types
715 bonds
17 bond types
1087 angles
18 angle types
455 dihedrals
9 dihedral types
0 impropers
2 improper types

-0.7488268419299402 20.748826841929926 xlo xhi
-0.7488268419299402 20.748826841929926 ylo yhi
-0.7488268419299402 20.748826841929926 zlo zhi

Masses

1 12.011
2 12.011
3 12.011
4 12.011
5 12.011
6 12.011
7 12.011
8 12.011
9 12.011
10 12.011
11 1.008
12 1.008
13 1.008
14 1.008
15 1.008
16 1.008
17 1.008
18 15.999
19 15.999
20 15.999
21 15.999
22 14.007
23 14.007
24 14.007
25 14.007
26 18.998
27 30.974
28 6.941
29 32.065
30 32.065
31 6.941

Pair Coeffs # lj/cut/coul/cut

1 0.066 3.5
2 0.066 3.5
3 0.066 3.5
4 0.066 3.5
5 0.07 3.55
6 0.07 3.55
7 0.07 3.55
8 0.07 3.55
9 0.105 3.75
10 0.105 3.75
11 0.03 2.5
12 0.03 2.5
13 0.03 2.5
14 0.03 2.42
15 0.03 2.5
16 0.03 2.5
17 0.03 2.5
18 0.17 3
19 0.17 3
20 0.17 2.96
21 0.17 3
22 0.17 3.25
23 0.17 3.25
24 0.17 3.25
25 0.17 3.25
26 0.255 2.95
27 0.2 3.7
28 0.0025 1.506
29 0.25 3.55
30 0.25 3.55
31 0.00034 2.126

Bond Coeffs # harmonic

1 268 1.529
2 414 1.33
3 320 1.4
4 340 1.09
5 340 1.08
6 340 1.08
7 320 1.41
8 570 1.229
9 320 1.36
10 300 1.47
11 440 1.27
12 350 1.34
13 340 0.96
14 340 1.01
15 420 1.56
16 200 1.81
17 300 1.43

Angle Coeffs # harmonic

1 50 109.5
2 80 120
3 60 120
4 37.5 110.7
5 40 120
6 33 106.4
7 33 107.8
8 35 120
9 60 109.5
10 60 124
11 80 123
12 80 120.4
13 50 109.5
14 50 109.5
15 50 109.5
16 50 120
17 80 90
18 80 180

Atoms # full

424 36 19 -0.35 1.188703957413998 3.5737687928662574 1.648078984648064 0 0 0
432 36 11 0.06 -0.05004282482850331 2.052314747246298 1.0715417510519651 0 0 0
426 36 1 0.22 0.8867816792815579 2.4244297198355884 0.8073162285606117 0 0 0
431 36 11 0.06 1.592563207759016 1.6284357080008158 0.8756823758982508 0 0 0
421 36 9 0.52 0.2572313452789059 4.592366689467398 1.3796214532894404 0 0 0
430 36 11 0.06 0.7513223698466969 2.5886974836766 -0.23976217540218625 0 0 0
182 16 20 -0.5 2.9282833785182674 0.7813559936908594 3.923103115326141 0 1 0
418 35 11 0.06 3.3534322831728574 3.1995283671333308 3.4147434829443695 0 0 0
414 35 1 0.22 4.278748222974553 3.6116008376282336 3.7566897707954654 0 0 0
181 16 9 0.52 2.9716164470149176 -0.3620777690514739 3.493705504234211 0 1 0
184 16 19 -0.35 3.643174983393653 -0.5916333542648564 2.286935327024718 0 1 0
35 3 11 0.06 4.511752573611914 -0.0518836993850571 -0.6902012359049365 0 1 1
192 16 11 0.06 5.210204825825847 0.6748068123595439 2.9970456460631962 0 1 0
248 21 11 0.06 8.975297197549262 2.9964355522114725 4.366747292709811 0 0 0
413 35 1 0.22 5.345835117417481 3.454753936128008 -0.27780535633835723 0 0 0
247 21 11 0.06 9.797517097145303 3.3541551652026165 3.0212493259925965 0 0 0
245 21 1 0.22 9.902603702706164 2.7198235008502647 3.8606083233050628 0 0 0
417 35 11 0.06 6.320876105327377 3.8706499362892366 -0.5965455135578953 0 0 0
411 35 19 -0.35 4.801312652746931 4.308092492927068 0.7191312414636517 0 0 0
409 35 9 0.52 5.576474582047903 4.275702425044182 1.907980445296701 0 0 0
412 35 19 -0.35 5.2876071339519815 3.2894924842099806 2.853539464815798 0 0 0
191 16 11 0.06 5.149635594327202 0.1385065484130762 1.288554131717233 0 1 0
186 16 1 0.22 4.99849398002844 -0.16192102607310366 2.3445156356643158 0 1 0
242 21 20 -0.5 7.992877664545686 0.31564646456095824 4.3224967061576685 0 0 0
243 21 19 -0.35 9.807949848421597 1.381021285457234 3.4505663757691556 0 0 0
241 21 9 0.52 9.213058587353041 0.5041365275493812 4.3485856500886095 0 0 0
415 35 11 0.06 5.21113063355309 2.440166881206697 -0.03488613676096042 0 0 0
303 26 19 -0.35 13.807243423517091 0.44124788489066136 4.3061173784028295 0 1 0
57 5 11 0.06 10.676713705352634 1.4243759410393872 0.9203916537110948 0 0 1
364 31 19 -0.35 15.183698735829626 2.3010197997387634 0.6722665530984138 0 0 0
372 31 11 0.06 15.09677091389897 3.5358268915361046 2.3463370205417964 0 0 0
305 26 1 0.22 12.946837950257713 0.3685739686518259 3.237653087424766 0 1 0
308 26 11 0.06 13.059113542683097 1.1162205243865495 2.44695254561676 0 1 0
309 26 11 0.06 13.040664013689733 -0.49659256690982173 2.650897618405217 0 1 0
369 31 11 0.06 14.922073596858558 -0.3008055583490523 0.2962967295768435 0 0 0
307 26 11 0.06 11.93091184122843 0.4524872133703257 3.5895661478902836 0 1 0
249 21 11 0.06 10.81924125385853 3.032016294583794 4.305992590561583 0 0 0
55 5 11 0.06 11.423494521323377 2.464716388604933 -0.3587602844772727 0 0 1
53 5 1 0.22 11.10214998102901 1.482629808744015 -0.11084875812230943 0 0 1
51 5 19 -0.35 12.159455704054743 0.4927102762050075 -0.08137409875836943 0 0 1
365 31 1 0.22 15.84292966436334 -0.5302311062781879 -0.2057475281604637 0 0 0
234 20 1 0.22 19.76215238559051 -0.3343797946148987 0.13278915222642873 -1 0 1
467 39 11 0.06 20.60969950806212 2.7715711545575856 4.0910347001016865 -1 0 0
232 20 19 -0.35 19.611564226718016 0.9817864346701084 -0.4311679117812839 -1 0 1
363 31 19 -0.35 16.721140906428868 0.5899740564136906 -0.2809755720485529 0 0 0
361 31 9 0.52 16.127283975458017 1.8773923607876783 -0.35372138841190165 0 0 0
366 31 1 0.22 15.75268976149749 2.837780941454137 1.8568755456584922 0 0 0
370 31 11 0.06 15.83957343526857 1.9881218835261087 2.5711111234988526 0 0 0
371 31 11 0.06 16.758949781798137 3.2367591144548227 1.7497653022008621 0 0 0
240 20 11 0.06 19.823003215353665 -0.23256126634213214 1.2341436299891844 -1 0 1
466 39 11 0.06 19.159694935434292 2.1672713061937023 3.4367269591776726 -1 0 0
468 39 11 0.06 20.466085310771565 1.1179553083493168 3.353490735114139 -1 0 0
462 39 1 0.22 20.04509203938717 1.8653659786426484 3.93036187347644 -1 0 0
311 26 11 0.06 16.53050335726688 -0.05999893960863745 4.259380279693271 0 1 0
423 36 19 -0.35 -0.31546574126395843 5.236301598344669 2.509938643504876 0 0 0
420 35 11 0.06 4.118316357404816 4.6971044736633285 3.83578158104209 0 0 0
425 36 1 0.22 0.48579313733733454 6.184023008279689 3.3099290499250147 0 0 0
428 36 11 0.06 -0.2079889447531822 6.768181928786385 3.934288756141992 0 0 0
759 73 26 -0.39 2.0412449369609873 8.973991773440682 2.0862823633124252 1 0 0
21 2 11 0.06 2.8022058275131414 8.569784592721959 -0.06091444466494744 0 0 0
17 2 1 0.22 3.569716475345297 7.92353922351529 -0.39777745687667454 0 0 0
422 36 20 -0.5 0.2899630619129656 5.185609973833132 0.31123033420278756 0 0 0
429 36 11 0.06 1.1610508229309229 5.637893159040805 3.9228450236280947 0 0 0
763 73 26 -0.39 -0.1292997082647802 9.003039033820126 1.345932623842712 1 0 0
760 73 26 -0.39 0.30976232135416715 9.387119935415999 3.587747081679825 1 0 0
20 2 11 0.06 3.6828770726689344 7.180399215886453 0.4325777784876985 0 0 0
427 36 11 0.06 1.1066864613279872 6.9021613958869095 2.77155376664324 0 0 0
757 73 27 1.34 0.7822279062454802 9.970055048316661 2.16343734318365 1 0 0
410 35 20 -0.5 6.278896867898796 5.262028191096128 2.1173075402627135 0 0 0
18 2 1 0.22 7.507552546475511 8.061957477990445 1.281328395292988 0 0 0
24 2 11 0.06 8.50577734107401 8.4626478802956 1.3813821441106713 0 0 0
700 61 11 0.06 9.605980087309238 8.91419971726118 3.2932308042031293 0 0 0
13 2 9 0.52 5.405956312376227 8.97371197702395 0.556319021800399 0 0 0
14 2 20 -0.5 4.874451827678759 9.748293415960374 1.3697505084399588 0 0 0
15 2 19 -0.35 4.780410953401029 8.684759008150163 -0.597502316473962 0 0 0
23 2 11 0.06 7.460579158476866 7.052195848710618 1.0012362709367801 0 0 0
16 2 19 -0.35 6.799502737594139 8.859061426795433 0.4335384732217049 0 0 0
22 2 11 0.06 7.022430986547269 8.08640193157211 2.279129908266236 0 0 0
10 1 11 0.06 9.74341759161986 9.708040065694968 -0.3778431246274425 0 0 1
682 60 20 -0.5 12.6548104875997 5.437664871082397 1.0091700368499317 0 0 1
446 38 20 -0.5 14.412592503305854 6.357248728645693 2.9988819695622606 0 0 0
695 61 2 0.22 10.586076139601433 8.644753086622528 3.6161913789808224 0 0 0
699 61 11 0.06 10.579294081755757 7.6123698527549735 4.0599041867167776 0 0 0
694 61 19 -0.35 11.026247589728145 8.38870649041094 2.2280625399684197 0 0 0
733 67 31 1 13.345663142518541 6.742207474763216 1.7690149555459755 0 0 1
691 61 9 0.52 12.276025809985109 9.015926666516698 2.225419709534305 0 0 0
692 61 20 -0.5 13.190194663097387 8.470304849445453 1.5693517787955291 0 0 0
693 61 19 -0.35 12.606306267826854 9.786061554905704 3.415740666070474 0 0 0
445 38 9 0.52 14.080705676464168 6.021723330658372 4.166790467417809 0 0 0
696 61 2 0.22 11.499680262561382 9.671435261064712 4.245955168212151 0 0 0
578 49 11 0.06 14.532232989680343 9.858618641220312 -0.0004224310505290818 0 0 1
448 38 19 -0.35 13.917536812821451 4.673893622945901 4.510515255664974 0 0 0
681 60 9 0.52 13.088627754563833 5.409130854824566 -0.17971948488350165 0 0 1
683 60 19 -0.35 14.25483818617588 6.115723698676302 -0.4877734893585876 0 0 1
735 69 31 1 20.621063219037236 8.911189898921377 -0.21829715717170395 0 0 0
80 7 11 0.06 16.439396578867303 7.448472248615142 1.0029000795202618 0 0 1
81 7 11 0.06 16.22755096191068 5.813894088340932 1.4329000293494367 0 0 1
77 7 1 0.22 16.919835008283552 6.662175106851833 1.5314114005798576 0 0 1
79 7 11 0.06 16.706041732004437 6.875314202286298 2.549426268859843 0 0 1
69 6 11 0.06 18.111599643129356 7.781199380079505 4.212374802329198 0 0 0
75 7 19 -0.35 18.237539592525028 6.2108148112100485 1.2229128375077167 0 0 1
67 6 11 0.06 19.513125899519554 7.617809003390267 3.1620030448693814 0 0 0
73 7 9 0.52 18.617213208496164 6.831199859346959 0.07899860613996179 0 0 1
74 7 20 -0.5 19.553859319738763 7.671385401217531 0.05102056255049714 0 0 1
62 6 20 -0.5 16.14694837394582 9.547222743810133 3.320911337243621 0 0 0
63 6 19 -0.35 18.452458627150385 9.527250457904723 3.020099474201684 0 0 0
65 6 1 0.22 18.9099326450045 8.374887690993464 3.741730772094539 0 0 0
68 6 11 0.06 19.497542124609478 8.819643223459101 4.5344854969348205 0 0 0
754 72 26 -0.39 17.189212747643925 5.522981509057763 4.492547823117615 0 0 0
762 73 26 -0.39 1.7262476345831086 10.91451936663806 2.90122369368981 1 0 0
499 42 11 0.06 2.04578306037052 13.745328487571108 -0.5385664222831756 0 0 0
497 42 1 0.22 1.8889950628833643 14.445110117740215 0.25807040947890947 0 0 0
500 42 11 0.06 0.8504464384392885 14.349409149537038 0.5249824668862095 0 0 0
734 68 31 1 3.8169764047988144 10.629160266448803 2.173738923536667 0 0 0
761 73 26 -0.39 1.2307864048310662 10.60907891717429 0.8361442624389621 1 0 0
493 42 9 0.52 3.776797851875025 13.409597182197848 1.2260176627181207 0 0 0
494 42 20 -0.5 3.6880266297473066 12.295634615149327 1.6888783796431488 0 0 0
758 73 26 -0.39 -0.33679059397927663 11.070408019830182 2.288821471367503 1 0 0
495 42 19 -0.35 2.7876317926959397 14.353724331679198 1.3979265005133827 0 0 0
89 8 1 0.22 -0.5139070832972398 14.4146312847416 3.6935940325671783 1 0 0
93 8 11 0.06 0.209657087695731 14.15351474068345 2.840503838146545 1 0 0
289 25 9 0.52 6.741687420551415 11.385871791614612 3.198668876291695 0 0 0
300 25 11 0.06 8.597098635064633 13.594158820996078 3.837960358285601 0 0 0
290 25 20 -0.5 7.602747366852732 10.786387369161455 2.581873438713726 0 0 0
292 25 19 -0.35 6.690082180943011 12.85342823802701 3.2130948154189474 0 0 0
294 25 1 0.22 7.935612228487551 13.404448328317281 2.970466806781148 0 0 0
298 25 11 0.06 8.49276144078018 12.872238756853145 2.1494456599064136 0 0 0
291 25 19 -0.35 5.757266540488048 10.766306562835592 3.907904371284449 0 0 0
299 25 11 0.06 7.648569599299956 14.450949685789563 2.7741569475859866 0 0 0
496 42 19 -0.35 4.8125677889655805 13.881808577357038 0.3232796771538635 0 0 0
498 42 1 0.22 5.314325580508667 15.225267358873625 0.4426995608287434 0 0 0
503 42 11 0.06 6.302892094872202 15.205065068109507 0.7882772187899851 0 0 0
12 1 11 0.06 9.249801480243931 11.370669908822066 -0.6715968001750419 0 0 1
698 61 11 0.06 11.27901721044053 10.716446344378788 4.126222052791399 0 0 0
576 49 2 0.22 14.720377075675174 10.862013408508478 -0.33019989082593376 0 0 1
11 1 11 0.06 10.968890983668 11.014294795426622 -0.4562833534820099 0 0 1
573 49 19 -0.35 13.853195396152472 11.939740833415149 0.09160672329765973 0 0 1
92 8 11 0.06 20.396605593708237 13.520477654454814 3.8038931492146606 0 0 0
577 49 11 0.06 15.685917170168143 11.154579321685825 0.15383604949377128 0 0 1
71 6 11 0.06 15.591314399908342 12.12011968465359 3.8932520951075498 0 0 0
66 6 1 0.22 16.63506720739177 12.284866931450685 3.709461547541089 0 0 0
70 6 11 0.06 16.939271790873693 12.204736030590023 2.6717130997301255 0 0 0
72 6 11 0.06 16.873562130888097 13.30568305800613 4.0038145364708155 0 0 0
630 54 11 0.06 20.461470565386296 14.331441865853343 -0.4624678204842903 0 0 0
61 6 9 0.52 17.29363851240393 10.009997067365731 3.647074939180734 0 0 0
626 54 2 0.22 18.55548646847385 13.189162172016749 0.029169553615182253 0 0 0
628 54 11 0.06 18.32939531462757 13.777098149806873 1.0121619856084065 0 0 0
64 6 19 -0.35 17.350494278188272 11.257320789330443 4.325451996434269 0 0 0
627 54 11 0.06 17.596211731417505 12.981994166388699 -0.5192035624903056 0 0 0
623 54 19 -0.35 18.189667931025966 11.879389232309233 -0.25625275592752017 0 0 0
622 54 20 -0.5 19.891733438049098 10.43010278081331 -0.5992686722551424 0 0 0
501 42 11 0.06 2.1592828295816084 15.417544147799124 -0.2368000650058656 0 0 0
183 16 19 -0.35 2.992353826031057 19.988011322607615 4.391489041977881 0 0 0
341 29 1 0.22 4.022831085753835 16.4297327012025 3.9538470758187536 0 0 0
343 29 11 0.06 3.0625678337951117 16.76943326160656 3.5472172702636255 0 0 0
88 8 19 -0.35 -0.6632840478510444 17.733615587108197 3.1661311100794443 1 0 0
345 29 11 0.06 4.314364742726761 15.388920949272741 3.558341783032156 0 0 0
188 16 11 0.06 1.0018245077953127 20.335137879184366 4.55771534706283 0 0 0
504 42 11 0.06 5.348669838275191 15.686838565058402 -0.5371342179612147 0 0 0
439 37 11 0.06 9.386616094340251 16.784077893889997 1.383330429062449 0 0 0
344 29 11 0.06 4.734115108995756 17.119919644798046 3.5834255092497873 0 0 0
190 16 11 0.06 5.615610023242777 20.394136223283667 2.507546423811965 0 0 0
502 42 11 0.06 4.737789593371177 15.888137995202715 1.1145815445836447 0 0 0
381 32 11 0.06 6.925465047580696 16.227285473275135 4.557878663968932 0 0 0
435 37 19 -0.35 11.487289955702398 16.674437955733204 1.5577561578833738 0 0 0
440 37 11 0.06 10.278606950028717 18.139449241261875 0.5788144056390698 0 0 0
436 37 19 -0.35 13.550462135074273 17.96711085925203 1.193648946046814 0 0 0
437 37 1 0.22 10.296545716457617 17.08147589580819 0.8874352258144678 0 0 0
433 37 9 0.52 12.329194534162362 17.75013399994276 1.8727892865293119 0 0 0
434 37 20 -0.5 12.123458463622567 18.558234919516618 2.7910107704503906 0 0 0
438 37 1 0.22 14.57377407693484 17.098963480987507 1.8053491883654202 0 0 0
443 37 11 0.06 14.488911770492956 16.05364968185083 1.4646017519005885 0 0 0
442 37 11 0.06 14.582515452326987 17.12307315995798 2.8538847739082596 0 0 0
252 21 11 0.06 10.240277093259406 19.470599949952685 4.413905779152982 0 -1 0
304 26 19 -0.35 15.198328367569403 19.986305095117203 4.291010273163166 0 0 0
374 32 20 -0.5 10.084905184397844 15.81722805385698 4.112600202328979 0 0 0
382 32 11 0.06 12.3112275391714 16.530656484438232 4.61013331591156 0 0 0
441 37 11 0.06 10.29103134126556 16.553472694152603 -0.03194193937475742 0 0 0
239 20 11 0.06 20.46229370369399 20.520965756066282 -0.25192115088181666 -1 -1 1
238 20 11 0.06 18.890292085165395 20.49686285170891 0.02981420309643068 -1 -1 1
85 8 9 0.52 20.549070469850616 16.552963548027158 2.5336141870256363 0 0 0
444 37 11 0.06 15.560529897534494 17.506965955120187 1.5001364063922566 0 0 0
87 8 19 -0.35 20.09221166786086 15.488944778813991 3.323783329953023 0 0 0
368 31 11 0.06 16.313385337422414 20.160162351715744 0.3517809960686267 0 -1 0
96 8 11 0.06 19.047284465970495 17.290501622156857 4.359004419313714 0 0 0
90 8 1 0.22 19.734997347390568 18.084140045635728 4.0747718081237085 0 0 0
216 18 11 0.06 19.08881871212865 16.412994787596645 -0.429765803419631 0 0 1
310 26 11 0.06 17.246176589959745 19.831469953039285 4.616706017059537 0 0 0
86 8 20 -0.5 20.498247361995674 16.498429578313814 1.3148225509672504 0 0 0
95 8 11 0.06 19.146355018209153 18.801673438024082 3.566143802325124 0 0 0
215 18 11 0.06 18.515708859731895 17.988796635310127 0.14310178999976586 0 0 1
485 41 1 0.22 2.631326463523419 3.8573792083952583 7.404012848597679 0 0 0
489 41 11 0.06 2.8819067984701707 4.443806203918416 8.247527161019988 0 0 0
483 41 19 -0.35 2.7695837676761403 2.4817735291030925 7.7608369835635695 0 0 0
488 41 11 0.06 1.6238125164210149 4.119205067896677 6.90193884214227 0 0 0
487 41 11 0.06 3.3372764865511 4.026434982156543 6.583105032414194 0 0 0
481 41 9 0.52 4.161467270707049 2.095320954779311 7.783558161331888 0 0 0
461 39 1 0.22 -0.517423671221137 1.6552062534932857 7.73883673385825 0 0 0
465 39 11 0.06 0.2512228688473259 2.3730480812381582 8.125538505307238 0 0 0
464 39 11 0.06 -0.7478470823895732 0.8686867650202428 8.456085278308953 0 0 0
459 39 19 -0.35 -0.11948672244679559 0.927414760079279 6.582214558622323 0 0 0
491 41 11 0.06 4.492895185488894 -0.3509510399295644 7.472613695934452 0 0 0
419 35 11 0.06 4.6815569913343005 3.448483432135844 4.770367034115061 0 0 0
484 41 19 -0.35 4.635458452778653 1.5264848733730894 6.571874076997145 0 0 0
482 41 20 -0.5 4.884460125563901 2.433210776850968 8.677952045465629 0 0 0
490 41 11 0.06 6.052973435111804 0.37246354926589986 7.3848227872122845 0 0 0
486 41 1 0.22 5.140441889118293 0.25517502675711534 6.828829895588463 0 0 0
492 41 11 0.06 5.444313986807582 -0.30764460134077865 5.924986360051103 0 0 0
244 21 19 -0.35 9.952852874690056 -0.09032362398615545 5.289415897464717 0 0 0
320 27 11 0.06 9.621452846093325 2.7241203678684154 9.365974133023741 0 0 0
321 27 11 0.06 8.351467296763824 1.7277456546111454 9.936717196688445 0 0 0
638 55 11 0.06 6.448299847653536 4.5227066837439915 6.808370456843569 0 0 0
633 55 19 -0.35 8.36988430132622 4.612415111913732 5.889407549263804 0 0 0
317 27 1 0.22 8.58349775945482 2.772210731148589 9.764284591593961 0 0 0
319 27 11 0.06 7.837379909583772 3.021990659295388 9.045229278395595 0 0 0
455 38 11 0.06 13.39854179949084 3.234413794887921 5.9017702511579495 0 0 0
450 38 1 0.22 13.318171971781549 4.328415174911528 5.751679678685693 0 0 0
394 33 11 0.06 12.916935575470706 0.32760952904943585 8.676495559666114 0 0 0
390 33 1 0.22 13.96888756668246 0.15064382664635845 8.803376495492833 0 0 0
395 33 11 0.06 14.37238483307982 0.7227598706739975 8.008511205186586 0 0 0
454 38 11 0.06 12.233592973836474 4.357865629218095 5.54898303356933 0 0 0
477 40 11 0.06 15.291477765680852 4.387041321818899 9.509457582476434 0 0 0
460 39 19 -0.35 19.48287892532044 1.33981321757543 5.119307569385177 -1 0 0
753 72 26 -0.39 18.407303500763394 3.6188115868637123 6.744007983439093 0 0 0
457 39 9 0.52 20.19583334739624 0.4877211797608907 5.959273804741558 -1 0 0
458 39 20 -0.5 19.976688807657606 -0.7148369423466718 5.77515547856708 -1 0 0
463 39 11 0.06 20.054763212064323 2.249937980275211 7.706350414708448 -1 0 0
755 72 26 -0.39 18.98027033392731 4.357337668153485 4.773982967221177 0 0 0
750 72 27 1.34 17.733744432179467 4.567957325298726 5.65775098692316 0 0 0
752 72 26 -0.39 17.158656872573403 3.2954728437767846 4.913938773879113 0 0 0
756 72 26 -0.39 16.39848093451341 4.614738889070821 6.450810205002878 0 0 0
393 33 11 0.06 18.143887874996643 1.4875222492943543 9.67063948141969 0 0 0
389 33 1 0.22 17.29099944938167 2.0680483873048767 9.356892854274497 0 0 0
392 33 11 0.06 17.622016688128195 3.094566356853721 9.430483533204967 0 0 0
391 33 11 0.06 17.060429855857166 1.885364715000624 8.323713973086132 0 0 0
768 74 26 -0.39 2.565699257162374 6.37892395178944 5.818362940206532 0 0 0
765 74 26 -0.39 4.522274501745831 6.400374714228152 6.926001769440871 0 0 0
770 74 26 -0.39 4.392792812983238 7.439729151578385 5.047127859896714 0 0 0
766 74 26 -0.39 2.6971406437933796 8.583413535871019 5.675526355965447 0 0 0
764 74 27 1.34 3.5547679379999195 7.4808892293814075 6.356234693476644 0 0 0
769 74 26 -0.39 2.7030018297629455 7.48470328419012 7.647390690773294 0 0 0
336 28 11 0.06 -0.7358986851910849 9.404413216921535 7.301335317396774 1 0 0
767 74 26 -0.39 4.347581301261409 8.654512422286778 6.935102973556557 0 0 0
402 34 1 0.22 4.089996783714239 9.577237973630059 9.59113978579203 0 0 0
406 34 11 0.06 4.386056507609291 8.515790193843445 9.332735626603064 0 0 0
295 25 11 0.06 6.519002119044591 9.73883448653589 5.47723158993358 0 0 0
639 55 11 0.06 6.84558612935983 7.281051240231134 6.349179332316633 0 0 0
637 55 11 0.06 7.0062674796020135 5.154928781768448 5.07575618222836 0 0 0
631 55 9 0.52 9.268327324971716 5.6331707112464295 6.346849648401735 0 0 0
635 55 2 0.22 7.393939918722825 6.487852025814734 6.685444065641349 0 0 0
636 55 2 0.22 7.086081588416678 5.1376984542293345 6.157676794927306 0 0 0
640 55 11 0.06 6.954898837431207 6.537751457612727 7.771851618221554 0 0 0
634 55 19 -0.35 8.667393751685346 6.810152605615719 6.299607749224636 0 0 0
399 34 19 -0.35 7.086272216155402 9.2497714842007 9.72231946833197 0 0 0
405 34 11 0.06 8.032278281326752 9.45571759920153 7.963936725681551 0 0 0
401 34 1 0.22 8.283991791528239 9.497187700682689 9.030482431364463 0 0 0
404 34 11 0.06 8.903764571218707 8.63152092192565 9.124425590552201 0 0 0
456 38 11 0.06 13.504154930998494 4.940156989212022 6.652509865611234 0 0 0
447 38 19 -0.35 13.387486188599123 7.009164441623097 4.848613001372267 0 0 0
452 38 11 0.06 14.955667645445846 7.119926465024015 6.244797762092786 0 0 0
449 38 1 0.22 14.226431511914358 7.670647707516865 5.759075793281653 0 0 0
697 61 11 0.06 11.864655126337285 9.462983933468577 5.29497139861534 0 0 0
632 55 20 -0.5 10.445679001498359 5.460991365125521 6.2130271017410665 0 0 0
453 38 11 0.06 14.80628271137017 8.361299910002163 5.226873817227649 0 0 0
451 38 11 0.06 13.748596337779059 8.34180243431619 6.439411563848186 0 0 0
478 40 11 0.06 11.817689645860979 8.48701619061848 9.765004054228998 0 0 0
472 40 19 -0.35 12.551158012860904 6.9671852649062025 8.502229660616159 0 0 0
474 40 1 0.22 12.494254164423372 8.298952625060778 9.012385471604416 0 0 0
480 40 11 0.06 12.260994838487264 8.914098891507024 8.173273375101017 0 0 0
479 40 11 0.06 13.396622494926124 8.651142044676769 9.474720760157346 0 0 0
471 40 19 -0.35 13.312544274616899 4.788231608513517 9.3154816304338 0 0 0
469 40 9 0.52 12.456151819381947 5.903614747641679 9.435847505175053 0 0 0
473 40 1 0.22 14.627353602894056 5.20201875481444 9.535066755138253 0 0 0
475 40 11 0.06 15.017790294825053 5.82187031938871 8.769944760434717 0 0 0
751 72 26 -0.39 18.328600996489424 5.8479026821418865 6.318812322917346 0 0 0
609 52 11 0.06 17.555880389430953 8.92142943430429 9.629902617323886 0 0 0
610 52 11 0.06 19.130402544334967 9.146200877644715 8.920958419940764 0 0 0
605 52 2 0.22 18.04510856031905 9.332752620080585 8.72158068608552 0 0 0
607 52 11 0.06 17.352529735085408 7.535474808365942 7.9697745338413615 0 0 0
606 52 2 0.22 17.731984814337068 8.476883812368653 7.536530235082132 0 0 0
608 52 11 0.06 18.571714073369975 8.412042170060062 6.901285775563413 0 0 0
601 52 9 0.52 16.088696473839413 9.972162093090779 7.879236539458592 0 0 0
603 52 19 -0.35 16.520746237370982 8.94386210906122 6.988073464878166 0 0 0
91 8 11 0.06 0.00523387288874011 14.667256098379974 4.665551866010032 1 0 0
408 34 11 0.06 3.69502257785442 10.175269902695003 8.722809932999645 0 0 0
335 28 11 0.06 0.6021237147525946 10.399886548614793 8.059672016336553 1 0 0
330 28 1 0.22 -0.2611129778183253 10.399803780817438 7.418315575300916 1 0 0
334 28 11 0.06 0.22666813962367394 10.616790590207618 6.439237588073149 1 0 0
346 29 11 0.06 2.3098999371103117 12.589561583807356 6.626374640447339 0 0 0
342 29 1 0.22 2.7213525038800803 13.230124654784197 5.803950329229362 0 0 0
347 29 11 0.06 1.9885873662586588 13.314336703419425 5.042632473421457 0 0 0
340 29 19 -0.35 2.95275806496245 14.516097545592801 6.352442261079482 0 0 0
348 29 11 0.06 3.582111482143432 12.693471878183239 5.282629349650279 0 0 0
337 29 9 0.52 4.143277682209275 15.203295100998815 5.862185575685639 0 0 0
326 28 20 -0.5 -0.39963346256234483 12.84686780935056 6.388783218645817 1 0 0
650 56 11 0.06 1.5643071287009396 14.31809783613967 8.619350011454356 0 0 0
645 56 2 0.22 0.6410818316099509 14.932253984609773 8.685320564731569 0 0 0
649 56 11 0.06 -0.1647142383479253 14.218315006418335 8.526639460187832 0 0 0
644 56 19 -0.35 1.33203646548399 15.220408395116596 9.921694829009333 0 0 0
297 25 11 0.06 5.302098491403453 10.952921177080023 5.920526279217423 0 0 0
293 25 1 0.22 6.160817718467742 10.722850272277302 5.2740506752826475 0 0 0
296 25 11 0.06 7.036771607739397 11.390807185787759 5.496887147276727 0 0 0
397 34 9 0.52 6.191052587340317 10.29159937708573 9.456563003288284 0 0 0
338 29 20 -0.5 5.192646816215494 14.603778577694245 5.952865185700092 0 0 0
398 34 20 -0.5 6.411385311177406 11.115423056543154 8.548436456138447 0 0 0
357 30 11 0.06 8.415645979903704 14.450600608614875 7.661687596108656 0 0 0
353 30 1 0.22 8.677533552658002 13.364187233329599 7.575128237611979 0 0 0
351 30 19 -0.35 9.844995562361694 13.292132629337306 6.7698489864894995 0 0 0
355 30 11 0.06 7.907349968982192 12.8705841574223 6.985449194144801 0 0 0
356 30 11 0.06 8.641436572835474 12.957181070863497 8.619030704098076 0 0 0
403 34 11 0.06 8.842599804564335 10.3440464555685 9.339006265653522 0 0 0
677 59 11 0.06 5.556338633247162 13.239672731745369 9.967849610746711 0 0 0
349 30 9 0.52 10.802176006818279 12.21804500357003 6.869000970011036 0 0 0
350 30 20 -0.5 10.614368459240257 11.372800064014314 7.719878991756314 0 0 0
352 30 19 -0.35 11.894343727995961 12.192926361121629 5.955408813405478 0 0 0
359 30 11 0.06 12.012751416160459 14.29798249162432 5.646102396573951 0 0 0
360 30 11 0.06 12.631269029983295 13.811704602381553 7.1386842800971 0 0 0
354 30 1 0.22 12.540521598611207 13.465126652973813 6.078378729258868 0 0 0
358 30 11 0.06 13.57436121748251 13.40742574173487 5.630109824198344 0 0 0
171 15 19 -0.35 11.772668282423398 14.826650118589047 9.215921711188757 0 0 0
602 52 20 -0.5 14.88846699420669 10.352630932035177 7.8289164540142515 0 0 0
178 15 11 0.06 12.695660236593396 10.936342016310741 8.97059483587126 0 0 0
179 15 11 0.06 13.678764499696115 12.474300985708814 9.113860364489184 0 0 0
174 15 1 0.22 12.932898605156968 11.846313311079262 9.575614331167854 0 0 0
325 28 9 0.52 20.13923386788969 12.42365552629931 7.01632479545806 0 0 0
328 28 19 -0.35 20.309550932057224 11.313630859504897 7.913363712483186 0 0 0
604 52 19 -0.35 16.945553154910222 10.160283983213338 8.947078082610982 0 0 0
327 28 19 -0.35 18.841734942878638 13.026339945332795 6.894124527131922 0 0 0
332 28 11 0.06 18.50772324950892 14.131506896339621 8.694338922910717 0 0 0
329 28 1 0.22 18.228646204189744 13.22464321571505 8.201006411967834 0 0 0
333 28 11 0.06 17.218883309453517 13.481661748765472 7.84704299141309 0 0 0
331 28 11 0.06 18.28410136213251 12.40763574024816 8.916001200442903 0 0 0
648 56 11 0.06 1.047359647107115 16.106863959395923 6.76528932030535 0 0 0
339 29 19 -0.35 4.060575372573113 16.499690197754997 5.342478769966339 0 0 0
189 16 11 0.06 1.437778717554203 19.085158648674742 5.574432363340494 0 0 0
185 16 1 0.22 1.7605095201262642 20.025501332847185 5.189551546157268 0 0 0
187 16 11 0.06 1.8372424822473108 20.74369488326951 6.040404707680989 0 0 0
646 56 2 0.22 0.697661639194894 16.209076372018963 7.828063727670873 0 0 0
647 56 11 0.06 -0.3885780945216994 16.490675252321402 7.734646987894029 0 0 0
641 56 9 0.52 1.5457413258141228 16.583655470291383 9.852893678857813 0 0 0
643 56 19 -0.35 1.4657425703886773 17.079296455423616 8.579276375513937 0 0 0
379 32 11 0.06 7.613226131188917 15.42600951385155 6.06105603223042 0 0 0
377 32 1 0.22 7.515830609717801 16.35898993536899 5.483220166212749 0 0 0
380 32 11 0.06 6.768869596892437 16.8400934205075 6.10534402166417 0 0 0
246 21 1 0.22 9.846964676202116 19.98256633038885 5.306540397107261 0 -1 0
251 21 11 0.06 8.83921307808094 19.69177486119665 5.352943377448893 0 -1 0
569 48 11 0.06 6.924942940486043 20.378263096712104 8.787102647604097 0 0 0
565 48 2 0.22 7.480853538270882 19.408574054009527 8.850187320765214 0 0 0
570 48 11 0.06 8.23414826784777 19.206442050235356 8.056126435930938 0 0 0
564 48 19 -0.35 6.145126962545102 19.088157760510615 8.589950917925442 0 0 0
375 32 19 -0.35 8.683950235587305 17.104142668849086 5.427523853331073 0 0 0
561 48 9 0.52 5.632903462404642 18.526277681416037 9.77789472508137 0 0 0
373 32 9 0.52 9.843273317681692 16.3106304452523 5.240767075590437 0 0 0
301 26 9 0.52 14.050496638375705 20.646268169779905 4.829197947101991 0 0 0
250 21 11 0.06 10.316244855388247 19.607412036450732 6.230160216894446 0 -1 0
302 26 20 -0.5 13.499902826389045 20.184831701143494 5.797021918789257 0 0 0
396 33 11 0.06 14.156518429457066 20.57281177080363 8.543487108298166 0 -1 0
173 15 1 0.22 10.807646509716694 15.773211311253803 9.607827121955818 0 0 0
511 43 11 0.06 14.553600538362819 16.09551669892408 8.313878853975321 0 0 0
376 32 19 -0.35 10.88089910453449 16.50894991391971 6.195921850366833 0 0 0
176 15 11 0.06 10.484906190171463 16.372421103281965 8.740931897188938 0 0 0
383 32 11 0.06 12.076006207144044 18.04788381448217 5.5994648631137895 0 0 0
378 32 1 0.22 12.067973716032643 16.930671729827274 5.595869534293877 0 0 0
384 32 11 0.06 12.889724263676907 16.763104240617718 6.28277737474814 0 0 0
552 47 20 -0.5 11.172041737882067 19.010801082745967 8.91533438487537 0 0 0
551 47 9 0.52 11.664001171063376 19.142234606272673 9.977928469222729 0 0 0
306 26 1 0.22 16.378416029924274 20.490133992984084 4.819213078483669 0 0 0
312 26 11 0.06 16.39238568188938 20.675941911844127 5.88322288492024 0 0 0
94 8 11 0.06 20.21170810793158 18.47573911799063 4.999605557385607 0 0 0
512 43 11 0.06 16.144794978357396 15.407119801771813 8.742641552273827 0 0 0
509 43 1 0.22 15.590920440737797 16.31106206438114 8.697359810858302 0 0 0
507 43 19 -0.35 16.169172638820072 17.393269062707887 7.939718626922158 0 0 0
513 43 11 0.06 15.398848908425148 16.69034833600214 9.775028938299423 0 0 0
506 43 20 -0.5 18.243514145518702 16.638472692045724 8.391720975822127 0 0 0
516 43 11 0.06 18.112779251752997 19.524020106289203 9.347230245686326 0 0 0
508 43 19 -0.35 18.09334886073906 18.78340640992703 7.371576924163422 0 0 0
510 43 1 0.22 18.68655515345476 19.575937611869765 8.385950307738598 0 0 0
515 43 11 0.06 18.70678759469718 20.582507692445574 8.04551190377507 0 0 0
514 43 11 0.06 19.70850295935685 19.230186578715866 8.648730177984813 0 0 0
505 43 9 0.52 17.561355969796466 17.571673421087116 7.980162197157197 0 0 0
46 4 11 0.06 2.9997080539337713 2.4828386657524826 12.381751278268801 0 0 0
37 4 9 0.52 1.8814486784527529 0.4790011215366363 10.449159739168561 0 0 0
40 4 19 -0.35 3.000728362442554 1.1078291985992301 10.88597962378153 0 0 0
38 4 20 -0.5 0.9509587020661012 1.2137354780519813 10.128701108759012 0 0 0
43 4 11 0.06 0.1269945347294309 -0.5143145758536303 11.75969566959172 0 0 0
42 4 1 0.22 3.0683419945657064 1.4453182912680207 12.252336381135555 0 0 0
47 4 11 0.06 2.340065393155051 0.8059059033164568 12.894389956259968 0 0 0
48 4 11 0.06 4.02148545438197 1.2813842580154473 12.577519722729619 0 0 0
539 45 11 0.06 0.30799399942059735 1.0945375057464217 15.130675278697165 0 0 0
224 19 11 0.06 6.2210529604997475 0.03271731973822534 14.445511649706742 0 0 0
314 27 20 -0.5 7.554289956492383 1.8095517944472301 12.23853144483745 0 0 0
315 27 19 -0.35 8.4145764976305 3.5740348840446705 10.932850563712982 0 0 0
316 27 19 -0.35 6.3516255765545155 3.6481948169567007 12.360491717358265 0 0 0
322 27 11 0.06 5.676435306134734 3.0203456243134847 14.154872600034674 0 0 0
318 27 1 0.22 6.323073695853845 3.8050949302317703 13.787221354974909 0 0 0
323 27 11 0.06 7.241926907841328 3.701978851023597 14.363266931014529 0 0 0
313 27 9 0.52 7.507344738707831 2.9985588293440277 11.9194004113606 0 0 0
388 33 19 -0.35 14.472482882792594 0.317503449605413 10.113839860869781 0 0 0
597 51 11 0.06 12.968015566167882 1.1673505268115767 11.758183717728457 0 0 0
599 51 11 0.06 14.718298800432722 2.1880232666160158 12.469846151107674 0 0 0
600 51 11 0.06 14.54304496610613 3.6358509948882345 11.709431868784383 0 0 0
596 51 2 0.22 12.797281271038562 2.260836783148927 11.736336730366146 0 0 0
598 51 11 0.06 12.632426453916441 2.5605153931105593 10.680965296043789 0 0 0
593 51 19 -0.35 11.762109672407783 3.1879941381246546 11.93759521545225 0 0 0
595 51 2 0.22 13.998440591706656 2.946955776519303 12.40361256373468 0 0 0
594 51 19 -0.35 13.559531741308607 3.8890153535346252 13.388829466279612 0 0 0
591 51 9 0.52 12.254343688066967 4.094389780537598 12.94376316135909 0 0 0
254 22 20 -0.5 14.896449272682558 1.055373907586701 14.86284504279691 0 0 0
385 33 9 0.52 15.866974588153163 0.4888260083554654 10.144790995630101 0 0 0
154 13 11 0.06 15.7119945043763 4.319693403856075 15.3688145793414 0 0 0
387 33 19 -0.35 16.1523009306392 1.8426773910361316 10.15987650911779 0 0 0
259 22 11 0.06 17.937582789339807 -0.5882036394763379 13.315681397669055 0 0 0
257 22 1 0.22 17.5630066594932 0.31854201603026855 13.846779186911322 0 0 0
261 22 11 0.06 18.345353437014094 0.9189345401968481 14.308315146524361 0 0 0
260 22 11 0.06 16.91407332020603 0.896418174644275 13.215377163625028 0 0 0
738 70 26 -0.39 19.155782143223732 4.422429046161367 10.78238873873077 0 0 0
255 22 19 -0.35 16.795541220893757 -0.22354350496035968 14.883249873826163 0 0 0
140 12 11 0.06 20.25060027275608 3.2858702969766336 14.53737995628847 -1 0 0
386 33 20 -0.5 16.668191400666874 -0.29596596233076233 10.702913901659576 0 0 0
137 12 1 0.22 20.65194400021229 4.166922803465643 14.888111301653403 -1 0 0
407 34 11 0.06 3.2440000122932116 9.430369782941204 10.222534830219274 0 0 0
285 24 11 0.06 2.3361414676541017 6.541780023052155 10.94441985490934 0 0 0
283 24 11 0.06 1.9545912657997864 5.3058346887465415 12.070843282621382 0 0 0
288 24 11 0.06 3.0814160757985922 9.689583960853966 14.373983764808708 0 0 0
277 24 9 0.52 3.4074501150289773 7.244150147209738 13.877223555556823 0 0 0
280 24 19 -0.35 4.43760691218535 8.205625936782814 14.176922623299333 0 0 0
279 24 19 -0.35 3.504885871226512 6.519677044685764 12.652541834572745 0 0 0
281 24 1 0.22 2.259183505220754 6.396000274462734 12.053444573766114 0 0 0
282 24 1 0.22 4.106909555835945 9.520406491941536 14.125055034210222 0 0 0
287 24 11 0.06 4.226813035501745 9.884482885953547 13.133624710511308 0 0 0
143 12 11 0.06 -0.4557502578579408 7.581948800077688 14.155373062408893 0 0 0
284 24 11 0.06 1.396496351979239 7.034253677448911 12.36615169003294 0 0 0
278 24 20 -0.5 2.459284500441862 7.02507268487706 14.643617852954316 0 0 0
141 12 11 0.06 -0.5355826735357176 4.837857678434618 14.066361954973232 0 0 0
324 27 11 0.06 5.844278027947567 4.752563292203817 14.009990950919978 0 0 0
160 14 19 -0.35 7.615555951990382 7.618293610057229 12.269769175807951 0 0 0
168 14 11 0.06 5.827343324928633 7.641296572469798 11.453977455548635 0 0 0
162 14 1 0.22 6.607647291849997 6.952414893349253 11.442019968920103 0 0 0
166 14 11 0.06 6.827132504694679 6.765704670231473 10.3858865637766 0 0 0
167 14 11 0.06 6.260887938997762 5.996354714529008 11.853320135834467 0 0 0
159 14 19 -0.35 8.652487150675798 5.803852186923789 13.636010708076794 0 0 0
157 14 9 0.52 8.691173108820639 6.707751302215953 12.540681072180629 0 0 0
161 14 1 0.22 9.346665538156197 6.248624009955571 14.819543769732817 0 0 0
158 14 20 -0.5 9.7429659504241 6.954459090675093 11.998301296876672 0 0 0
723 64 19 -0.35 9.67885181880806 9.68134498658894 13.948884535388835 0 0 0
728 64 11 0.06 9.079391528282883 9.64885839545493 11.844136237464344 0 0 0
476 40 11 0.06 14.739152987596864 5.688962965746248 10.522757553940139 0 0 0
148 13 19 -0.35 15.13880467070443 6.327304659220136 15.219575639498247 0 0 0
592 51 20 -0.5 11.675102458042375 5.151702960758593 13.303854552203603 0 0 0
163 14 11 0.06 10.306113269744815 6.6369869837812 14.629571038519142 0 0 0
470 40 20 -0.5 11.873205987427065 6.109601578668712 10.544864216286966 0 0 0
731 65 31 1 11.27208545313468 6.518292199412658 12.10951738417187 0 0 0
581 50 9 0.52 13.127113797851806 8.348612254553329 12.580683678966452 0 0 0
584 50 19 -0.35 14.030648044431652 7.795771683788551 11.705194143704928 0 0 0
582 50 20 -0.5 12.059699977943616 7.8128175234648936 12.890603664892618 0 0 0
583 50 19 -0.35 13.749898405987102 9.212093685874084 13.52873673484101 0 0 0
585 50 2 0.22 15.264514389784573 7.826125976097607 12.423044494432368 0 0 0
587 50 11 0.06 14.935714957414415 9.827549319514914 13.17607044501958 0 0 0
586 50 2 0.22 15.046849611055018 8.76695737008871 13.555334847867753 0 0 0
739 70 26 -0.39 18.659929948855563 6.529269486707257 10.040517011189436 0 0 0
142 12 11 0.06 20.388419974632754 8.945476597745232 15.240283175055577 -1 0 0
144 12 11 0.06 19.72493285922889 8.535166286571235 13.763059951498718 -1 0 0
138 12 1 0.22 20.1868522850135 8.034732914928409 14.632013438924679 -1 0 0
150 13 1 0.22 16.11837854160568 5.30788087082257 15.311340008093698 0 0 0
155 13 11 0.06 16.70329547099807 5.231962981854085 14.43642380618967 0 0 0
741 70 26 -0.39 17.19307123049898 5.4791307079507945 11.277338899747313 0 0 0
736 70 27 1.34 18.71182310684832 5.811613803932768 11.409625876140334 0 0 0
589 50 11 0.06 15.605024712906427 8.369387990252731 11.547179755371666 0 0 0
590 50 11 0.06 16.074179784892728 7.188941856153168 12.750782067646432 0 0 0
740 70 26 -0.39 18.71785384920829 5.190647337648898 12.834196749547255 0 0 0
742 70 26 -0.39 20.193720472573037 6.114780148040105 11.668517053305438 0 0 0
588 50 11 0.06 15.99020134297805 8.912974550771219 14.068756284558798 0 0 0
737 70 26 -0.39 18.37693603938596 7.2575556955411535 11.908932818852769 0 0 0
136 12 19 -0.35 19.273708024815882 6.9548866826405344 15.058010997306024 -1 0 0
678 59 11 0.06 4.4979472085581405 12.625476827061217 11.139846852945762 0 0 0
286 24 11 0.06 4.553386811692105 10.051315352843698 14.95531269325742 0 0 0
746 71 26 -0.39 0.5985056179738881 11.966977298931164 13.650722452017968 0 0 0
748 71 26 -0.39 1.1027415626118944 13.748469657203561 12.550146473036254 0 0 0
743 71 27 1.34 1.3257047053662574 12.215546041841751 12.335419672358988 0 0 0
744 71 26 -0.39 -0.0005963989164692318 12.106502603648424 11.585530281346875 0 0 0
745 71 26 -0.39 2.676848575396081 12.275835891366867 13.095322075747289 0 0 0
747 71 26 -0.39 2.0214431821868546 12.515033964784857 11.030849511979333 0 0 0
749 71 26 -0.39 1.6129929693996274 10.713408434180446 12.122068170974813 0 0 0
680 59 11 0.06 3.5485597267327247 14.68608272342653 11.083985302107788 0 0 0
128 11 11 0.06 1.3837231351174855 14.018555918936046 14.841557911293277 0 0 0
125 11 1 0.22 2.209965660479148 14.598224783160761 15.217786359065448 0 0 0
127 11 11 0.06 3.0914150348404013 13.947908710343674 15.174979453878096 0 0 0
400 34 19 -0.35 5.065773273391774 10.386139530280964 10.294671672372006 0 0 0
177 15 11 0.06 9.919341475001358 15.370251509056352 10.026288392072997 0 0 0
724 64 19 -0.35 8.21680559308935 11.474700422789317 14.32353750450403 0 0 0
730 64 11 0.06 7.240027946791366 10.77045256109427 12.83457410913255 0 0 0
673 59 19 -0.35 6.196424612102104 13.231833836086148 12.17392024847307 0 0 0
675 59 2 0.22 4.658203638870559 14.784839515041595 11.152004160627781 0 0 0
676 59 2 0.22 5.316377949944975 13.342327279474324 11.035563104310619 0 0 0
671 59 9 0.52 5.99582882715644 14.400062957668847 12.878975877643668 0 0 0
672 59 20 -0.5 6.331076624195467 14.494431508511298 14.02629418292271 0 0 0
721 64 9 0.52 8.829566577398506 10.319021866602641 14.873574701899683 0 0 0
674 59 19 -0.35 4.940979798759285 15.141710483822115 12.500223846616374 0 0 0
725 64 2 0.22 8.210140431276452 11.278026943931343 12.917965309690356 0 0 0
726 64 2 0.22 9.282369332882261 10.259248128018275 12.716413134603368 0 0 0
729 64 11 0.06 8.22711995806814 11.982913004800514 12.07603614612253 0 0 0
115 10 11 0.06 8.780646385844086 14.009093651640017 14.082500020724313 0 0 0
113 10 1 0.22 9.829510279334169 14.046238908350837 13.863706725059199 0 0 0
117 10 11 0.06 10.394573774488899 13.60050480288403 14.67002897432976 0 0 0
727 64 11 0.06 10.237560645905804 10.750816297088416 12.475763404508948 0 0 0
172 15 19 -0.35 11.756740916148178 12.522513296677253 10.065817016748818 0 0 0
169 15 9 0.52 11.990701751850102 13.92765133965902 10.253563326798954 0 0 0
180 15 11 0.06 13.421525306537482 11.32907072180667 10.353322362286892 0 0 0
270 23 1 0.22 14.584786010306921 13.63079312015415 12.9684617397687 0 0 0
276 23 11 0.06 14.970265028973058 14.472457299274888 12.388344663386677 0 0 0
170 15 20 -0.5 12.094935715600117 14.345915951868086 11.387048647510642 0 0 0
274 23 11 0.06 13.524608649701118 13.837507712818832 13.193429354481836 0 0 0
275 23 11 0.06 15.042143408662366 13.542396383019343 13.961827552517965 0 0 0
268 23 19 -0.35 14.795110203183036 12.312511521903993 12.383031652615408 0 0 0
111 10 19 -0.35 10.235080858481982 15.319932760233847 13.835539682502409 0 0 0
116 10 11 0.06 10.030955783127185 13.535676625367245 12.925690536661518 0 0 0
272 23 11 0.06 18.72370311404573 10.252254369708764 12.559593950957385 0 0 0
267 23 19 -0.35 16.92494458227938 11.032477873919966 12.099771456894722 0 0 0
269 23 1 0.22 18.309200728270184 11.206813466243247 12.144399288964316 0 0 0
273 23 11 0.06 18.77488356765952 11.284099459431568 11.201458475985566 0 0 0
271 23 11 0.06 18.698789830664612 12.094862918806674 12.708952990577833 0 0 0
265 23 9 0.52 16.152738865449518 12.249713639642822 11.876113525591549 0 0 0
266 23 20 -0.5 16.426916168916776 12.896118436253373 10.865030955804514 0 0 0
518 44 20 -0.5 17.080116501796333 15.043555958033721 14.786165688816238 0 0 0
524 44 11 0.06 19.79456859234435 13.147979878090009 14.253232627040944 0 0 0
525 44 11 0.06 20.496229518223053 14.697905383472015 14.614082577402698 0 0 0
521 44 1 0.22 19.957074935469638 13.852969516607521 15.103663075920037 0 0 0
517 44 9 0.52 17.60802655679786 14.02685840693695 15.213411090036237 0 0 0
520 44 19 -0.35 16.886971147361336 12.783947608203746 15.243960737020492 0 0 0
41 4 1 0.22 0.5195903462373221 20.125349560242864 11.230383022020298 0 -1 0
44 4 11 0.06 -0.09118113841095687 19.940965443704513 10.349515029599283 0 -1 0
45 4 11 0.06 0.5813398675433823 19.223196285152863 11.917524149311978 0 -1 0
219 19 19 -0.35 4.492908748836196 20.569824127563553 14.0334266813511 0 -1 0
129 11 11 0.06 2.511414860418164 15.389712719958546 14.533943133395363 0 0 0
642 56 20 -0.5 2.240896224908951 17.066061273179237 10.70031477393642 0 0 0
39 4 19 -0.35 1.7675245647857412 20.56831629853227 10.770496861602256 0 -1 0
732 66 31 1 3.3047961278573856 18.119734615124727 11.366900065684254 0 0 0
217 19 9 0.52 4.100333829419201 19.219396264051618 13.770483677181634 0 -1 0
220 19 19 -0.35 4.216681488126445 18.236742925699144 14.818529549530373 0 -1 0
218 19 20 -0.5 3.3871485723122854 18.908096988092808 12.830240772615536 0 -1 0
562 48 20 -0.5 4.416907960776222 18.454101087556538 10.15344636804353 0 0 0
532 45 19 -0.35 -0.5058567791492328 20.694877683818532 14.40525325269623 0 -1 0
529 45 9 0.52 -0.7466490836850019 19.408936149382725 14.846643402895348 0 -1 0
530 45 20 -0.5 -0.06284615761810541 18.436871516119396 14.403448160300321 0 -1 0
567 48 11 0.06 7.713805887628634 19.932009197353413 11.041193361981287 0 0 0
566 48 2 0.22 7.754378934153365 19.04913373082373 10.328838022455212 0 0 0
221 19 1 0.22 5.96839454367898 20.60963471189434 13.950553193045497 0 -1 0
223 19 11 0.06 6.387254510241361 20.69263773890857 12.904642201225876 0 -1 0
225 19 11 0.06 6.520548300201524 19.833215038676837 14.546417583849086 0 -1 0
679 59 11 0.06 5.043029630122288 15.471209198184145 10.388463029131021 0 0 0
563 48 19 -0.35 6.559290651893226 18.419752308654477 10.816644509111114 0 0 0
568 48 11 0.06 8.668459725420448 18.46475743117647 10.594058412000406 0 0 0
120 10 11 0.06 6.8869255876303255 17.031498783873907 13.940546216775513 0 0 0
112 10 19 -0.35 8.997681042259702 17.268254976295104 14.086071774415412 0 0 0
118 10 11 0.06 7.609748906377877 16.265065125657323 15.33120963825133 0 0 0
114 10 1 0.22 7.68284489129303 17.11931629349336 14.691964573482437 0 0 0
119 10 11 0.06 7.509314529695713 17.929892387728117 15.370340672217871 0 0 0
109 10 9 0.52 9.328180280221487 16.208154758087915 13.198766859190147 0 0 0
110 10 20 -0.5 9.180097769267745 16.379647539573526 11.981241874362368 0 0 0
553 47 19 -0.35 12.912784793683333 18.713392254124827 10.234894098833973 0 0 0
175 15 11 0.06 11.196738598408553 16.47318919516575 10.330786874582113 0 0 0
559 47 11 0.06 11.490283718424008 18.57771753778946 13.065883918620926 0 0 0
554 47 19 -0.35 10.924558145623491 19.655087675015977 10.987203387663401 0 0 0
555 47 2 0.22 11.584313591509217 19.186134369497406 12.161225393352044 0 0 0
560 47 11 0.06 11.206619344832585 20.160849792371458 12.427894882918254 0 0 0
558 47 11 0.06 13.644030796324595 19.952804357999494 11.828021516538852 0 0 0
556 47 2 0.22 13.068550411558364 19.07678114656664 11.548571819061245 0 0 0
557 47 11 0.06 13.502693299017633 18.103223816882394 11.790010870808283 0 0 0
656 57 2 0.22 14.35814122552059 18.83710223402609 14.820800392868847 0 0 0
659 57 11 0.06 15.145589719232358 16.958974186684976 14.0006254522973 0 0 0
655 57 2 0.22 15.027545663812994 17.454258875925923 14.969955769877865 0 0 0
657 57 11 0.06 14.900049881239417 19.269404623441247 14.013284959899533 0 0 0
620 53 11 0.06 18.58577543744439 15.567302215411324 12.482230015409444 0 0 0
619 53 11 0.06 19.230107510166167 15.390792226134025 10.909359063723578 0 0 0
618 53 11 0.06 19.924483234550404 17.248513783623054 12.602387304740855 0 0 0
615 53 2 0.22 18.61513617072001 16.06049728124701 11.503431309081073 0 0 0
617 53 11 0.06 19.981250115185656 17.708460439058047 10.846993007000654 0 0 0
616 53 2 0.22 19.330808972269036 17.375013535352622 11.673115333099421 0 0 0
613 53 19 -0.35 18.319252051540975 18.37397510413898 11.389719617435926 0 0 0
614 53 19 -0.35 17.268577210220304 16.25538509609533 11.430739248372012 0 0 0
611 53 9 0.52 17.184749399230775 17.642381112299113 11.609336874585681 0 0 0
612 53 20 -0.5 16.079733616241693 18.131129158746337 11.854995424085153 0 0 0
660 57 11 0.06 16.05068939645868 17.51578918587046 15.364021524272008 0 0 0
34 3 11 0.06 2.885774349231568 0.28535471799887624 20.242473218767046 0 1 0
30 3 1 0.22 3.678400098838173 -0.49390441464741164 20.221446476688115 0 1 0
139 12 11 0.06 0.003711506331551817 4.0128039109780556 15.550597564481091 0 0 0
534 45 1 0.22 0.0740332267253595 0.07633852838929156 15.427356672294678 0 0 0
670 58 11 0.06 0.26861933758709045 4.294407709299437 19.21283455757957 0 0 0
661 58 9 0.52 2.374965003778091 2.567794399342285 17.8369736038351 0 0 0
663 58 19 -0.35 2.255400699188403 3.5492661972390955 16.916743502377077 0 0 0
664 58 19 -0.35 2.0050610785594687 2.87437337681774 19.11946865002658 0 0 0
665 58 2 0.22 1.2972028251780223 4.052528490465817 18.974261012996095 0 0 0
669 58 11 0.06 1.8510719486336615 4.352030662626606 19.87120874200276 0 0 0
662 58 20 -0.5 2.534533399760185 1.3837911480511762 17.47161761509826 0 0 0
540 45 11 0.06 -0.4435869431020781 0.2132371394191579 16.355024019402297 0 0 0
36 3 11 0.06 4.00317455775207 -0.5291657285108637 19.178801981655717 0 1 0
538 45 11 0.06 0.9768570088078521 -0.3810510682950863 15.803184035615299 0 0 0
416 35 11 0.06 4.755381244906835 3.482720088797164 20.265340374414684 0 0 -1
542 46 20 -0.5 6.175591094977015 3.772674171408525 17.936906754901653 0 0 0
98 9 20 -0.5 9.286509042850813 3.2293535696509874 19.395160150836347 0 0 0
710 62 11 0.06 6.919434707368933 1.341496773573727 18.714699557054967 0 1 0
97 9 9 0.52 9.702995424064321 4.104899720293415 18.675300525409664 0 0 0
705 62 2 0.22 7.499943200141768 0.4487318546608057 18.667988306136053 0 1 0
709 62 11 0.06 8.543613338758787 0.734877065561818 18.793310169173324 0 1 0
708 62 11 0.06 6.468543374735314 0.6742210861251938 16.77063631057279 0 1 0
707 62 11 0.06 8.009787889153358 0.03702788837812421 16.573299677075553 0 1 0
706 62 2 0.22 7.1722905261562975 0.010342902060523795 17.236143422732024 0 1 0
56 5 11 0.06 10.223161159714792 1.3283932992257026 20.721162337226268 0 0 0
103 9 11 0.06 12.125190992621999 3.22479921751976 16.476914681221444 0 0 0
50 5 20 -0.5 13.096813696522823 0.285453581353595 19.322995701239012 0 0 0
104 9 11 0.06 11.08429715124761 2.1879482206104752 17.500462371380305 0 0 0
101 9 1 0.22 11.204875460913634 3.1654773631248134 17.0668780757733 0 0 0
105 9 11 0.06 10.367184995998018 3.3907718593976437 16.39154182688912 0 0 0
99 9 19 -0.35 11.030572138616364 4.048011057815815 18.17298354629066 0 0 0
49 5 9 0.52 12.259046845584026 -0.14905860696251327 20.13506792870715 0 0 0
684 60 19 -0.35 12.779335839067242 4.33436387174425 20.502911675956454 0 0 0
685 60 2 0.22 13.82756508413154 4.248843415395278 19.52122470451577 0 0 0
690 60 11 0.06 14.038570196156321 3.327570637361018 20.015107744399845 0 0 0
689 60 11 0.06 13.74110334158941 3.960377341681225 18.512112440769148 0 0 0
263 22 11 0.06 15.172215601218063 0.02240519904578675 17.6185733116607 0 0 0
262 22 11 0.06 14.81741479844446 1.7193418622578234 17.898953796204765 0 0 0
362 31 20 -0.5 16.713109469270893 2.732253432893129 20.554836248635752 0 0 -1
231 20 19 -0.35 20.19892325931409 1.8879279783281229 18.91696857479671 -1 0 0
235 20 11 0.06 19.224908689623486 3.843465351936741 19.303658758740003 -1 0 0
229 20 9 0.52 19.454431705079404 1.0297383652313226 19.72793615467566 -1 0 0
233 20 1 0.22 19.430485560217125 3.0784072711274706 18.544554899217264 -1 0 0
237 20 11 0.06 18.553700306646867 2.785492409997973 17.99812573600254 -1 0 0
230 20 20 -0.5 18.725560058222324 0.25743624547808897 19.19067114200843 -1 0 0
253 22 9 0.52 15.968766815205427 0.7144205099890288 15.41714352464746 0 0 0
264 22 11 0.06 16.173984545231573 0.8988309628333877 18.516994413751537 0 0 0
258 22 1 0.22 15.601517587850033 1.0489430186436859 17.63382627150495 0 0 0
256 22 19 -0.35 16.36452366880904 1.3652454076740201 16.502334100714485 0 0 0
236 20 11 0.06 19.984993358486157 3.6484292902653026 17.824260790424173 -1 0 0
19 2 11 0.06 3.326078692109342 7.402326243939367 20.185816494665815 0 0 -1
668 58 11 0.06 1.040348847591867 5.572028769716989 17.537660588735505 0 0 0
666 58 2 0.22 1.6898936791031036 4.671746109230396 17.648132320243995 0 0 0
667 58 11 0.06 2.7595291118717102 5.092557709905262 17.59638643677663 0 0 0
714 63 19 -0.35 1.9066117543226544 8.686368427296165 18.27966279840962 0 0 0
712 63 20 -0.5 0.1484996883845675 8.375058347308574 19.834338833819285 0 0 0
711 63 9 0.52 0.4857861563077617 8.648086212232723 18.65891651395763 0 0 0
715 63 2 0.22 2.008032251001803 9.73073571599271 17.362084295093354 0 0 0
719 63 11 0.06 2.479186871887207 9.65367657026414 16.388762863273655 0 0 0
713 63 19 -0.35 -0.17311101164820675 9.813253011384681 18.184721605775817 0 0 0
722 64 20 -0.5 8.243194398660194 9.625988327222677 15.74306032117659 0 0 0
541 46 9 0.52 5.877827903849188 4.950653502525988 17.81203268084643 0 0 0
100 9 19 -0.35 9.0189549583972 5.375959910150852 18.620488544474547 0 0 0
544 46 19 -0.35 5.740842562454024 5.463606400763443 16.537289372319126 0 0 0
543 46 19 -0.35 6.105298397986579 5.9813014412435646 18.76043348980969 0 0 0
545 46 2 0.22 5.792428956876212 6.837010859747978 16.706177797064495 0 0 0
550 46 11 0.06 6.105826231617695 7.567212367147013 15.949488988296416 0 0 0
549 46 11 0.06 4.703723696319045 6.701111117291625 16.59546455414134 0 0 0
546 46 2 0.22 6.036606222729289 7.219109716936226 18.16669316916196 0 0 0
548 46 11 0.06 6.320187675118641 8.236042893418942 18.27084758456252 0 0 0
547 46 11 0.06 5.138841405420109 7.033194399201143 18.765882832345948 0 0 0
107 9 11 0.06 9.540715556968483 7.257325878920543 18.97362786739445 0 0 0
164 14 11 0.06 8.806301707301763 6.943421821889065 15.411133553175524 0 0 0
165 14 11 0.06 9.392962776740575 5.421209207278583 15.490064364599082 0 0 0
102 9 1 0.22 9.65162816988594 6.334617638959542 19.46067322861902 0 0 0
108 9 11 0.06 9.24881430696042 6.384743417063312 20.45322429821113 0 0 0
686 60 2 0.22 14.663891020681953 5.51132347259433 19.841981932941447 0 0 0
687 60 11 0.06 14.159884372092513 6.433089705893409 19.572327160168935 0 0 0
147 13 19 -0.35 13.682808170200346 6.479063522645563 17.11746123752536 0 0 0
145 13 9 0.52 14.842189325147435 6.89029744002055 16.47095888007701 0 0 0
106 9 11 0.06 10.750015353405429 6.226669354887885 19.56896698169559 0 0 0
152 13 11 0.06 11.730244905561818 6.975621631278841 17.339567557081214 0 0 0
153 13 11 0.06 12.606369062440391 8.208315553686608 16.56183394535762 0 0 0
149 13 1 0.22 12.510552050593898 7.117936424803736 16.624133103167807 0 0 0
151 13 11 0.06 12.128112828163333 6.724312767589808 15.652306732061028 0 0 0
2 1 20 -0.5 12.001799140533677 8.923996095709152 19.233540540479414 0 0 0
1 1 9 0.52 11.447351095742423 9.916726391309666 18.79004738589304 0 0 0
156 13 11 0.06 16.83712829511077 5.422402262798838 16.158158743777246 0 0 0
688 60 11 0.06 15.698859758353123 5.496342601673331 19.684078881758257 0 0 0
134 12 20 -0.5 20.24262890587912 6.585580183839984 17.01182112432205 -1 0 0
133 12 9 0.52 19.928070138270314 6.186120689681656 15.895437963197743 -1 0 0
146 13 20 -0.5 15.588387239265707 7.643881786990999 17.105057848738333 0 0 0
135 12 19 -0.35 19.569299094928006 4.784630680560439 15.652175527224244 -1 0 0
82 7 11 0.06 17.127278638309733 7.752026737969727 19.450328188130054 0 0 0
78 7 1 0.22 18.012007995325302 7.113680741552934 19.284141383140735 0 0 0
84 7 11 0.06 17.9010444445959 6.597877592889369 18.384648076654827 0 0 0
76 7 19 -0.35 18.269378265626386 6.176180509687502 20.302650111820757 0 0 0
83 7 11 0.06 18.769832355812202 7.72542335601541 18.885358740247543 0 0 0
720 63 11 0.06 2.7969008886857014 10.172088514310426 18.01634657722769 0 0 0
718 63 11 0.06 0.6283802026692031 11.183679058942252 18.07372495720939 0 0 0
716 63 2 0.22 0.6804206418571817 10.44031283057397 17.30349252257735 0 0 0
124 11 19 -0.35 3.4207157302788964 13.834008600016706 17.76915969955601 0 0 0
717 63 11 0.06 0.48736276324560723 10.869842132458711 16.326635192831564 0 0 0
122 11 20 -0.5 1.3018823960683759 14.478654377385 18.420114165585744 0 0 0
121 11 9 0.52 2.1003607287205077 14.36048301524963 17.488848692013693 0 0 0
123 11 19 -0.35 1.9158062026986764 15.164922989144085 16.441419457670154 0 0 0
126 11 1 0.22 4.226178520095264 14.765562233715928 18.494782575965367 0 0 0
204 17 11 0.06 7.153926640105907 13.459436614250635 17.187290712844764 0 0 0
202 17 11 0.06 7.6568414677704855 11.891445832145193 17.387478844345896 0 0 0
203 17 11 0.06 6.469128907540625 12.45140282336319 18.541961222102778 0 0 0
198 17 1 0.22 7.365860256863979 12.754763439211619 17.939952209496106 0 0 0
131 11 11 0.06 5.072817364502713 15.03824060032335 17.899735910500635 0 0 0
130 11 11 0.06 4.753655492061586 14.346641000902116 19.306365767564493 0 0 0
193 17 9 0.52 8.23216414312188 14.514192965182191 19.19876706186369 0 0 0
196 17 19 -0.35 8.472423645323724 13.196639436335461 18.74481552743892 0 0 0
194 17 20 -0.5 8.501865431529122 14.792809631660614 20.368380396359754 0 0 0
4 1 19 -0.35 10.111978433933148 10.290509873228714 19.234629527865213 0 0 0
6 1 1 0.22 10.057844578173945 10.636258983178703 20.655416744730307 0 0 0
580 49 11 0.06 14.09480837682412 10.42824476990901 19.253169135539096 0 0 0
575 49 2 0.22 14.860556489018864 11.049681780593554 19.66710581545876 0 0 0
8 1 11 0.06 12.672194065207224 12.341719345240069 17.04938470049573 0 0 0
3 1 19 -0.35 12.018184935955206 10.510161214226072 17.66410880216214 0 0 0
9 1 11 0.06 10.859719587424946 12.246000077017664 17.220955553261092 0 0 0
5 1 1 0.22 11.853549812574961 11.95023923035168 17.646182181928616 0 0 0
7 1 11 0.06 11.92359563056994 12.379969155097585 18.660612694948608 0 0 0
571 49 9 0.52 13.923550999173804 12.836054521522373 20.491582824880847 0 0 0
574 49 19 -0.35 14.359226236837557 12.29325131102169 19.301532311840447 0 0 0
572 49 20 -0.5 13.63580630108287 14.012596283365134 20.67231073470192 0 0 0
528 44 11 0.06 15.160231293252926 12.957185024297202 16.311360598323827 0 0 0
579 49 11 0.06 15.821652096664305 10.785946233660917 19.17523851936301 0 0 0
625 54 2 0.22 19.68961790806855 13.615420668555275 20.66673627146847 0 0 -1
624 54 19 -0.35 20.166163758785288 12.437726878519285 20.024952904174327 0 0 -1
523 44 11 0.06 20.656570186194344 13.35913195014606 15.774175645850246 0 0 0
527 44 11 0.06 16.644853230916993 13.07797761823328 17.33300558373354 0 0 0
629 54 11 0.06 19.545895333765394 13.71508541759807 19.557014896089694 0 0 -1
526 44 11 0.06 16.161905430999642 11.432921996572894 16.448914106254186 0 0 0
621 54 9 0.52 19.33476161217744 11.396235086387383 20.578169997225963 0 0 -1
522 44 1 0.22 16.167483100627898 12.567711796891366 16.452552793447428 0 0 0
519 44 19 -0.35 18.81394964380869 14.143427693424805 15.89783241747784 0 0 0
25 3 9 0.52 2.1966500221228875 19.292392758010937 20.11283820780184 0 0 0
28 3 19 -0.35 3.424652190170458 19.689131361771935 20.664866472746734 0 0 0
26 3 20 -0.5 1.0857927358570116 19.610463034978636 20.61102574741058 0 0 0
227 19 11 0.06 2.370140306941958 18.420099446085725 15.710782556614866 0 -1 0
226 19 11 0.06 3.3523317581839533 19.707127870992856 16.233978756199235 0 -1 0
222 19 1 0.22 3.436145494766013 18.686472215253367 15.927057869949003 0 -1 0
228 19 11 0.06 3.8367330238545527 18.09172730095735 16.721416450972093 0 -1 0
32 3 11 0.06 0.27181988472828045 18.460806325351854 18.381139485370582 0 0 0
27 3 19 -0.35 2.2355519615288983 18.668673438589636 18.810780175965142 0 0 0
29 3 1 0.22 1.0725222668827683 17.821693700748092 18.65059744590218 0 0 0
33 3 11 0.06 0.9876765116938022 17.068166463582212 17.80566036943483 0 0 0
31 3 11 0.06 0.9394012677973012 17.206299449040923 19.533936689648176 0 0 0
132 11 11 0.06 3.7411095164073407 15.673594365676529 18.771504870178983 0 0 0
195 17 19 -0.35 8.102265211174768 15.603269143631977 18.29853257905239 0 0 0
703 62 19 -0.35 7.030486616014165 20.15765168111694 17.054325882482456 0 0 0
702 62 20 -0.5 6.989978075621592 18.53103589163993 18.578536581220213 0 0 0
701 62 9 0.52 7.041628113278933 19.72933666579038 18.30617095961891 0 0 0
704 62 19 -0.35 7.288236930208621 20.745217638921698 19.297147683182644 0 0 0
200 17 11 0.06 8.998271607951503 17.12536472472933 17.463244933865045 0 0 0
197 17 1 0.22 9.287020299937582 16.33668323752 18.168332933172287 0 0 0
201 17 11 0.06 9.693542111990935 16.73428534202375 19.074871768441238 0 0 0
653 57 19 -0.35 13.155801416170062 18.74799384856924 15.55348612513708 0 0 0
658 57 11 0.06 14.62867566999564 19.54396961703149 15.610232118056967 0 0 0
54 5 1 0.22 11.261935366276585 19.234223648592987 19.629211597540685 0 -1 0
59 5 11 0.06 10.19420794238213 18.94326287834067 19.49745181491182 0 -1 0
60 5 11 0.06 11.676832966635612 19.057493129749304 18.592008600385537 0 -1 0
58 5 11 0.06 11.88278480433523 18.77525568527321 20.416598742750708 0 -1 0
52 5 19 -0.35 11.128161147794719 20.620574795470862 19.79965527206998 0 -1 0
652 57 20 -0.5 12.046284237213632 16.94267545382053 16.457361446254165 0 0 0
651 57 9 0.52 12.980635133494314 17.36899005806377 15.784996659925472 0 0 0
654 57 19 -0.35 14.176764067987152 16.707575775471806 15.731507758722078 0 0 0
199 17 11 0.06 10.00511872460017 15.724393957291166 17.660971349858812 0 0 0
212 18 11 0.06 13.958918979957865 18.286348352631958 18.955960665494633 0 0 0
213 18 11 0.06 14.908289907806983 16.961628466108934 18.29796832367652 0 0 0
211 18 11 0.06 13.909035626974536 16.615576701827717 19.619754577377766 0 0 0
209 18 1 0.22 14.484402721590062 17.38147606389171 19.222093651954403 0 0 0
207 18 19 -0.35 15.373922833200194 17.78748025976589 20.187491160618134 0 0 0
367 31 11 0.06 15.514431329236611 20.602765064805023 20.28936506832703 0 -1 -1
535 45 11 0.06 18.34357492405404 18.20588582014688 16.91498135344303 -1 -1 0
206 18 20 -0.5 16.35098906132777 15.768900331605131 20.611363358998585 0 0 0
537 45 11 0.06 19.23133972679118 17.269648623894874 15.791426658823337 -1 -1 0
533 45 1 0.22 19.02210827171625 18.320768012798784 16.078969604423968 -1 -1 0
536 45 11 0.06 18.21753410009997 18.665304484718227 15.4702530582861 -1 -1 0
531 45 19 -0.35 19.976577701556657 19.294479082932494 16.075443351167255 -1 -1 0
205 18 9 0.52 16.49377182940985 16.90690192420406 20.23439172668353 0 0 0
210 18 1 0.22 18.80209186987581 17.48447677558053 20.74328041577839 0 0 0
214 18 11 0.06 19.688609921013853 17.995314384994387 20.356913374482954 0 0 0
208 18 19 -0.35 17.815774817057825 17.35131881503771 19.752489591863032 0 0 0

Velocities

424 0.012976447920239048 -0.0024251266628968924 -0.0021442388406662924
432 0.008087957032140448 0.004914192076320129 -0.005685357080875735
426 -0.013531643548450625 0.0016088602645640757 -0.008457796196573058
431 -0.029038831446824922 -0.00017111063341573667 -0.009182622503063124
421 0.009719727219182414 0.01011097974352339 0.0010778172813447932
430 -0.033102947781182765 -0.012709771712936944 -0.0069491748568677935
182 -0.005043403341398838 0.004996552841733934 0.004779673634992777
418 -0.015285452115648657 0.0037218236767352147 0.01780992639942481
414 -0.0024736755649044993 0.0014478149183827919 0.013163311773451905
181 -0.00015741220250859242 0.0021312267848361648 0.004574423435792181
184 -0.0045688306941292 -0.0063662038728758 0.00547488546567073
35 0.002333853582247603 0.02910476484196358 0.006800794945627508
192 0.003133958932720022 -0.016133005880100915 -0.012646684481656375
248 -0.011272754951774095 -0.009728084048982752 -0.009130660866918924
413 0.003521717436216417 -0.0035897843558817164 -0.00517880247150352
247 0.026050852184459357 0.008602323187073027 0.008346169015408121
245 -0.003454081090216413 -0.00354029856670817 -0.0074627421212628865
417 0.0036318136055576576 0.016207832825771325 -0.005422800196278915
411 -0.009944710109080174 0.0038673912547552173 -0.008822613855310793
409 0.008096909083279393 -0.006805892984170892 -0.007812285031842974
412 0.0010465479039830526 -0.003322360170882021 0.0005883906613302322
191 -0.001311850862580262 0.005610114433654925 0.006679499379009768
186 0.006961303561938858 -0.0009293467201213341 -0.00517011584994884
242 -0.0037061820224065616 0.0072321523610625 0.00048219107332054634
243 0.005491536003475628 -0.006687411920351332 -0.003549659386771175
241 -0.011121133915222578 0.00013256456998660474 0.003732093325217823
415 0.015126290130628888 -0.032163359147195925 0.019363892316745304
303 -0.004879830923412048 0.0023780766578097435 0.008805525599291758
57 0.019097266779931652 -0.004850126923615564 0.00036137593281506986
364 -0.0006450467879795389 0.0017577937995693577 0.005601790113925714
372 0.012455686771779434 0.025797195922008635 -0.01381629141172732
305 0.009331825902843123 0.0003399955232768188 0.005508679276024533
308 0.01729839732191759 0.012458145812294619 -0.020292176348791997
309 -0.018057497370189995 -0.027403308204644313 -0.005977950437879773
369 0.002174823323031708 0.00041974111551270694 -0.0020254555929398264
307 0.01470352699714616 0.02848556350391464 0.0038471053952682755
249 -0.00500880439285031 0.001010663096377525 0.0009374837555183004
55 -0.005938628587160186 -0.0004689023771597643 -0.029719456954287366
53 0.0003192866207139604 -0.0005336349105180899 0.004464853897596689
51 -0.0013306750638375244 -0.008487326722973951 0.0017138389331254457
365 -0.006034823241164397 0.004049365537560216 0.003815073953990986
234 0.00402803888405795 0.0007443578006098938 -0.0008286878283299672
467 0.020727588797870327 -0.00778474845201523 -0.02471685066986048
232 0.0031541641466837967 -0.0014044170518035597 -0.008584362147587277
363 -0.0018895514579079656 0.002530458900003539 -0.004215680254979128
361 -0.010378814141632556 -0.0005274064934744512 0.001781415627366935
366 0.003193333553616972 0.0002940205056048197 -0.008699400304368504
370 -0.00849150727095908 -0.006577122628352185 -0.01187650844721995
371 0.006464228373007042 -0.007521950967019221 -0.017528176843102834
240 -0.010934383119637058 -0.015341362265022284 0.001319117590710064
466 0.033642165109331656 -0.010914401041877101 -0.02784015013209267
468 0.00010033666083710888 0.011822589776838621 0.012910546745372484
462 -0.0025638691284448176 -0.004958189278120313 -0.006306499430059033
311 -0.01884976618591431 -0.031141735188435087 -0.00444256243443706
423 -0.005410054919178162 0.005233813297953626 0.007046982752600633
420 0.0009745366369404782 -0.0039617010398894405 -0.01091036615351013
425 0.005812221697349827 -0.0011516079004601886 -0.005874327398575344
428 -0.020821562654638113 -0.0032116428791865576 -0.01384797094353637
759 -0.0028015600414037396 -0.004101494167243429 0.004218923611126885
21 0.03374556359482862 -0.0018243261933953976 0.004010551946246372
17 0.004212750409852736 0.0013677052610226008 -0.005878360595523774
422 0.001681560260072323 0.0026052474633483868 -0.00024285080188271832
429 -0.020822635282973824 0.013386429600968943 -0.005811222718870875
763 0.00306206799092701 0.006811985234825233 0.005588073603603909
760 0.0006913231674302106 -0.00626863879146997 0.0048459114038840855
20 -0.0019030788637126816 0.04870721101703653 -0.018712804951742452
427 0.013999235399433986 -0.023882325971046718 -0.0032142286594925426
757 -0.0012763081473557043 0.0016566902322192709 0.001327676725658248
410 0.0009438550575226906 -0.0061642354548774305 0.004311783882982627
18 0.0026814154386497297 0.002142308287313987 -0.0025185830267373762
24 -0.006639519816992574 0.004645750367898963 -0.007432615240303896
700 -0.008448227496082886 -0.004480725098906605 -0.007812599252562084
13 -0.009475701861827087 0.006536485415794353 0.0008025360443902765
14 0.0016832101217883818 0.011008282917948363 -0.001216543086903674
15 0.011831148918212707 -0.002227937630002986 -0.0010935470662751723
23 0.03231055916711244 0.005370216431512984 -0.0070889461394409384
16 0.0022756865992159194 0.0021897668286729646 0.000126471148256601
22 0.018026704583698327 -0.012561897859231869 -0.005292903887808208
10 -0.01360710377266289 0.007669705681168984 0.015339620870212735
682 -0.0071290388746524215 -0.010401274108408373 -0.004533027945043516
446 -0.0003494732170968996 -0.008834376961462002 -0.0011402568265842265
695 -0.0016367304695983258 0.0019073864166539538 0.0036091286357234045
699 -0.03052069545094253 0.023631766519435327 -0.00023174240187858044
694 -0.002433139595695703 0.007361341286857657 0.006626193707798143
733 0.004382474261680043 0.006918460550551395 -0.005013243658004651
691 -0.0007388182926540819 -0.0028059966063078605 -0.0022563082453472077
692 0.007680045935827994 0.0013025327410691576 0.0006264939641621328
693 -0.005251599801938529 -0.004343909029217363 0.0015008372585460724
445 -0.005762408496454814 -0.0027569108078925792 0.0006402535895722453
696 0.00620772680826532 0.006491904072077693 -0.0005146151012467408
578 0.012368085992108948 0.0016699371777912089 -0.009420320460668421
448 -0.003329300345077583 -0.003518996864410306 -0.003451243878924414
681 -0.00029644838080432605 0.005886271119647119 -0.006013219360542356
683 -0.005223663906639102 0.0006596247471706054 0.001317575701988024
735 -0.0004913678515110288 -0.00666490099093277 -0.007105428170215504
80 -0.01978132225864413 0.0012824039797749674 -0.002864421394388315
81 0.012801206017266278 0.01930526846059198 0.01744096424776039
77 -0.0028522305237396605 0.0019562231422420827 -0.004289664009414973
79 0.012593492855346408 0.008951655332470573 0.020276090705352325
69 0.00647015991921396 0.011679881571985707 -0.009096970836107995
75 -0.0029258333296053474 0.006407786625784043 0.0012510730141561122
67 -0.01123850141729868 -0.018305232384999294 0.011569151868636851
73 -0.004307473824583388 -0.0023793561211945327 -0.0011021627171695191
74 0.007572790563750579 -0.003236363489079829 0.0018731069245943172
62 -0.002550994863029761 0.008772445548146044 0.005568760867392669
63 -1.2108348256416257e-05 0.0011226210773809572 0.0034039045582545135
65 -0.0005818958590191798 -0.0015663404791579542 -0.0023892827445001884
68 -0.004019334991925036 -0.009693281104485646 -0.017358886100168874
754 0.009608916788957334 0.0010265535870957142 -0.003112764681895523
762 0.004265339353716351 -0.0031903822019075895 -0.004349901453783151
499 -0.001153713969044287 -0.006202541634101776 -0.021522428590175256
497 -0.004939922991119671 0.0015236017864131287 -0.0011287675203170823
500 0.009379607374461073 -0.008941295516070744 -0.0019038352797283945
734 -0.0002130777310268801 0.014725222926628444 -0.007605012030009373
761 -0.0005373081881352482 -0.0010193783580905197 0.007489321842376703
493 -0.0034500147244651207 -0.00039911924442964034 -0.008833969991863195
494 -0.0020060418728980196 0.005491272193940472 0.001490894019112379
758 -0.005582475835790755 0.0007529409566147834 -0.006058250958047951
495 0.00012540600898249752 -0.00245462875729438 -0.0012179118907551375
89 0.008235783782524597 0.0026726405793748805 0.002753962031969701
93 0.019090591634004908 -0.0033230010991962505 0.00638979824035109
289 -0.004310489286214919 -0.0028782897574150465 -0.001946601650592492
300 -0.010527785890079978 -0.005177100223328857 0.011380722426242012
290 -0.0018391000572801112 -0.00196507481085223 -0.0038332845563192166
292 0.0005899965510039252 -0.0069078946181933935 -0.005483010282829943
294 -0.0015111352881424767 0.006655388975288228 -0.009619433012980301
298 0.009195007616556198 0.012634833855023528 0.009650335902125403
291 0.002235138511241712 -0.006284409449480711 0.004247497923113287
299 -0.0031391553533510193 0.0029864070816433574 -0.013563520643736686
496 -0.0024409374094256364 -0.0003004843349116957 -0.003707878693367182
498 -0.001265858005774153 -0.00755575843769372 -0.00800330419582304
503 -0.004892458522870554 -0.0015687098605610779 -0.0025055593703196214
12 0.002369936316449814 -0.01901938349204878 0.02028464116105881
698 0.00029740470206398396 -0.008313032066570232 0.04112205328033934
576 -0.003091763449677261 -0.0034406764587543745 -0.009288669922725848
11 -0.01630938510910149 -0.020506167425669637 0.003627159840965367
573 -0.010933077012360485 0.0008469619616403998 0.002125309315845795
92 0.01040014232772634 0.01587569689147953 -0.014565357239083304
577 0.005975629777755552 -0.009015119309677798 -0.01696585846502776
71 0.017704239406090214 -0.0006628727671714291 0.0019236563959795995
66 -0.006710360594299 -0.004410133534833685 -5.708397945790597e-05
70 -0.004468087639320606 -0.002888547108609924 0.0007215714731012235
72 -0.0149904316624603 -0.01546589367217393 -0.00016663405607916204
630 0.010928335062360902 0.0016966819676786594 -0.0067955117606034
61 0.0016402141405932075 -0.0011540360432720194 0.0027197780117183715
626 -0.003874868262514869 0.010392812072556185 -0.00758107009422875
628 0.020811227543073345 0.009795541018741763 -0.022647386612712397
64 0.0031259132714930083 0.001726219459225316 0.004569946328353469
627 0.027647749601202667 0.01442900160198844 -0.02063793574415964
623 -0.00010155600172353847 0.01036352175073274 -0.004189629992691202
622 -0.005776889164486209 -0.0042034515801959394 0.002591037802034115
501 0.0032472585052193024 0.011478646992969736 -0.011186546041034409
183 0.0019604111943834143 -0.0020084274892119983 0.004187703453966322
341 -0.00608829849784886 -0.005759039897949303 0.0002026219802407948
343 -0.005632970697727004 -0.01061300379524711 -0.0024990959373188174
88 -0.0007697126820381577 -0.002831132582754557 -3.48793087668288e-05
345 0.004867958978979866 0.032379430412084596 -0.0013816306099946377
188 -0.001426651242976208 0.018427177636558198 0.011668674517411763
504 -0.013377366230907307 0.00805768725688009 0.011200760769346164
439 -0.0014679050071070097 0.017205555287429015 0.00793430835788687
344 -0.013448884108780581 -0.002207064697096644 0.0013038355745409918
190 0.02207620832479527 0.008601419044799403 0.025062976085146363
502 -0.011734757776946428 -0.029690509173267543 -0.034124336649528325
381 -0.011931175157191193 -0.014652948030852741 -0.008224954254605385
435 0.001285340854111037 -0.0026025786487740873 0.0013330847270272062
440 0.027131566700862506 -0.004061091257994646 -0.029668202619429054
436 0.002276586717338515 0.005837295592987384 0.004615596009062145
437 -0.00046046993011221774 0.0014677229121469115 0.005397356462548242
433 -0.0015226707709295934 0.005130588367707812 0.0033529202995568703
434 -0.0008047616703306736 0.0004687892652849458 0.00013338790016252455
438 0.000685424453879128 0.011982281651727678 0.008309857002778018
443 0.018850799976850224 0.011117536449082763 0.008174260460736518
442 -0.0033905560878741896 0.01341956371163347 0.00908578582151105
252 -0.0303900749490373 -0.00864263153630486 0.0012066559405419536
304 0.001518550566345391 -0.005110417934829308 0.00012668128035274876
374 -0.00445867386925858 -0.00017497129445479087 0.0022009794675065275
382 -0.01946320899914025 -0.002749723577384442 0.005010783318731319
441 0.0031777480311524853 -0.023558214329453656 0.021812271197083472
239 -0.007769804813442394 0.0057647925161386365 0.0040308966735989075
238 -0.0010009064848611317 0.015948066294644257 0.0019893198707980615
85 -0.0004821516556344236 -0.000498444194450683 0.004967162005718644
444 0.02195941443971151 0.018710634476262363 0.0019764580736786326
87 -0.004082369754542694 -0.005526028844521857 -0.008487712947658944
368 0.003204280395923141 0.012474210902691648 0.016844674963981676
96 0.0017462639504495245 -0.009261106269366442 0.01749551521246431
90 0.005404102293344562 -0.003927097559756641 -0.004925051014341555
216 -0.019582590322906525 -0.0020995670289281907 0.00046603302297971495
310 -0.0321870251200784 0.011920931708012089 -0.014248915952473719
86 0.00016383623731660056 0.006081052650878224 0.006662010429843422
95 0.0008406718329236747 -0.016514906437899504 0.02787728008456742
215 -0.0026896576323922738 0.011501414800391472 -0.014481343820332384
485 0.00821870765463005 -0.0019071666582197134 -0.001988305715705511
489 -0.02314303966078336 -0.016634857102520516 -0.0022327445649372407
483 -0.0003244851272142342 0.002452354796685949 -0.0034085093829489353
488 0.014347102464662647 -0.008655189573200604 -0.027419087934396576
487 0.008886253032344653 0.0410516088462663 -0.004842969195461624
481 -0.00037365438643412885 -0.005639897450748825 -0.010606670349914176
461 -0.004086842026706786 -0.0012610776360758183 0.003713763371580367
465 -0.006561858352997306 -0.006028831820221331 -0.024416669677363667
464 -0.00048523868312578346 -0.013069905482445294 0.008985183349808112
459 -0.0034705366793395705 0.004100141605876763 0.00392713926672379
491 -0.005223426517864011 -0.01594183658342771 -0.003917984531633248
419 -0.011609604776455625 -0.0014136854361592667 0.0018910823471894184
484 0.0014094869579565953 0.0064718668925244135 -0.005077265145805895
482 -0.00957104916409781 -0.006269122100568223 -0.0032725503514987584
490 -0.021703184696446144 -0.001256921273846791 -0.017576359727547293
486 -0.005602017322585388 0.0018753160094294897 -0.0011831190948947193
492 -0.02764587983937311 -0.024057642486715335 0.022641257040713056
244 0.0066744903490959006 0.009256722123850265 0.002567967467932936
320 -0.0004248532037345909 -0.010422308423721138 0.009261330737083424
321 -0.010878913452740717 0.023156181119516398 -0.00789879033558434
638 -0.016208551617825143 -0.00888713316516245 0.01362518515862627
633 -0.0008240919259285852 0.001211621540751856 0.0022172559029028007
317 0.0062902718909361565 0.0026724465146301256 0.005348934703611636
319 -0.00878453698403338 -0.008288895949266887 0.001991732795688968
455 -0.00022185177925776098 0.01743290076360763 0.01849116525304192
450 -0.004658586065373432 0.0013569622054733724 0.0028651833403455494
394 -0.0037840905672314683 0.022657132317983938 -0.022904216614742394
390 0.0056245890377964744 0.008163253583130211 -0.003475640450226639
395 -0.01893935357508848 0.03598288303996114 0.003966656825555126
454 0.006118847967609014 0.0017962517578018272 0.0073274739883306145
477 -0.034437390130719156 -0.0173740563304299 -0.003941789907675342
460 0.0010113285004467812 0.0031277425844249422 -0.004736491954334654
753 0.00015679409219670757 0.0037885926456309583 0.001140644332786676
457 -0.0053368834152177 -0.0016360169707577042 -0.0019292590353037974
458 0.00021271960783607978 0.003277645170482749 -0.003256056788192423
463 0.018222989093087016 0.04057308066327164 0.003842910883132403
755 0.0014463055160585218 -0.0012114479243511597 -0.0015637779104644247
750 0.00043162690198602315 0.0036590914636843454 -0.0020566509425729274
752 0.0035091689227793716 5.676113404231882e-06 0.0016182473092547394
756 0.00431507957055817 -0.009672014430133097 0.0013907317989480393
393 0.004152380008157011 -0.020128410835764495 -0.0010320709168800718
389 0.007623338497635328 -0.013609048362277066 0.0023502877029190684
392 -0.00534377588145153 -0.015889967425076812 -0.019478002253814995
391 0.02134187880795517 -0.0435802907064364 0.01703632065581598
768 -0.004222791917157384 0.01007787744029718 -0.00612876503548493
765 -0.004078777919447806 -0.0009741028244584518 0.007043822179061656
770 -0.005439028507363873 -0.002373556430417126 -0.004490749376123501
766 0.010234020153839762 0.004955088643651782 0.004496407675002276
764 -0.0001347527676323353 -0.005350555691070337 0.002296287470249999
769 0.003006994107457277 0.00228620636137495 0.005979737554738241
336 0.0020275470702250985 0.015848259426718324 -0.001192964742783101
767 0.004716411850153517 -0.0010475458272708482 -0.002725720435974815
402 -0.0036952926515532196 0.004350666355378288 -0.00797867982552131
406 -0.002503673391811917 -0.007591154326205653 -0.009856912334769558
295 0.01972192700707809 0.007286538187982381 0.019334015771579532
639 -0.00974022626562756 0.0127995107413113 0.015284284970713026
637 0.0019992716716946647 -0.03063484279843606 0.0004826316832759718
631 -0.0052310875190696715 -0.0029860355931131963 0.00790778580691872
635 0.003793474250494949 0.0018613669524447044 0.005185020399932369
636 0.006637826701643383 -0.009050183189334765 0.005358956189655011
640 -0.01501239618771045 -0.0012979000559655565 0.004747266886363876
634 -0.0008953787779569303 -2.025971564600879e-05 -0.0024802546640377045
399 -0.0010697935447968674 0.004188830475362636 -0.000687331699229742
405 0.0064129658486645905 0.002494343642825255 -0.015381730913478539
401 1.298315511002876e-05 -0.0053957924689453625 0.0005679281404590196
404 -0.010805742297206792 -0.009887128529855257 0.0014960057512455342
456 -0.005491999188647834 -0.0007308700613775579 -0.007329135431961188
447 -0.0031608944407569926 0.005715077435854426 0.00035950105258513267
452 -0.023444402126089496 0.0049497624847557285 -0.007272242335093049
449 0.0003719403130833127 0.004665764831737281 0.0022304293474159596
697 -0.011654955792992352 -0.037081814123436106 -0.025706026259738814
632 -0.00793071733434152 -0.00045763617820872494 -0.003178678189948646
453 0.013654049800903102 -0.020385006471333896 0.006581105135807834
451 -0.012645552481941609 0.012828287958516836 0.002262565763888703
478 0.010001432394627715 -0.023671360129228856 0.026872080270113348
472 0.00376742047594055 0.006267672570122711 -0.001284147972358546
474 0.003532633756403393 0.0060013673522940625 0.012654546280071323
480 -0.003354021792116081 0.011600605527117563 0.012227169602318948
479 -0.024894734586299747 -0.0035583627854163763 0.008621183230491849
471 0.000576226153173166 -0.005241487269612821 0.0003635849764028718
469 0.004311650578539437 -0.0123713193089669 -0.0009351521824393614
473 0.00223684027939604 -0.0040723075794282925 -0.006893893047418921
475 0.016395644219726484 -0.004398434812688161 -0.020546767780937687
751 0.0017432117004375811 0.008233041931813899 -0.004121807645468894
609 -0.021094568266732748 0.03425582978598695 -0.006942464381050573
610 0.026860739361109432 0.0007473705091685111 0.008558357405729012
605 0.0121964259408441 -0.012429822701189183 0.007199424027959389
607 0.013322952319609832 0.0072354299244414355 0.001100826678659949
606 -0.0025996752348425617 -0.009807711078601037 0.0009862581711392428
608 0.033085912470895346 -0.002977233821954912 0.039956317060691644
601 0.0024908137868514028 -0.004910466550083962 0.0016060367799502564
603 0.001467917208887186 -0.00488954866553636 0.008927742098183105
91 -0.0021941139392524745 -0.01724003024447465 0.020663851357271598
408 0.020850091614436746 0.005754503658797424 -0.002249653979524189
335 0.012011182046342274 0.022985759820583294 0.01908034758282959
330 0.012497030937953983 0.00561864286426765 -0.006657489212795262
334 -0.018320265145652156 0.013345752320741023 -0.0034155785771237458
346 0.023180025758177018 0.016571634445148063 -0.009819608139996602
342 0.00934807061432274 -0.0005682542534158683 0.002511275322226765
347 0.02011303340985535 0.004191734211572297 -0.011296727006633416
340 -0.004453907951120455 -0.0037189376458213142 -0.006353431431457099
348 -0.009015966111887609 5.594028732213511e-05 0.012781934373373832
337 0.004125791482959322 0.004903864759151865 -0.004182320856184391
326 -0.0023978723262306364 -0.004091417101601004 0.005474542360531157
650 0.010627702536304845 -0.012118230746182183 0.023736765430073827
645 0.0019100878132858618 -0.00034788919175464714 0.005295436186220789
649 0.00011496321542434559 0.0011050719553920728 0.01878801658149608
644 0.0013332682275337677 -0.0008570125962135817 -0.005821719826727019
297 0.015440443674949808 0.018284393830779046 -0.013169772903872376
293 0.006734054723835017 0.0004890225321353549 -0.003817375098866245
296 0.0068766833923645495 0.013754155929914644 0.005898401120883363
397 -0.0014438215882708163 -0.0030419871424905163 -0.006634854402154038
338 0.002900828356263813 -0.0018969270368705902 0.0005335283016837603
398 0.005409167595582812 -0.006502935872834869 -0.001825723555260608
357 0.006772700411109429 -0.011731979120710547 0.03946599797478885
353 -0.003116017352897261 0.00014049270611461508 -0.006173165140009259
351 8.612001960639167e-05 0.006195758083933372 -0.0015518834439132638
355 -0.004028926203822283 0.0178714261346741 -0.012554617233485709
356 -0.011013501129191557 0.02981206311695728 0.0002289537644150166
403 0.003545877236057286 -0.0006129295409761835 -0.01341324180035186
677 -0.027602596415659382 -0.0023651605917970084 -2.9527469513092596e-05
349 0.0001817776518304849 1.641954274865648e-05 -0.003387610785116177
350 0.003551602473903568 -1.408847537189998e-05 -0.0014997439915701717
352 0.00861677066730431 -0.0005817788819440268 0.0031732546774261164
359 0.022919851723719506 0.006484302811096038 -0.014666869185001943
360 -0.019545680433257513 0.01971657456397968 -0.0038119561161285066
354 -0.011356448607956784 0.0008375246130834118 -0.002407976024735632
358 -0.02348752711011589 0.004027397525984071 0.0036970207175776853
171 0.0003102094905067165 -0.004504814095092747 -0.0010202866484542706
602 0.0006352267391769821 -0.0077329076962537316 0.003677829851561097
178 0.01747726063335916 0.011064218783839922 -0.015298013744217917
179 -0.013679738922463063 0.012722822429368895 0.0003892138791124061
174 -0.005392493931800946 -0.0006969639281127244 0.0005112345503159256
325 -0.004028705454745432 0.0009163861596838578 0.002558672495189874
328 -0.00010939944702573239 -0.00617079755210534 -0.0058918543612122625
604 0.0002642922224537738 -0.0011353182101026577 -0.0036440919272587914
327 0.007161888589861268 0.0008718898903240973 -0.0012306725270779051
332 -0.03329681255870467 -0.007060875912171114 0.018107301285527944
329 -0.010086482786513598 -0.004923175523628141 1.5384079904985274e-05
333 0.002228799330079859 0.0046235032587206674 -0.01718933149529448
331 -0.020598483319426562 -9.16329918980317e-05 -0.017864279865781117
648 -0.0015821025893527204 -0.005757530732202302 0.0074576669329590225
339 0.01036277150878385 -0.0032985466457712996 -0.001579213380078437
189 0.01411988999214843 -0.0012213824958077928 -0.03760496517545077
185 0.0023450753586652376 -0.0020499738998605785 -0.004819443794557157
187 -0.013540013865862743 -0.0003292966596631562 -0.007257067740446179
646 -0.0024505967829126225 -0.0043883488751526745 -0.0002988126836625019
647 -0.004136572703598139 0.01730610508564777 -0.014779413449552943
641 -0.0047554905278993365 0.002363418858211062 0.011280042197519949
643 -0.009166704620014024 -0.006854113565148258 0.007521579915430759
379 -0.0051977170084095805 -0.0154073851228053 -0.022286995667756535
377 0.0010228176722918822 0.003690292092654667 -0.0029342510966919614
380 -0.0015809899783627013 -0.0041129428619627335 -0.013290664338649562
246 0.010562858303104503 0.0023874831022934096 0.0035515292298663403
251 0.03922773052482014 -0.008722839372362748 0.02877509505828148
569 0.002646998914569051 -0.003751450069030791 0.0011545173846950094
565 -0.00030631092209240993 -0.0028644336702699814 0.005273323272360336
570 -0.00944840028543723 0.007143257028215407 0.0007789405834647838
564 -0.00433076451464144 0.009894905489140852 -0.004735645277798042
375 -0.00813046128324063 0.0031778040645132565 0.0030642168986293314
561 -0.0018087844914553989 0.0019127825995095993 -0.006073009680524185
373 -0.002444895854314342 0.0027158393593328693 0.010619754942531525
301 0.0012986504993829043 0.0027901706981718045 -0.0009141245596286564
250 0.011619736235533563 0.02376690886657441 0.023469104930243068
302 0.002606487042149326 -0.011422607822654623 0.0021053364111858473
396 0.004470290338345638 0.003906726250996212 -0.008265020915602068
173 0.0018627367480656286 0.008793000952888902 -0.00840730603781715
511 0.008453053688699405 0.03169419480598723 0.008127300803704818
376 -0.006440941396454601 0.003797796943238741 0.010582134153684038
176 -0.019186414781326194 0.013739302288171851 0.013715945123337065
383 -0.0014823447281015532 0.004825390753410628 -0.009718661801981405
378 -0.004013586815690669 -0.005571485716034595 6.253260157056904e-06
384 -0.011021752738135271 -0.017445873424738374 0.01084210526544108
552 -0.0016709593637241804 0.003228527775900728 -0.002086699875649625
551 -0.0019810692849196575 -0.0012022614537767328 0.001917391900595625
306 -0.0007684713425506332 0.0014855213667641454 -0.0029378426052377466
312 0.011653412920060054 0.008787112117814452 -0.0008959947817818745
94 0.010240646262702002 -0.014600549247084796 0.015263264592041206
512 0.022226481073008612 0.024064595382440556 -0.012123121771959556
509 -0.002105799315689868 0.006715225183068467 -0.003478105671091757
507 -0.004658229227224884 0.0011780054417221042 0.003714710835212787
513 0.000327731927000002 -0.031223935069085423 -0.0001985787729958184
506 0.005306417821775487 0.003691037711763359 0.00347726411547716
516 -0.014297100853230788 0.006492872247622535 0.018487463336748538
508 -0.0023496746423159434 -0.003379448341150051 -0.0013669451236453095
510 0.0012423819804723215 -0.004902733906992985 -0.0010694829780436368
515 0.027488494216016134 0.006196388074723026 -0.0287949126509303
514 -0.0073978315403260345 0.001140736689488801 0.008575194263250624
505 -0.010454802047669902 0.006042409394656968 -0.0071472496222903985
46 -0.020328405278529388 0.01605484820473818 0.04068101398085542
37 -0.006804113361990769 -0.0007999251751269628 0.009726091197288506
40 -0.00606218004617454 0.0009816175330320698 0.0019896666097991415
38 0.000734613325569583 0.003993301900620179 0.0016117790024953995
43 0.017997790788523416 -0.004892239788786806 0.03138730928742181
42 -0.0014753885313032989 -0.005455584497255674 0.0061930580201655745
47 0.019446027976817597 -0.017766353144811526 0.02298594551736247
48 -0.03328177249823657 0.013321505021834334 -0.007047302127120716
539 -0.0009264500365336961 0.0023310298669930634 -0.0025450291858125137
224 0.002047719834752736 0.02780890502205855 -0.011722130973272491
314 -0.0010821805538506694 -0.0036142970933808103 0.000963740339852462
315 -0.00014027729245438464 -0.0029298709783986696 0.003935885409410599
316 0.008497596752990673 0.0044081648293670846 -0.0003536930624581198
322 0.005661206208456315 0.005242024547475666 -0.005626010081068178
318 -1.3529260265303375e-05 0.005121582003569304 -0.0007535881484571796
323 0.013817166581347807 0.013481296943506567 0.010698433296145697
313 -0.0033402740084039905 -0.003234373799156159 0.00429832044658271
388 -0.006167007795099002 -0.004583728900883584 -0.0038958496558541907
597 -0.011558000577301273 0.001969361891037691 0.01943209941531095
599 -0.0015370590826811563 0.0289344374960698 0.04367634128852437
600 -0.02242211448282794 0.013172155783660376 -0.02370268601718188
596 0.00045846710638885167 8.025931922942865e-05 -0.00180297217209121
598 0.011694651999382214 -0.01857886834659815 -0.0010162421028453634
593 0.0018367516804210506 -0.00949514056101494 -0.0012045076193819089
595 -0.008922281825906368 0.014377827710180532 -0.003747699923102897
594 -0.005509741107982785 0.0011670789984397649 -0.0011157555354524575
591 0.0015370550723421486 0.00390764710698513 0.0030911031374248037
254 0.01048502719051925 0.0038714051463405266 0.002397466562558294
385 -0.0024389845231362096 0.0011487524233471462 -0.0004338985583063285
154 0.024215635513209773 0.0006079923951203011 0.00046215532093763965
387 0.001546362904164029 -0.003385450709513192 -0.004088329504644574
259 -0.023587088642178858 0.0331960049784775 -0.01100180003922234
257 0.002176191648142063 -0.0033204781010570815 -0.0029026438240766037
261 -0.000325164388468216 -0.026290782991555708 -0.011167195049313818
260 0.013311695629408074 0.04513545009719692 -0.0002592164339608194
738 -0.003615008177638377 0.002116854942768539 -0.007976917928785817
255 0.009759040817158395 2.135604482618669e-05 0.00541746482432113
140 0.013699534917696496 0.026214746504000047 -0.0001311168989298944
386 0.0018198286007691464 0.003850494250600536 -0.0022283236041337235
137 0.0027326967297937044 -0.005037909352992604 0.002022177057067755
407 -0.005087177236994281 0.011928498952739197 -0.03242127836598018
285 -0.00566010965864179 0.00558179885535761 -0.012276012695586315
283 -0.013551870070374773 -0.0040203663850261065 -0.007895449509965694
288 0.0008683550765606687 0.004495730785109338 -0.012117689585101092
277 -0.004544791103567665 0.005587231295228282 -0.006233773382032002
280 -0.003944021874707225 0.0011584171087219975 0.0016055158972842706
279 0.0021525975610087083 -0.003614897225544306 0.0076728302783747645
281 0.004171418727394561 0.0013386832980959754 -0.0011592806629768682
282 -0.0032141742775470775 0.0011647134442261183 0.011692622513704712
287 -0.02598744524242646 -0.01657954206279961 0.010868698074153303
143 0.013423391388006663 -0.006478451417850136 0.01072899233673332
284 -0.009654639882948023 0.016346134910665888 -0.018408043567889762
278 0.0014450489498946727 0.00849293140874169 -0.007206102753611056
141 0.01404067185467351 0.009086556475491241 0.026795220527146852
324 -0.011309374316605236 -0.008578847637193219 -0.013037319869056978
160 -0.0026872427236765014 -0.0032292378024871126 -0.0026662060777379094
168 -0.0008007389804754766 0.01355977952850757 -0.011239881157870562
162 0.002520356402971742 0.002823677499254788 -0.0026481627388857286
166 0.028152203198112558 -0.005083521580990577 0.004708271217763705
167 -0.0010449574385990694 0.004394835527767985 0.011960612438387485
159 -0.0026256832298882996 0.0017118612727112551 -0.006800900460091673
157 -0.004933071886652215 -0.0012935658467895697 0.004090344771476559
161 0.0002289299902665523 -0.002151950415541963 0.003628647091990298
158 -0.0023728154713913057 -0.004034773708956873 -0.00024296145216303318
723 -0.0008795000914894201 -0.004310756159754717 0.003054442688613853
728 -0.020699388411493547 -0.0074038783310222955 0.010980414151264209
476 -0.018488708061144672 0.022347765389078476 -0.016958052669210848
148 -0.003639096199007598 0.004808396447475937 0.004212971258988587
592 0.00025880646509300555 -0.003473387189253752 -0.0027584668428584135
163 -0.00819990473584341 0.012590385877142337 0.015940692816749546
470 -0.0007925246468041999 -0.0029034017368108735 -0.00022937558263696976
731 0.0005675880681555502 -0.006318374330066877 -0.00740794204263117
581 -0.008139091192978511 0.0031981295254281954 -0.005890697864925266
584 -0.007573883286661307 -0.00671034031572797 -0.009178402000991933
582 -0.002681352388791655 -0.0026014893683588194 0.004796543765749477
583 -0.00679502948344584 -0.0024978330165889833 0.0037268790506865
585 -0.004409455727716449 -0.013171009019714717 -0.00919641869124788
587 0.03483151479005476 -0.005972921946110122 0.006159832837961468
586 -0.006355148650106652 0.0038187007515883557 0.0008006797922343386
739 -0.004337045410922884 -0.003769040820868566 0.006708870537427523
142 -0.009668572969665216 -0.005380003981158389 0.005440613559037778
144 -0.0036902748216513077 -0.03139141971942324 0.012371030728523608
138 0.0008195166790188235 -0.0004578291306706756 0.004977205157115439
150 -0.002366973766537915 0.0005664817409444503 0.004112756037015409
155 -0.0019651067584638255 0.011373585072902018 -0.0032665056175983967
741 -2.957887207507967e-05 -0.0035420861810125212 -0.0004130498262302182
736 0.0007835316289602668 -0.0017743650474459738 -4.9017739488434986e-05
589 -0.014234632481995753 -0.026646061354865358 -0.021755829461679133
590 0.014313010927064633 -0.006501882446944638 0.009094424036501847
740 0.003005299769020556 -0.0035721820329460215 -0.003801610178824038
742 0.005491478592193461 0.003473571821056202 -0.008207873066970425
588 0.005406833557230135 0.010751745890178781 0.02153668044100952
737 0.0017015275080107099 -0.0033552227929653914 -0.00234464647410798
136 -0.0018045232985112658 0.0024953848810220893 -3.302418329074457e-05
678 0.0035044727577121233 0.0338527433195989 -0.022886472560939373
286 -0.020199029214065894 -0.021671790719638907 0.001702356163691581
746 0.003724949720235275 -0.0071694814662599405 -0.004676822389929425
748 0.0001045886180337338 0.003946904683045304 0.006358990816373032
743 0.00019620605787450346 0.0011828051921896332 0.0019033517227669526
744 -0.0021427930157299603 0.0005323644316917761 -0.0032385675565460713
745 -0.004579175546643381 -0.0044438585752064035 -0.0002904277084006102
747 0.0006857184990345259 0.0052938442518444245 0.00040905078298954456
749 -0.006605014938492609 0.0002706358218291697 -0.004597142003281483
680 0.0008773348554799539 0.0013387557973014053 0.0038530558395440135
128 0.02051038096389022 0.007575701276472641 -0.0015233854382868423
125 0.0080357055498842 -0.00021659358662008308 0.0025444039386502606
127 0.020364812857144015 0.028161588555914115 -0.01455011207575709
400 -0.002755517678343116 -0.004905302106974454 0.0008860402237507058
177 0.006592935924352484 -0.00338850658210947 0.006579606858093543
724 0.004611810758657603 0.006950619402929332 0.004602521646162288
730 -0.008560354642856224 0.007593188961151663 -0.01378457880539654
673 -0.0012107327715260659 -0.0006440776971201718 0.005533732826586071
675 -0.005670709708997708 -0.000727960784966575 0.007308965179666848
676 0.005474196253729267 0.004098470076107747 0.0049186544545529514
671 0.001782643745374624 0.004860630195510223 0.006562731927708164
672 -0.0015972391059037995 0.0014736402975152473 0.0012906484845442484
721 0.0062244322880316595 0.0017091406067930286 0.004253787224305792
674 -0.0037872856937382075 -0.0008530983615844775 0.005440971325409573
725 -0.001455568467080418 -0.0052106427781936065 0.00476869229400245
726 0.005164272403601079 -0.0009443913026425838 -0.0031145459267518795
729 -0.016365963979050296 -0.006552065774879164 0.014184888914653
115 0.002040411798064872 -0.0046176569554942795 0.030572187238459215
113 0.0008079507198670644 0.0008277288572478917 -0.005569196972779573
117 0.008143122936115018 -0.019432770971914457 -0.00792444531747475
727 -0.014305477583660334 0.024702474081444315 0.00617892689560499
172 -0.0038599238779617345 0.001550884990535085 0.0016248729800420383
169 -0.00934434819917157 0.002977578301390921 0.0004248349157508583
180 -0.005962252589260818 -0.020683334676744044 0.012440636751622465
270 0.007582693767895637 -0.0013847290550290051 0.00597481368411335
276 0.0029788789478498298 0.037802661243310734 0.0016882426683835481
170 0.005538210586643891 0.0009959463634804174 0.0070989527957588065
274 0.02314434344138236 0.0031562672220502327 0.026677195701840288
275 0.0026642811082725286 0.011765545647706781 0.012550001939525574
268 0.002459593487397737 0.0033945186146529874 -0.002584342202400766
111 0.00385988730810676 -0.004900423535274201 0.0011209121344274446
116 0.0036473419754119887 -0.0013536072178808533 -0.018297177307094906
272 -0.006228936431303844 0.013585099227116707 0.0191329864358284
267 -0.0010757642814090103 -0.0010287536686113708 -0.005312910961947948
269 -0.0039311621724277875 0.005313043484255917 0.0075690515392956
273 0.01346054973087943 0.01679596337816349 -0.005787979510257476
271 0.009651293154264379 0.006030904282273095 0.008665046267616815
265 0.002495293169222106 0.0010274568299225872 -0.003310984127560622
266 0.0005536146208968098 0.007447129370030992 0.0005868239191984072
518 0.001705320150831753 0.00167613146061658 -0.007395878990066964
524 -0.007527343766843415 0.003295419821186904 0.006400694126059549
525 0.03408765627306794 -0.012933276620052852 0.004973217241435119
521 0.00438456636658396 0.00022285285114757852 0.0013576814107885398
517 0.0028267911826883735 -0.0021477416079742915 -0.004888976834509511
520 0.005257983645224277 -0.004446152304366907 -0.0008586783089817413
41 0.015360497079112422 0.0012601864101812483 -0.010483802424246525
44 -0.004977143415020974 0.010370829240774957 0.001882329298113401
45 -0.005658372773455223 0.0018984950565698808 0.007694776511467767
219 0.0037486776114805573 -0.004444333951007879 0.005144435231418104
129 -0.009825719340736944 -0.015439280337395287 0.035769910719029005
642 0.003259733758327115 -0.0048245024634968854 0.0009348453474820295
39 -0.00041796919961001094 -0.0008608622376624503 0.001188872103390995
732 0.006219044340770818 0.0011697284085789843 0.004770085186150349
217 -0.0014839034895148763 0.007087945039632471 -0.006341109468905233
220 -0.005275992947306839 0.0020560793723534278 -0.009028711713829105
218 0.0022012529709057246 -0.005891725323797188 -0.0009298296030519856
562 -0.0028255838962026342 -0.0010935256165113896 0.0003712530362179256
532 -0.002042170615320541 0.005160468969097218 0.00037848020082426525
529 -0.000668474792234975 0.00589901953801503 0.009485103922480528
530 -0.005835362037652402 0.0019814564867200305 -0.000286209864687609
567 -0.0018783214180177513 -0.003587370758742315 -0.0063106501472872676
566 0.0098202405311017 0.004015799120327356 0.009642592017556795
221 0.004632554720108495 -0.00603772235940434 0.004103263408731198
223 -0.017758033354417384 -4.3755144327813566e-05 -0.0002350093072004024
225 0.01952047524057302 -0.008408074756930868 -0.023256222042578087
679 -0.006758741802733895 -0.004978343059761601 -0.007730263417134336
563 -0.0054617772679252 -3.7582199399814084e-05 -0.005729036293822629
568 -0.0031572970542267124 -0.034525378906777655 0.00826821480905978
120 -0.009484850980791625 0.025984404952518518 0.021393370130901274
112 0.005062224508859798 0.008936883101650467 0.004634286342086242
118 0.023298879932806722 -0.003216603640455476 0.00364693129550615
114 -0.010609306700520833 0.008502709756799448 -1.5560371011930783e-05
119 0.022641415529678837 0.002286147796312735 0.005375376315510055
109 -0.0029154995265840956 -0.00240964765878692 0.00017118535578895423
110 -7.665825548998957e-05 0.00029549977873925105 0.0016755529484945933
553 0.0038719480852571885 0.00145793866628745 -0.00436086793233775
175 0.0003099725866657655 -0.026590700573265562 0.018764801067601054
559 0.02061238377006174 -0.0015799870298005346 -3.63681757202844e-05
554 -0.0054052242514299785 0.005950760814899161 0.00768250411107831
555 -0.003474477475734888 -0.0055583945759060316 0.0010918008935742684
560 -0.0019337784407550405 0.015271664899643921 -0.024058190624278733
558 0.01800425532444148 0.011126449596152067 -0.01984942035530011
556 -0.007361101309571915 -0.003263697050504374 -0.006072778441407321
557 -0.005915297830507375 0.013776551716106538 0.009066264812322236
656 0.004837673071613798 -0.008445714717998922 0.006375199694693346
659 0.0017226111778583671 0.013701739270963544 -0.0075541791478287434
655 -0.00803880102150042 -0.004627487380379578 -0.01192591596534875
657 -0.014996786067424895 0.025112448079816146 0.0032140933380990864
620 -0.0014497690968424256 0.0024658537977306555 -0.009801371181560978
619 0.003888616953934929 -0.00976309619609833 0.017587373386595495
618 0.021463552066893557 -0.016714583325034452 -0.029418964393686076
615 0.0004949900832323685 -0.0013020013370059478 -0.0033431625463278838
617 -0.010771730610392436 -0.01580990772719585 -0.002122708574309677
616 0.0011907691930254842 -0.004527155585285183 0.00047304503068111846
613 0.0020713836195222716 -0.0004647685794466189 -0.003144308055989552
614 0.0014856290264763047 -0.0021901296898640685 0.003836395615399285
611 -0.0030477139077464857 0.00364227202975068 0.00431077810377964
612 0.00038682671055935577 0.0013512644703954759 0.0018604246141004852
660 -0.005443152820238245 -0.005666790099882912 0.029905658094936838
34 -0.007134055008637316 0.013921799534983605 0.008358707650633932
30 0.013229323214286662 -0.004124927967994385 0.0004537956197788239
139 -0.02466548765123139 -0.010740575227782387 0.0014475000612279721
534 -0.010150492117884881 0.0009826983631970392 0.0015678776325928623
670 -0.01349470604024475 0.01466141218003794 0.024698816773490197
661 -0.0037799787052688488 0.0011429965324428427 -0.001180422371113245
663 -0.0013852895853346218 -0.0017492840394916652 -0.004786892835265296
664 0.00035856666558969094 -0.0032275148702229817 0.0015274547323290743
665 -0.006101528759734518 -0.0001599399630744805 0.00499518672084592
669 -0.00948353508385131 -0.008559435302041252 -0.006374012139437748
662 0.00020443440559409615 0.0006220181103889259 -0.0067610194947307885
540 0.02098022777283525 -0.0009316980049000316 -0.011927657339943899
36 0.009693744660147554 -0.011939238957561146 0.01254168164009759
538 0.030211483818406847 0.021785151959775567 -0.013943494039732569
416 0.018398809488168452 -0.03981514826867336 0.008881569431145602
542 0.010457963977370949 -0.0054686690152412004 0.002867104920291252
98 -0.006048082264659419 -0.0022512407282155506 -0.007622440730280282
710 -0.019531819000380694 -0.00044829815254267063 0.007308763454351183
97 -0.004017864572914525 0.003417989348127143 0.0013551084664070827
705 0.006965561049027272 0.006281387639961813 -0.004658932056595437
709 -0.0032946996300037726 0.03084864556824881 0.011708970829543003
708 0.01385862828400269 -0.007838934946859756 -0.015652376558008135
707 0.007744183193858935 -0.02766254930312077 0.008437642121933445
706 0.0007231561830625459 -0.0046751216070006285 -0.009237545710870732
56 0.01680619874546618 0.006655069511530294 -0.015770115967010584
103 -0.0013406184807353428 0.005635142426661132 0.010770528124160995
50 0.0008226761384106275 0.005033522522160781 0.0076315134245009495
104 0.005931536641612173 0.011387588329776802 -0.003916293484973756
101 0.001099124057820575 -0.001388437204502607 -0.002667683921207143
105 0.011587005528956416 0.001425476479009118 0.015761296157264786
99 -0.003957787686593079 0.0027112950611978674 -0.003296352579936997
49 0.004448252073752523 0.003650893817598121 -0.0025861430327634716
684 -0.0006934584517937805 -0.0009444401495064347 -0.004429431584587984
685 -0.009417902083223587 -0.00947632745479918 0.003088513982207356
690 0.03071634316994896 -0.018438627740692565 0.010496629995475057
689 0.003439692820421933 0.013863624241171662 -0.010440172839357486
263 0.0034375088882540017 -0.019891102829415273 -0.01940194396126818
262 -0.014004583942824196 0.0004615179106429888 -0.0017180311618167291
362 -0.002402283282846313 0.0015562560889215656 -0.0015223056946229079
231 0.006249752017037124 -0.003134795101192494 -0.0013391106405231884
235 -0.010163785099771911 0.005125949720782363 0.00807714974223914
229 -0.002115843376000985 0.001177420221382659 0.0016378850422798259
233 0.009158995032018225 0.0046897754159151706 0.007516268880030428
237 0.007486582999327233 0.005401737680166949 -0.0016101826422089583
230 0.008922301537697125 0.0029693551254014816 5.3945662997121484e-05
253 0.008393564641743808 0.008553798858546558 -0.012840425373025332
264 0.0040594106458516485 -0.005966609332155964 0.010775299712275638
258 0.0040086582015184495 -0.0027546621686848943 -0.0008169067961100135
256 0.002465808117691409 0.006836819302435939 -0.0008078070324914486
236 0.019119693716300658 0.007801604119392059 0.027326138262637304
19 0.0051498317140304456 0.008034185780575935 -0.011007047977598801
668 -0.029307395125733254 -0.0010034631854449541 0.005794843775559699
666 0.0013579213738702156 0.001557567956449835 -0.001080044887016812
667 0.005547868155726198 -0.03533231243794501 0.0016195822562078811
714 0.003240138897952982 0.0017792496324730515 -0.00532573127665222
712 0.0005079252935588473 -0.0015244537628342448 0.0002490013490075341
711 -0.003173818782011719 -0.007167640980923539 -0.010829200083923992
715 -0.0006321424075381147 -0.001308796563348383 0.004842227951695352
719 0.014379605033966927 0.024809557610838025 0.00427970039404106
713 0.004167668019526379 0.0020187679594401847 0.0014645299420870989
722 0.0016667231945676657 0.003541298853799445 -0.0015841995835863913
541 0.0016631081610438189 -0.0023893931632600917 0.001188869790281603
100 0.0027495181824239174 -0.00018476892033747372 -0.003436993631414063
544 0.008127239044544902 0.004241679665643247 -0.0003251012404055915
543 -0.0034285004498129227 0.0029377735309917418 -0.011123490727661972
545 0.0065261713404669965 0.002205501826499069 0.003854007068155797
550 -0.014803800239648892 0.0052906344417905 -0.004846596571274602
549 -0.011458265637091089 0.005145590910819886 0.013725403763071423
546 0.0033238560513155356 0.003287580917141654 0.0008840883641519281
548 -0.00010123879058810913 0.0066294658629980525 0.022251087999248676
547 0.0014652033430313685 0.00028744387165958584 -0.0193871249795471
107 0.02116527137160247 0.018920367851635866 -0.008084699184621735
164 -0.019144738230459188 0.0008639856179340426 0.006320550670166904
165 0.000414143053200134 0.011940282090619052 -0.026460733072160868
102 0.001643321030434939 0.0005733158908741334 -0.0051025979118290285
108 -0.012896974733920407 0.007713883768979847 0.02130414509909024
686 0.002045359957804389 0.0003194815719200936 0.0038756832542809374
687 0.018184338395337694 0.013814109717237138 0.007668821347394879
147 -0.0013707274055548453 0.011514927166921428 -0.0052430063204046565
145 -0.0002962779073259616 -0.005591407419594299 -0.007617883367611916
106 0.01440488600985835 -0.008222319028091299 0.051212037640770924
152 -0.007883181828030267 -0.007271188270515193 0.008668845785731504
153 -0.013821322203736193 0.026496018708817817 0.0028347046342903043
149 0.007914253427474533 0.0025849609848893848 -0.0003345389264628933
151 0.03321096137682531 0.008592722805837562 -0.00018694469807164205
2 0.0008239570315697826 -0.000799706759144675 0.006669054182757214
1 0.0016868982189859791 0.0016076806136643045 0.0038164614659375005
156 -0.01110658015424863 -0.011897020320204003 0.028631014762392906
688 0.003659485029296334 0.0072060682826775675 0.01783063312001096
134 0.0032700605868358802 -0.006032941677713482 0.00813231058841863
133 -0.00425660093149623 -0.0027261001629642393 0.00660608453680131
146 -0.0015246894740078348 0.0010544675689023258 -0.001850404547247313
135 -0.005871635987056062 0.0030164275813218226 -0.00544138671148048
82 0.015976482452887 -0.011910737307466803 0.0023678858199789226
78 0.0014789676240625116 0.00024320345500476997 0.0037649631940927207
84 0.025862698910736594 0.01354006563174561 0.01007546830910479
76 0.002747121840232908 -0.0010964275989554214 -0.0006029492544634282
83 0.03215481755313058 -0.007421784673619581 0.0053084269422150245
720 -0.017677914900027084 0.025349214878581675 0.030020828665345927
718 -0.02860190726175535 0.008751508133880464 -0.01964523783744942
716 -0.0027102162101602235 -0.0005591560824261007 0.00218894764975076
124 0.0009595724267663116 0.004732420359608719 -0.00897120282555352
717 -0.00920526573931339 -0.03793708859434976 -0.0172278508371719
122 -0.0028807744536852205 0.001259738270988074 0.007928558489822992
121 -0.0019376324445675047 -0.002978438410099683 -0.0004888929318850365
123 -0.006652942473884604 9.455644091197199e-05 0.007443753510415299
126 -0.003668773674753329 -0.0037425373628127514 0.007492196532788191
204 0.02227138697971501 -0.004088958332679409 -0.004662167951939811
202 0.00031472028501141713 -0.01846152313310838 -0.0394027587622071
203 -0.012919863935288753 0.0058298616837907805 0.016402887301578715
198 0.00947483972150022 -0.008092320537879656 0.0010285236629109388
131 -0.00017603759590407894 -0.007195284607814177 -0.004089096255525629
130 -0.024373468235710537 -0.0336847977843735 0.009316853338412276
193 0.002642519741650374 -5.866066523459069e-05 0.005186102160120014
196 0.005168391547051325 -0.0032316621725039236 -0.00019348249686461762
194 -0.009374698542227758 0.0038216624908348268 0.009338929724308737
4 -7.116932522642451e-05 -0.0031733022280290386 0.0026506287569750568
6 0.00402417235558408 -0.004352786980776154 0.004055067977794988
580 0.01052704132467732 0.008216617152637367 0.008770857004078094
575 -0.006394806095119911 -0.006517029224512203 0.002708821394835818
8 0.015136896304594869 0.020423873060820205 0.0034471596365910624
3 0.00578778818097602 -0.008425545755517955 -0.00628565755026234
9 -0.013911377927675356 0.018251911193790084 -0.030837641158056987
5 -0.006331579084287703 0.0005398582596590987 -2.3670119985208847e-05
7 -0.01746364488397682 -0.009768072309779968 0.03913178926709255
571 0.004582146855691503 -0.0013493685880588764 -0.001608003979415032
574 0.006689841225270531 -0.0010637438313916695 -0.0027207682159992534
572 0.0006944130109485115 0.0005739031814181206 -0.001577208912021489
528 -0.013616943909326662 0.014141602517476036 0.00510300399282165
579 -0.015445304360933713 -0.003407590854627175 0.0187396835289221
625 0.00019987433962181264 0.0029120902734719335 -0.0002143526110600797
624 0.006954790364920691 0.003398727433500746 0.0013781682101706033
523 -0.0014909525982203546 -0.01082150165434858 -0.003417508099815942
527 -0.025359309234589483 0.010744798105513723 0.0005154805766643169
629 0.01956637005364723 0.04274183041993421 -0.00837485931554416
526 0.02657361985557338 0.01629214732897869 0.01677314290094415
621 -0.004458093347951716 0.0021555458400884116 -0.0021069484774431236
522 -0.006894185600570263 0.00037028689131931355 -0.004159608123529457
519 -0.005858294784072056 -0.001963421390253055 -0.0031730360215132987
25 0.0036734209250205182 -0.010432198839601923 0.006913028305721236
28 0.0021194284221821022 0.0017381679426466206 -0.0014817092639945832
26 -0.0026358213636973947 0.006271021714061172 -0.008285674519676389
227 -0.022146334174730962 -0.008651276730923547 0.001824540869277611
226 -0.012471493740214785 0.012688426056750518 -0.0021523971193625297
222 0.001184529531625037 -0.0035928343409293464 -0.004888044289681441
228 -0.01283359586051949 0.006947263346806132 0.0048852595841297405
32 0.02232662315780022 0.014261073321174428 0.014373699558699974
27 0.0001979393978471279 -0.00895229318462994 -0.003897909321841946
29 -0.001638543877400973 0.0068835027438846575 -0.005123554710873912
33 0.01104263092476944 0.015031985036994827 0.013131373651060122
31 0.029921387003162735 -0.017542960497266905 -0.022542809011304208
132 0.017562547363415327 0.0038192598452927396 -0.007951160779550987
195 -0.007322511944339742 -0.005031901691652005 0.005033181287249935
703 -0.004912171255309473 -0.00038160169496191703 0.003069477770768247
702 -0.0023551978411962124 -0.00452441728317066 -0.002906687365343761
701 0.005090052262846427 -0.001755902197196157 0.005042061728925256
704 -0.005466509938011512 0.002187761012563286 0.0012167023390366224
200 0.008977188946313169 0.015139728892188356 -0.016276391766914713
197 -0.004674301077835672 0.002270529100735772 -0.0020968286795530963
201 0.0017142068336484869 -0.013290061797057941 0.006160748124465392
653 0.0011346735063417989 -0.0003752099717546688 0.004646907337833777
658 0.0278125806995328 -0.015591113555688698 0.031927231698251596
54 -0.001875839151695201 -0.000404914124333548 -0.0020144067141536284
59 0.006403446942627521 0.014743980943982521 -0.020402939754609748
60 0.009690022129179885 0.005527487173275461 0.01688324154318387
58 -0.023962226628834033 -0.007578317965572923 0.009443439095343615
52 0.0028232880076901534 -0.004137972172247887 0.006284526524427162
652 0.0010199376304942055 0.0021209543984354964 -0.007450025204701975
651 -0.001018613072613472 0.00027352677623778744 -0.003919389999236509
654 -0.003858918468342594 0.0035266377805443097 -0.0010131208461876121
199 0.009242561770230282 -0.02963993726502052 0.031891291696841996
212 0.001797255196052013 -0.026254803645373564 -0.014158291991964616
213 -0.015281235057948307 0.031368293979713295 0.030436514495736932
211 -0.012233085538725484 0.0181663022216432 -0.0011135738184655894
209 0.0064763226856249575 -0.004565681069411021 0.005892997469480164
207 0.00018893728751861053 -0.008934551752343357 -0.003330142129014208
367 0.014594769382574294 0.003954964749319865 -0.0006852782275207183
535 -0.018399171386656334 -0.025294372374865422 -0.01379214426783094
206 -0.0072504202394513256 -0.001329861213940153 -0.012098317536615437
537 -0.017876662645017267 0.017765218955071244 0.03312102434463262
533 0.0018084205287494178 0.0032343800571901097 0.003708447681531114
536 0.019593354465704253 0.0035912333856019467 0.005683558131392322
531 0.001663437211571441 -0.008469308870887437 -0.004331688949579478
205 0.009088613107066674 0.0020787449415179847 0.0036757465209590555
210 0.003322109057238474 0.0014234916682787442 0.007456108240967225
214 0.00373154344515862 0.005089769318079977 0.002378375503893234
208 0.00023390340109907866 0.00045376383293289246 0.0053202677341315854

Bonds

1 7 424 426
2 4 426 430
3 4 426 431
4 4 426 432
5 8 421 422
6 7 421 423
7 7 421 424
8 4 414 418
9 4 414 419
10 4 414 420
11 8 181 182
12 7 181 183
13 7 181 184
14 7 184 186
15 4 413 415
16 4 413 416
17 4 413 417
18 4 245 247
19 4 245 248
20 4 245 249
21 7 411 413
22 8 409 410
23 7 409 411
24 7 409 412
25 7 412 414
26 4 186 190
27 4 186 191
28 4 186 192
29 7 243 245
30 8 241 242
31 7 241 243
32 7 241 244
33 7 303 305
34 7 364 366
35 4 305 307
36 4 305 308
37 4 305 309
38 4 53 55
39 4 53 56
40 4 53 57
41 7 51 53
42 4 365 367
43 4 365 368
44 4 365 369
45 4 234 238
46 4 234 239
47 4 234 240
48 7 232 234
49 7 363 365
50 8 361 362
51 7 361 363
52 7 361 364
53 4 366 370
54 4 366 371
55 4 366 372
56 4 462 466
57 4 462 467
58 4 462 468
59 7 423 425
60 4 425 427
61 4 425 428
62 4 425 429
63 4 17 19
64 4 17 20
65 4 17 21
66 15 757 758
67 15 757 759
68 15 757 760
69 15 757 761
70 15 757 762
71 15 757 763
72 4 18 22
73 4 18 23
74 4 18 24
75 8 13 14
76 7 13 15
77 7 13 16
78 7 15 17
79 7 16 18
80 1 695 696
81 4 695 699
82 4 695 700
83 7 694 695
84 8 691 692
85 7 691 693
86 7 691 694
87 7 693 696
88 8 445 446
89 7 445 447
90 7 445 448
91 4 696 697
92 4 696 698
93 7 448 450
94 8 681 682
95 7 681 683
96 7 681 684
97 7 683 686
98 4 77 79
99 4 77 80
100 4 77 81
101 7 75 77
102 8 73 74
103 7 73 75
104 7 73 76
105 7 63 65
106 4 65 67
107 4 65 68
108 4 65 69
109 4 497 499
110 4 497 500
111 4 497 501
112 8 493 494
113 7 493 495
114 7 493 496
115 7 495 497
116 4 89 91
117 4 89 92
118 4 89 93
119 8 289 290
120 7 289 291
121 7 289 292
122 7 292 294
123 4 294 298
124 4 294 299
125 4 294 300
126 7 291 293
127 7 496 498
128 4 498 502
129 4 498 503
130 4 498 504
131 4 576 577
132 4 576 578
133 7 573 576
134 4 66 70
135 4 66 71
136 4 66 72
137 8 61 62
138 7 61 63
139 7 61 64
140 4 626 627
141 4 626 628
142 7 64 66
143 7 623 626
144 7 183 185
145 4 341 343
146 4 341 344
147 4 341 345
148 7 88 90
149 7 435 437
150 7 436 438
151 4 437 439
152 4 437 440
153 4 437 441
154 8 433 434
155 7 433 435
156 7 433 436
157 4 438 442
158 4 438 443
159 4 438 444
160 7 304 306
161 8 85 86
162 7 85 87
163 7 85 88
164 7 87 89
165 4 90 94
166 4 90 95
167 4 90 96
168 4 485 487
169 4 485 488
170 4 485 489
171 7 483 485
172 8 481 482
173 7 481 483
174 7 481 484
175 4 461 463
176 4 461 464
177 4 461 465
178 7 459 461
179 7 484 486
180 4 486 490
181 4 486 491
182 4 486 492
183 7 244 246
184 7 633 636
185 4 317 319
186 4 317 320
187 4 317 321
188 4 450 454
189 4 450 455
190 4 450 456
191 4 390 394
192 4 390 395
193 4 390 396
194 7 460 462
195 8 457 458
196 7 457 459
197 7 457 460
198 15 750 751
199 15 750 752
200 15 750 753
201 15 750 754
202 15 750 755
203 15 750 756
204 4 389 391
205 4 389 392
206 4 389 393
207 15 764 765
208 15 764 766
209 15 764 767
210 15 764 768
211 15 764 769
212 15 764 770
213 4 402 406
214 4 402 407
215 4 402 408
216 8 631 632
217 7 631 633
218 7 631 634
219 1 635 636
220 4 635 639
221 4 635 640
222 4 636 637
223 4 636 638
224 7 634 635
225 7 399 401
226 4 401 403
227 4 401 404
228 4 401 405
229 7 447 449
230 4 449 451
231 4 449 452
232 4 449 453
233 7 472 474
234 4 474 478
235 4 474 479
236 4 474 480
237 7 471 473
238 8 469 470
239 7 469 471
240 7 469 472
241 4 473 475
242 4 473 476
243 4 473 477
244 1 605 606
245 4 605 609
246 4 605 610
247 4 606 607
248 4 606 608
249 8 601 602
250 7 601 603
251 7 601 604
252 7 603 606
253 4 330 334
254 4 330 335
255 4 330 336
256 4 342 346
257 4 342 347
258 4 342 348
259 7 340 342
260 8 337 338
261 7 337 339
262 7 337 340
263 1 645 646
264 4 645 649
265 4 645 650
266 7 644 645
267 4 293 295
268 4 293 296
269 4 293 297
270 8 397 398
271 7 397 399
272 7 397 400
273 4 353 355
274 4 353 356
275 4 353 357
276 7 351 353
277 8 349 350
278 7 349 351
279 7 349 352
280 7 352 354
281 4 354 358
282 4 354 359
283 4 354 360
284 7 171 173
285 4 174 178
286 4 174 179
287 4 174 180
288 8 325 326
289 7 325 327
290 7 325 328
291 7 328 330
292 7 604 605
293 7 327 329
294 4 329 331
295 4 329 332
296 4 329 333
297 7 339 341
298 4 185 187
299 4 185 188
300 4 185 189
301 4 646 647
302 4 646 648
303 8 641 642
304 7 641 643
305 7 641 644
306 7 643 646
307 4 377 379
308 4 377 380
309 4 377 381
310 4 246 250
311 4 246 251
312 4 246 252
313 1 565 566
314 4 565 569
315 4 565 570
316 7 564 565
317 7 375 377
318 8 561 562
319 7 561 563
320 7 561 564
321 8 373 374
322 7 373 375
323 7 373 376
324 8 301 302
325 7 301 303
326 7 301 304
327 4 173 175
328 4 173 176
329 4 173 177
330 7 376 378
331 4 378 382
332 4 378 383
333 4 378 384
334 8 551 552
335 7 551 553
336 7 551 554
337 4 306 310
338 4 306 311
339 4 306 312
340 4 509 511
341 4 509 512
342 4 509 513
343 7 507 509
344 7 508 510
345 4 510 514
346 4 510 515
347 4 510 516
348 8 505 506
349 7 505 507
350 7 505 508
351 8 37 38
352 7 37 39
353 7 37 40
354 7 40 42
355 4 42 46
356 4 42 47
357 4 42 48
358 7 315 317
359 7 316 318
360 4 318 322
361 4 318 323
362 4 318 324
363 8 313 314
364 7 313 315
365 7 313 316
366 7 388 390
367 4 596 597
368 4 596 598
369 7 593 596
370 1 595 596
371 4 595 599
372 4 595 600
373 7 594 595
374 8 591 592
375 7 591 593
376 7 591 594
377 8 385 386
378 7 385 387
379 7 385 388
380 7 387 389
381 4 257 259
382 4 257 260
383 4 257 261
384 7 255 257
385 4 137 139
386 4 137 140
387 4 137 141
388 8 277 278
389 7 277 279
390 7 277 280
391 7 280 282
392 7 279 281
393 4 281 283
394 4 281 284
395 4 281 285
396 4 282 286
397 4 282 287
398 4 282 288
399 7 160 162
400 4 162 166
401 4 162 167
402 4 162 168
403 7 159 161
404 8 157 158
405 7 157 159
406 7 157 160
407 4 161 163
408 4 161 164
409 4 161 165
410 7 723 726
411 7 148 150
412 8 581 582
413 7 581 583
414 7 581 584
415 7 584 585
416 7 583 586
417 1 585 586
418 4 585 589
419 4 585 590
420 4 586 587
421 4 586 588
422 4 138 142
423 4 138 143
424 4 138 144
425 4 150 154
426 4 150 155
427 4 150 156
428 15 736 737
429 15 736 738
430 15 736 739
431 15 736 740
432 15 736 741
433 15 736 742
434 7 136 138
435 15 743 744
436 15 743 745
437 15 743 746
438 15 743 747
439 15 743 748
440 15 743 749
441 4 125 127
442 4 125 128
443 4 125 129
444 7 400 402
445 7 724 725
446 7 673 676
447 1 675 676
448 4 675 679
449 4 675 680
450 4 676 677
451 4 676 678
452 8 671 672
453 7 671 673
454 7 671 674
455 8 721 722
456 7 721 723
457 7 721 724
458 7 674 675
459 1 725 726
460 4 725 729
461 4 725 730
462 4 726 727
463 4 726 728
464 4 113 115
465 4 113 116
466 4 113 117
467 7 172 174
468 8 169 170
469 7 169 171
470 7 169 172
471 4 270 274
472 4 270 275
473 4 270 276
474 7 268 270
475 7 111 113
476 7 267 269
477 4 269 271
478 4 269 272
479 4 269 273
480 8 265 266
481 7 265 267
482 7 265 268
483 4 521 523
484 4 521 524
485 4 521 525
486 8 517 518
487 7 517 519
488 7 517 520
489 7 520 522
490 4 41 43
491 4 41 44
492 4 41 45
493 7 219 221
494 7 39 41
495 8 217 218
496 7 217 219
497 7 217 220
498 7 220 222
499 7 532 534
500 8 529 530
501 7 529 531
502 7 529 532
503 4 566 567
504 4 566 568
505 4 221 223
506 4 221 224
507 4 221 225
508 7 563 566
509 7 112 114
510 4 114 118
511 4 114 119
512 4 114 120
513 8 109 110
514 7 109 111
515 7 109 112
516 7 553 556
517 7 554 555
518 1 555 556
519 4 555 559
520 4 555 560
521 4 556 557
522 4 556 558
523 4 656 657
524 4 656 658
525 1 655 656
526 4 655 659
527 4 655 660
528 1 615 616
529 4 615 619
530 4 615 620
531 4 616 617
532 4 616 618
533 7 613 616
534 7 614 615
535 8 611 612
536 7 611 613
537 7 611 614
538 4 30 34
539 4 30 35
540 4 30 36
541 4 534 538
542 4 534 539
543 4 534 540
544 8 661 662
545 7 661 663
546 7 661 664
547 7 663 666
548 7 664 665
549 1 665 666
550 4 665 669
551 4 665 670
552 8 97 98
553 7 97 99
554 7 97 100
555 1 705 706
556 4 705 709
557 4 705 710
558 4 706 707
559 4 706 708
560 4 101 103
561 4 101 104
562 4 101 105
563 7 99 101
564 8 49 50
565 7 49 51
566 7 49 52
567 7 684 685
568 1 685 686
569 4 685 689
570 4 685 690
571 7 231 233
572 8 229 230
573 7 229 231
574 7 229 232
575 4 233 235
576 4 233 236
577 4 233 237
578 8 253 254
579 7 253 255
580 7 253 256
581 4 258 262
582 4 258 263
583 4 258 264
584 7 256 258
585 4 666 667
586 4 666 668
587 7 714 715
588 8 711 712
589 7 711 713
590 7 711 714
591 1 715 716
592 4 715 719
593 4 715 720
594 7 713 716
595 8 541 542
596 7 541 543
597 7 541 544
598 7 100 102
599 7 544 545
600 7 543 546
601 1 545 546
602 4 545 549
603 4 545 550
604 4 546 547
605 4 546 548
606 4 102 106
607 4 102 107
608 4 102 108
609 4 686 687
610 4 686 688
611 7 147 149
612 8 145 146
613 7 145 147
614 7 145 148
615 4 149 151
616 4 149 152
617 4 149 153
618 8 1 2
619 7 1 3
620 7 1 4
621 8 133 134
622 7 133 135
623 7 133 136
624 7 135 137
625 4 78 82
626 4 78 83
627 4 78 84
628 7 76 78
629 4 716 717
630 4 716 718
631 7 124 126
632 8 121 122
633 7 121 123
634 7 121 124
635 7 123 125
636 4 126 130
637 4 126 131
638 4 126 132
639 4 198 202
640 4 198 203
641 4 198 204
642 8 193 194
643 7 193 195
644 7 193 196
645 7 196 198
646 7 4 6
647 4 6 10
648 4 6 11
649 4 6 12
650 1 575 576
651 4 575 579
652 4 575 580
653 7 3 5
654 4 5 7
655 4 5 8
656 4 5 9
657 8 571 572
658 7 571 573
659 7 571 574
660 7 574 575
661 1 625 626
662 4 625 629
663 4 625 630
664 7 624 625
665 8 621 622
666 7 621 623
667 7 621 624
668 4 522 526
669 4 522 527
670 4 522 528
671 7 519 521
672 8 25 26
673 7 25 27
674 7 25 28
675 7 28 30
676 4 222 226
677 4 222 227
678 4 222 228
679 7 27 29
680 4 29 31
681 4 29 32
682 4 29 33
683 7 195 197
684 7 703 706
685 8 701 702
686 7 701 703
687 7 701 704
688 7 704 705
689 4 197 199
690 4 197 200
691 4 197 201
692 7 653 656
693 4 54 58
694 4 54 59
695 4 54 60
696 7 52 54
697 8 651 652
698 7 651 653
699 7 651 654
700 7 654 655
701 4 209 211
702 4 209 212
703 4 209 213
704 7 207 209
705 4 533 535
706 4 533 536
707 4 533 537
708 7 531 533
709 8 205 206
710 7 205 207
711 7 205 208
712 4 210 214
713 4 210 215
714 4 210 216
715 7 208 210

Angles

1 9 421 424 426
2 4 424 426 430
3 4 424 426 431
4 4 424 426 432
5 7 430 426 431
6 7 430 426 432
7 7 431 426 432
8 11 422 421 423
9 11 422 421 424
10 12 423 421 424
11 4 412 414 418
12 4 412 414 419
13 4 412 414 420
14 7 418 414 419
15 7 418 414 420
16 7 419 414 420
17 11 182 181 183
18 11 182 181 184
19 12 183 181 184
20 9 181 184 186
21 4 411 413 415
22 4 411 413 416
23 4 411 413 417
24 7 415 413 416
25 7 415 413 417
26 7 416 413 417
27 4 243 245 247
28 4 243 245 248
29 4 243 245 249
30 7 247 245 248
31 7 247 245 249
32 7 248 245 249
33 9 409 411 413
34 11 410 409 411
35 11 410 409 412
36 12 411 409 412
37 9 409 412 414
38 4 184 186 190
39 4 184 186 191
40 4 184 186 192
41 7 190 186 191
42 7 190 186 192
43 7 191 186 192
44 9 241 243 245
45 11 242 241 243
46 11 242 241 244
47 12 243 241 244
48 9 301 303 305
49 9 361 364 366
50 4 303 305 307
51 4 303 305 308
52 4 303 305 309
53 7 307 305 308
54 7 307 305 309
55 7 308 305 309
56 4 51 53 55
57 4 51 53 56
58 4 51 53 57
59 7 55 53 56
60 7 55 53 57
61 7 56 53 57
62 9 49 51 53
63 4 363 365 367
64 4 363 365 368
65 4 363 365 369
66 7 367 365 368
67 7 367 365 369
68 7 368 365 369
69 4 232 234 238
70 4 232 234 239
71 4 232 234 240
72 7 238 234 239
73 7 238 234 240
74 7 239 234 240
75 9 229 232 234
76 9 361 363 365
77 11 362 361 363
78 11 362 361 364
79 12 363 361 364
80 4 364 366 370
81 4 364 366 371
82 4 364 366 372
83 7 370 366 371
84 7 370 366 372
85 7 371 366 372
86 4 460 462 466
87 4 460 462 467
88 4 460 462 468
89 7 466 462 467
90 7 466 462 468
91 7 467 462 468
92 9 421 423 425
93 4 423 425 427
94 4 423 425 428
95 4 423 425 429
96 7 427 425 428
97 7 427 425 429
98 7 428 425 429
99 4 15 17 19
100 4 15 17 20
101 4 15 17 21
102 7 19 17 20
103 7 19 17 21
104 7 20 17 21
105 18 758 757 759
106 18 760 757 761
107 18 762 757 763
108 17 758 757 760
109 17 758 757 761
110 17 758 757 762
111 17 758 757 763
112 17 759 757 760
113 17 759 757 761
114 17 759 757 762
115 17 759 757 763
116 17 760 757 762
117 17 760 757 763
118 17 761 757 762
119 17 761 757 763
120 4 16 18 22
121 4 16 18 23
122 4 16 18 24
123 7 22 18 23
124 7 22 18 24
125 7 23 18 24
126 11 14 13 15
127 11 14 13 16
128 12 15 13 16
129 9 13 15 17
130 9 13 16 18
131 13 694 695 696
132 4 696 695 699
133 4 696 695 700
134 6 699 695 700
135 9 691 694 695
136 11 692 691 693
137 11 692 691 694
138 12 693 691 694
139 9 691 693 696
140 11 446 445 447
141 11 446 445 448
142 12 447 445 448
143 13 693 696 695
144 4 695 696 697
145 4 695 696 698
146 6 697 696 698
147 9 445 448 450
148 11 682 681 683
149 11 682 681 684
150 12 683 681 684
151 9 681 683 686
152 4 75 77 79
153 4 75 77 80
154 4 75 77 81
155 7 79 77 80
156 7 79 77 81
157 7 80 77 81
158 9 73 75 77
159 11 74 73 75
160 11 74 73 76
161 12 75 73 76
162 9 61 63 65
163 4 63 65 67
164 4 63 65 68
165 4 63 65 69
166 7 67 65 68
167 7 67 65 69
168 7 68 65 69
169 4 495 497 499
170 4 495 497 500
171 4 495 497 501
172 7 499 497 500
173 7 499 497 501
174 7 500 497 501
175 11 494 493 495
176 11 494 493 496
177 12 495 493 496
178 9 493 495 497
179 4 87 89 91
180 4 87 89 92
181 4 87 89 93
182 7 91 89 92
183 7 91 89 93
184 7 92 89 93
185 11 290 289 291
186 11 290 289 292
187 12 291 289 292
188 9 289 292 294
189 4 292 294 298
190 4 292 294 299
191 4 292 294 300
192 7 298 294 299
193 7 298 294 300
194 7 299 294 300
195 9 289 291 293
196 9 493 496 498
197 4 496 498 502
198 4 496 498 503
199 4 496 498 504
200 7 502 498 503
201 7 502 498 504
202 7 503 498 504
203 13 573 576 575
204 4 575 576 577
205 4 575 576 578
206 6 577 576 578
207 9 571 573 576
208 4 64 66 70
209 4 64 66 71
210 4 64 66 72
211 7 70 66 71
212 7 70 66 72
213 7 71 66 72
214 11 62 61 63
215 11 62 61 64
216 12 63 61 64
217 13 623 626 625
218 4 625 626 627
219 4 625 626 628
220 6 627 626 628
221 9 61 64 66
222 9 621 623 626
223 9 181 183 185
224 4 339 341 343
225 4 339 341 344
226 4 339 341 345
227 7 343 341 344
228 7 343 341 345
229 7 344 341 345
230 9 85 88 90
231 9 433 435 437
232 9 433 436 438
233 4 435 437 439
234 4 435 437 440
235 4 435 437 441
236 7 439 437 440
237 7 439 437 441
238 7 440 437 441
239 11 434 433 435
240 11 434 433 436
241 12 435 433 436
242 4 436 438 442
243 4 436 438 443
244 4 436 438 444
245 7 442 438 443
246 7 442 438 444
247 7 443 438 444
248 9 301 304 306
249 11 86 85 87
250 11 86 85 88
251 12 87 85 88
252 9 85 87 89
253 4 88 90 94
254 4 88 90 95
255 4 88 90 96
256 7 94 90 95
257 7 94 90 96
258 7 95 90 96
259 4 483 485 487
260 4 483 485 488
261 4 483 485 489
262 7 487 485 488
263 7 487 485 489
264 7 488 485 489
265 9 481 483 485
266 11 482 481 483
267 11 482 481 484
268 12 483 481 484
269 4 459 461 463
270 4 459 461 464
271 4 459 461 465
272 7 463 461 464
273 7 463 461 465
274 7 464 461 465
275 9 457 459 461
276 9 481 484 486
277 4 484 486 490
278 4 484 486 491
279 4 484 486 492
280 7 490 486 491
281 7 490 486 492
282 7 491 486 492
283 9 241 244 246
284 9 631 633 636
285 4 315 317 319
286 4 315 317 320
287 4 315 317 321
288 7 319 317 320
289 7 319 317 321
290 7 320 317 321
291 4 448 450 454
292 4 448 450 455
293 4 448 450 456
294 7 454 450 455
295 7 454 450 456
296 7 455 450 456
297 4 388 390 394
298 4 388 390 395
299 4 388 390 396
300 7 394 390 395
301 7 394 390 396
302 7 395 390 396
303 9 457 460 462
304 11 458 457 459
305 11 458 457 460
306 12 459 457 460
307 18 751 750 752
308 18 753 750 754
309 18 755 750 756
310 17 751 750 753
311 17 751 750 754
312 17 751 750 755
313 17 751 750 756
314 17 752 750 753
315 17 752 750 754
316 17 752 750 755
317 17 752 750 756
318 17 753 750 755
319 17 753 750 756
320 17 754 750 755
321 17 754 750 756
322 4 387 389 391
323 4 387 389 392
324 4 387 389 393
325 7 391 389 392
326 7 391 389 393
327 7 392 389 393
328 18 765 764 766
329 18 767 764 768
330 18 769 764 770
331 17 765 764 767
332 17 765 764 768
333 17 765 764 769
334 17 765 764 770
335 17 766 764 767
336 17 766 764 768
337 17 766 764 769
338 17 766 764 770
339 17 767 764 769
340 17 767 764 770
341 17 768 764 769
342 17 768 764 770
343 4 400 402 406
344 4 400 402 407
345 4 400 402 408
346 7 406 402 407
347 7 406 402 408
348 7 407 402 408
349 11 632 631 633
350 11 632 631 634
351 12 633 631 634
352 13 634 635 636
353 4 636 635 639
354 4 636 635 640
355 6 639 635 640
356 13 633 636 635
357 4 635 636 637
358 4 635 636 638
359 6 637 636 638
360 9 631 634 635
361 9 397 399 401
362 4 399 401 403
363 4 399 401 404
364 4 399 401 405
365 7 403 401 404
366 7 403 401 405
367 7 404 401 405
368 9 445 447 449
369 4 447 449 451
370 4 447 449 452
371 4 447 449 453
372 7 451 449 452
373 7 451 449 453
374 7 452 449 453
375 9 469 472 474
376 4 472 474 478
377 4 472 474 479
378 4 472 474 480
379 7 478 474 479
380 7 478 474 480
381 7 479 474 480
382 9 469 471 473
383 11 470 469 471
384 11 470 469 472
385 12 471 469 472
386 4 471 473 475
387 4 471 473 476
388 4 471 473 477
389 7 475 473 476
390 7 475 473 477
391 7 476 473 477
392 13 604 605 606
393 4 606 605 609
394 4 606 605 610
395 6 609 605 610
396 13 603 606 605
397 4 605 606 607
398 4 605 606 608
399 6 607 606 608
400 11 602 601 603
401 11 602 601 604
402 12 603 601 604
403 9 601 603 606
404 4 328 330 334
405 4 328 330 335
406 4 328 330 336
407 7 334 330 335
408 7 334 330 336
409 7 335 330 336
410 4 340 342 346
411 4 340 342 347
412 4 340 342 348
413 7 346 342 347
414 7 346 342 348
415 7 347 342 348
416 9 337 340 342
417 11 338 337 339
418 11 338 337 340
419 12 339 337 340
420 13 644 645 646
421 4 646 645 649
422 4 646 645 650
423 6 649 645 650
424 9 641 644 645
425 4 291 293 295
426 4 291 293 296
427 4 291 293 297
428 7 295 293 296
429 7 295 293 297
430 7 296 293 297
431 11 398 397 399
432 11 398 397 400
433 12 399 397 400
434 4 351 353 355
435 4 351 353 356
436 4 351 353 357
437 7 355 353 356
438 7 355 353 357
439 7 356 353 357
440 9 349 351 353
441 11 350 349 351
442 11 350 349 352
443 12 351 349 352
444 9 349 352 354
445 4 352 354 358
446 4 352 354 359
447 4 352 354 360
448 7 358 354 359
449 7 358 354 360
450 7 359 354 360
451 9 169 171 173
452 4 172 174 178
453 4 172 174 179
454 4 172 174 180
455 7 178 174 179
456 7 178 174 180
457 7 179 174 180
458 11 326 325 327
459 11 326 325 328
460 12 327 325 328
461 9 325 328 330
462 9 601 604 605
463 9 325 327 329
464 4 327 329 331
465 4 327 329 332
466 4 327 329 333
467 7 331 329 332
468 7 331 329 333
469 7 332 329 333
470 9 337 339 341
471 4 183 185 187
472 4 183 185 188
473 4 183 185 189
474 7 187 185 188
475 7 187 185 189
476 7 188 185 189
477 13 643 646 645
478 4 645 646 647
479 4 645 646 648
480 6 647 646 648
481 11 642 641 643
482 11 642 641 644
483 12 643 641 644
484 9 641 643 646
485 4 375 377 379
486 4 375 377 380
487 4 375 377 381
488 7 379 377 380
489 7 379 377 381
490 7 380 377 381
491 4 244 246 250
492 4 244 246 251
493 4 244 246 252
494 7 250 246 251
495 7 250 246 252
496 7 251 246 252
497 13 564 565 566
498 4 566 565 569
499 4 566 565 570
500 6 569 565 570
501 9 561 564 565
502 9 373 375 377
503 11 562 561 563
504 11 562 561 564
505 12 563 561 564
506 11 374 373 375
507 11 374 373 376
508 12 375 373 376
509 11 302 301 303
510 11 302 301 304
511 12 303 301 304
512 4 171 173 175
513 4 171 173 176
514 4 171 173 177
515 7 175 173 176
516 7 175 173 177
517 7 176 173 177
518 9 373 376 378
519 4 376 378 382
520 4 376 378 383
521 4 376 378 384
522 7 382 378 383
523 7 382 378 384
524 7 383 378 384
525 11 552 551 553
526 11 552 551 554
527 12 553 551 554
528 4 304 306 310
529 4 304 306 311
530 4 304 306 312
531 7 310 306 311
532 7 310 306 312
533 7 311 306 312
534 4 507 509 511
535 4 507 509 512
536 4 507 509 513
537 7 511 509 512
538 7 511 509 513
539 7 512 509 513
540 9 505 507 509
541 9 505 508 510
542 4 508 510 514
543 4 508 510 515
544 4 508 510 516
545 7 514 510 515
546 7 514 510 516
547 7 515 510 516
548 11 506 505 507
549 11 506 505 508
550 12 507 505 508
551 11 38 37 39
552 11 38 37 40
553 12 39 37 40
554 9 37 40 42
555 4 40 42 46
556 4 40 42 47
557 4 40 42 48
558 7 46 42 47
559 7 46 42 48
560 7 47 42 48
561 9 313 315 317
562 9 313 316 318
563 4 316 318 322
564 4 316 318 323
565 4 316 318 324
566 7 322 318 323
567 7 322 318 324
568 7 323 318 324
569 11 314 313 315
570 11 314 313 316
571 12 315 313 316
572 9 385 388 390
573 13 593 596 595
574 4 595 596 597
575 4 595 596 598
576 6 597 596 598
577 9 591 593 596
578 13 594 595 596
579 4 596 595 599
580 4 596 595 600
581 6 599 595 600
582 9 591 594 595
583 11 592 591 593
584 11 592 591 594
585 12 593 591 594
586 11 386 385 387
587 11 386 385 388
588 12 387 385 388
589 9 385 387 389
590 4 255 257 259
591 4 255 257 260
592 4 255 257 261
593 7 259 257 260
594 7 259 257 261
595 7 260 257 261
596 9 253 255 257
597 4 135 137 139
598 4 135 137 140
599 4 135 137 141
600 7 139 137 140
601 7 139 137 141
602 7 140 137 141
603 11 278 277 279
604 11 278 277 280
605 12 279 277 280
606 9 277 280 282
607 9 277 279 281
608 4 279 281 283
609 4 279 281 284
610 4 279 281 285
611 7 283 281 284
612 7 283 281 285
613 7 284 281 285
614 4 280 282 286
615 4 280 282 287
616 4 280 282 288
617 7 286 282 287
618 7 286 282 288
619 7 287 282 288
620 9 157 160 162
621 4 160 162 166
622 4 160 162 167
623 4 160 162 168
624 7 166 162 167
625 7 166 162 168
626 7 167 162 168
627 9 157 159 161
628 11 158 157 159
629 11 158 157 160
630 12 159 157 160
631 4 159 161 163
632 4 159 161 164
633 4 159 161 165
634 7 163 161 164
635 7 163 161 165
636 7 164 161 165
637 9 721 723 726
638 9 145 148 150
639 11 582 581 583
640 11 582 581 584
641 12 583 581 584
642 9 581 584 585
643 9 581 583 586
644 13 584 585 586
645 4 586 585 589
646 4 586 585 590
647 6 589 585 590
648 13 583 586 585
649 4 585 586 587
650 4 585 586 588
651 6 587 586 588
652 4 136 138 142
653 4 136 138 143
654 4 136 138 144
655 7 142 138 143
656 7 142 138 144
657 7 143 138 144
658 4 148 150 154
659 4 148 150 155
660 4 148 150 156
661 7 154 150 155
662 7 154 150 156
663 7 155 150 156
664 18 737 736 738
665 18 739 736 740
666 18 741 736 742
667 17 737 736 739
668 17 737 736 740
669 17 737 736 741
670 17 737 736 742
671 17 738 736 739
672 17 738 736 740
673 17 738 736 741
674 17 738 736 742
675 17 739 736 741
676 17 739 736 742
677 17 740 736 741
678 17 740 736 742
679 9 133 136 138
680 18 744 743 745
681 18 746 743 747
682 18 748 743 749
683 17 744 743 746
684 17 744 743 747
685 17 744 743 748
686 17 744 743 749
687 17 745 743 746
688 17 745 743 747
689 17 745 743 748
690 17 745 743 749
691 17 746 743 748
692 17 746 743 749
693 17 747 743 748
694 17 747 743 749
695 4 123 125 127
696 4 123 125 128
697 4 123 125 129
698 7 127 125 128
699 7 127 125 129
700 7 128 125 129
701 9 397 400 402
702 9 721 724 725
703 9 671 673 676
704 13 674 675 676
705 4 676 675 679
706 4 676 675 680
707 6 679 675 680
708 13 673 676 675
709 4 675 676 677
710 4 675 676 678
711 6 677 676 678
712 11 672 671 673
713 11 672 671 674
714 12 673 671 674
715 11 722 721 723
716 11 722 721 724
717 12 723 721 724
718 9 671 674 675
719 13 724 725 726
720 4 726 725 729
721 4 726 725 730
722 6 729 725 730
723 13 723 726 725
724 4 725 726 727
725 4 725 726 728
726 6 727 726 728
727 4 111 113 115
728 4 111 113 116
729 4 111 113 117
730 7 115 113 116
731 7 115 113 117
732 7 116 113 117
733 9 169 172 174
734 11 170 169 171
735 11 170 169 172
736 12 171 169 172
737 4 268 270 274
738 4 268 270 275
739 4 268 270 276
740 7 274 270 275
741 7 274 270 276
742 7 275 270 276
743 9 265 268 270
744 9 109 111 113
745 9 265 267 269
746 4 267 269 271
747 4 267 269 272
748 4 267 269 273
749 7 271 269 272
750 7 271 269 273
751 7 272 269 273
752 11 266 265 267
753 11 266 265 268
754 12 267 265 268
755 4 519 521 523
756 4 519 521 524
757 4 519 521 525
758 7 523 521 524
759 7 523 521 525
760 7 524 521 525
761 11 518 517 519
762 11 518 517 520
763 12 519 517 520
764 9 517 520 522
765 4 39 41 43
766 4 39 41 44
767 4 39 41 45
768 7 43 41 44
769 7 43 41 45
770 7 44 41 45
771 9 217 219 221
772 9 37 39 41
773 11 218 217 219
774 11 218 217 220
775 12 219 217 220
776 9 217 220 222
777 9 529 532 534
778 11 530 529 531
779 11 530 529 532
780 12 531 529 532
781 13 563 566 565
782 4 565 566 567
783 4 565 566 568
784 6 567 566 568
785 4 219 221 223
786 4 219 221 224
787 4 219 221 225
788 7 223 221 224
789 7 223 221 225
790 7 224 221 225
791 9 561 563 566
792 9 109 112 114
793 4 112 114 118
794 4 112 114 119
795 4 112 114 120
796 7 118 114 119
797 7 118 114 120
798 7 119 114 120
799 11 110 109 111
800 11 110 109 112
801 12 111 109 112
802 9 551 553 556
803 9 551 554 555
804 13 554 555 556
805 4 556 555 559
806 4 556 555 560
807 6 559 555 560
808 13 553 556 555
809 4 555 556 557
810 4 555 556 558
811 6 557 556 558
812 13 653 656 655
813 4 655 656 657
814 4 655 656 658
815 6 657 656 658
816 13 654 655 656
817 4 656 655 659
818 4 656 655 660
819 6 659 655 660
820 13 614 615 616
821 4 616 615 619
822 4 616 615 620
823 6 619 615 620
824 13 613 616 615
825 4 615 616 617
826 4 615 616 618
827 6 617 616 618
828 9 611 613 616
829 9 611 614 615
830 11 612 611 613
831 11 612 611 614
832 12 613 611 614
833 4 28 30 34
834 4 28 30 35
835 4 28 30 36
836 7 34 30 35
837 7 34 30 36
838 7 35 30 36
839 4 532 534 538
840 4 532 534 539
841 4 532 534 540
842 7 538 534 539
843 7 538 534 540
844 7 539 534 540
845 11 662 661 663
846 11 662 661 664
847 12 663 661 664
848 9 661 663 666
849 9 661 664 665
850 13 664 665 666
851 4 666 665 669
852 4 666 665 670
853 6 669 665 670
854 11 98 97 99
855 11 98 97 100
856 12 99 97 100
857 13 704 705 706
858 4 706 705 709
859 4 706 705 710
860 6 709 705 710
861 13 703 706 705
862 4 705 706 707
863 4 705 706 708
864 6 707 706 708
865 4 99 101 103
866 4 99 101 104
867 4 99 101 105
868 7 103 101 104
869 7 103 101 105
870 7 104 101 105
871 9 97 99 101
872 11 50 49 51
873 11 50 49 52
874 12 51 49 52
875 9 681 684 685
876 13 684 685 686
877 4 686 685 689
878 4 686 685 690
879 6 689 685 690
880 9 229 231 233
881 11 230 229 231
882 11 230 229 232
883 12 231 229 232
884 4 231 233 235
885 4 231 233 236
886 4 231 233 237
887 7 235 233 236
888 7 235 233 237
889 7 236 233 237
890 11 254 253 255
891 11 254 253 256
892 12 255 253 256
893 4 256 258 262
894 4 256 258 263
895 4 256 258 264
896 7 262 258 263
897 7 262 258 264
898 7 263 258 264
899 9 253 256 258
900 13 663 666 665
901 4 665 666 667
902 4 665 666 668
903 6 667 666 668
904 9 711 714 715
905 11 712 711 713
906 11 712 711 714
907 12 713 711 714
908 13 714 715 716
909 4 716 715 719
910 4 716 715 720
911 6 719 715 720
912 9 711 713 716
913 11 542 541 543
914 11 542 541 544
915 12 543 541 544
916 9 97 100 102
917 9 541 544 545
918 9 541 543 546
919 13 544 545 546
920 4 546 545 549
921 4 546 545 550
922 6 549 545 550
923 13 543 546 545
924 4 545 546 547
925 4 545 546 548
926 6 547 546 548
927 4 100 102 106
928 4 100 102 107
929 4 100 102 108
930 7 106 102 107
931 7 106 102 108
932 7 107 102 108
933 13 683 686 685
934 4 685 686 687
935 4 685 686 688
936 6 687 686 688
937 9 145 147 149
938 11 146 145 147
939 11 146 145 148
940 12 147 145 148
941 4 147 149 151
942 4 147 149 152
943 4 147 149 153
944 7 151 149 152
945 7 151 149 153
946 7 152 149 153
947 11 2 1 3
948 11 2 1 4
949 12 3 1 4
950 11 134 133 135
951 11 134 133 136
952 12 135 133 136
953 9 133 135 137
954 4 76 78 82
955 4 76 78 83
956 4 76 78 84
957 7 82 78 83
958 7 82 78 84
959 7 83 78 84
960 9 73 76 78
961 13 713 716 715
962 4 715 716 717
963 4 715 716 718
964 6 717 716 718
965 9 121 124 126
966 11 122 121 123
967 11 122 121 124
968 12 123 121 124
969 9 121 123 125
970 4 124 126 130
971 4 124 126 131
972 4 124 126 132
973 7 130 126 131
974 7 130 126 132
975 7 131 126 132
976 4 196 198 202
977 4 196 198 203
978 4 196 198 204
979 7 202 198 203
980 7 202 198 204
981 7 203 198 204
982 11 194 193 195
983 11 194 193 196
984 12 195 193 196
985 9 193 196 198
986 9 1 4 6
987 4 4 6 10
988 4 4 6 11
989 4 4 6 12
990 7 10 6 11
991 7 10 6 12
992 7 11 6 12
993 13 574 575 576
994 4 576 575 579
995 4 576 575 580
996 6 579 575 580
997 9 1 3 5
998 4 3 5 7
999 4 3 5 8
1000 4 3 5 9
1001 7 7 5 8
1002 7 7 5 9
1003 7 8 5 9
1004 11 572 571 573
1005 11 572 571 574
1006 12 573 571 574
1007 9 571 574 575
1008 13 624 625 626
1009 4 626 625 629
1010 4 626 625 630
1011 6 629 625 630
1012 9 621 624 625
1013 11 622 621 623
1014 11 622 621 624
1015 12 623 621 624
1016 4 520 522 526
1017 4 520 522 527
1018 4 520 522 528
1019 7 526 522 527
1020 7 526 522 528
1021 7 527 522 528
1022 9 517 519 521
1023 11 26 25 27
1024 11 26 25 28
1025 12 27 25 28
1026 9 25 28 30
1027 4 220 222 226
1028 4 220 222 227
1029 4 220 222 228
1030 7 226 222 227
1031 7 226 222 228
1032 7 227 222 228
1033 9 25 27 29
1034 4 27 29 31
1035 4 27 29 32
1036 4 27 29 33
1037 7 31 29 32
1038 7 31 29 33
1039 7 32 29 33
1040 9 193 195 197
1041 9 701 703 706
1042 11 702 701 703
1043 11 702 701 704
1044 12 703 701 704
1045 9 701 704 705
1046 4 195 197 199
1047 4 195 197 200
1048 4 195 197 201
1049 7 199 197 200
1050 7 199 197 201
1051 7 200 197 201
1052 9 651 653 656
1053 4 52 54 58
1054 4 52 54 59
1055 4 52 54 60
1056 7 58 54 59
1057 7 58 54 60
1058 7 59 54 60
1059 9 49 52 54
1060 11 652 651 653
1061 11 652 651 654
1062 12 653 651 654
1063 9 651 654 655
1064 4 207 209 211
1065 4 207 209 212
1066 4 207 209 213
1067 7 211 209 212
1068 7 211 209 213
1069 7 212 209 213
1070 9 205 207 209
1071 4 531 533 535
1072 4 531 533 536
1073 4 531 533 537
1074 7 535 533 536
1075 7 535 533 537
1076 7 536 533 537
1077 9 529 531 533
1078 11 206 205 207
1079 11 206 205 208
1080 12 207 205 208
1081 4 208 210 214
1082 4 208 210 215
1083 4 208 210 216
1084 7 214 210 215
1085 7 214 210 216
1086 7 215 210 216
1087 9 205 208 210

Dihedrals

1 6 421 424 426 430
2 6 421 424 426 431
3 6 421 424 426 432
4 8 422 421 423 425
5 8 422 421 424 426
6 8 182 181 183 185
7 8 182 181 184 186
8 6 181 184 186 190
9 6 181 184 186 191
10 6 181 184 186 192
11 6 409 411 413 415
12 6 409 411 413 416
13 6 409 411 413 417
14 8 410 409 411 413
15 8 410 409 412 414
16 6 409 412 414 418
17 6 409 412 414 419
18 6 409 412 414 420
19 6 241 243 245 247
20 6 241 243 245 248
21 6 241 243 245 249
22 8 242 241 243 245
23 8 242 241 244 246
24 6 301 303 305 307
25 6 301 303 305 308
26 6 301 303 305 309
27 6 361 364 366 370
28 6 361 364 366 371
29 6 361 364 366 372
30 6 49 51 53 55
31 6 49 51 53 56
32 6 49 51 53 57
33 6 229 232 234 238
34 6 229 232 234 239
35 6 229 232 234 240
36 6 361 363 365 367
37 6 361 363 365 368
38 6 361 363 365 369
39 8 362 361 363 365
40 8 362 361 364 366
41 6 421 423 425 427
42 6 421 423 425 428
43 6 421 423 425 429
44 8 14 13 15 17
45 8 14 13 16 18
46 6 13 15 17 19
47 6 13 15 17 20
48 6 13 15 17 21
49 6 13 16 18 22
50 6 13 16 18 23
51 6 13 16 18 24
52 7 691 694 695 696
53 8 692 691 693 696
54 8 692 691 694 695
55 5 691 693 696 695
56 8 446 445 447 449
57 8 446 445 448 450
58 7 693 696 695 694
59 6 445 448 450 454
60 6 445 448 450 455
61 6 445 448 450 456
62 8 682 681 683 686
63 8 682 681 684 685
64 5 681 683 686 685
65 6 73 75 77 79
66 6 73 75 77 80
67 6 73 75 77 81
68 8 74 73 75 77
69 8 74 73 76 78
70 6 61 63 65 67
71 6 61 63 65 68
72 6 61 63 65 69
73 8 494 493 495 497
74 8 494 493 496 498
75 6 493 495 497 499
76 6 493 495 497 500
77 6 493 495 497 501
78 8 290 289 291 293
79 8 290 289 292 294
80 6 289 292 294 298
81 6 289 292 294 299
82 6 289 292 294 300
83 6 289 291 293 295
84 6 289 291 293 296
85 6 289 291 293 297
86 6 493 496 498 502
87 6 493 496 498 503
88 6 493 496 498 504
89 7 573 576 575 574
90 5 571 573 576 575
91 8 62 61 63 65
92 8 62 61 64 66
93 7 623 626 625 624
94 6 61 64 66 70
95 6 61 64 66 71
96 6 61 64 66 72
97 5 621 623 626 625
98 6 181 183 185 187
99 6 181 183 185 188
100 6 181 183 185 189
101 6 85 88 90 94
102 6 85 88 90 95
103 6 85 88 90 96
104 6 433 435 437 439
105 6 433 435 437 440
106 6 433 435 437 441
107 6 433 436 438 442
108 6 433 436 438 443
109 6 433 436 438 444
110 8 434 433 435 437
111 8 434 433 436 438
112 6 301 304 306 310
113 6 301 304 306 311
114 6 301 304 306 312
115 8 86 85 87 89
116 8 86 85 88 90
117 6 85 87 89 91
118 6 85 87 89 92
119 6 85 87 89 93
120 6 481 483 485 487
121 6 481 483 485 488
122 6 481 483 485 489
123 8 482 481 483 485
124 8 482 481 484 486
125 6 457 459 461 463
126 6 457 459 461 464
127 6 457 459 461 465
128 6 481 484 486 490
129 6 481 484 486 491
130 6 481 484 486 492
131 6 241 244 246 250
132 6 241 244 246 251
133 6 241 244 246 252
134 5 631 633 636 635
135 6 457 460 462 466
136 6 457 460 462 467
137 6 457 460 462 468
138 8 458 457 459 461
139 8 458 457 460 462
140 8 632 631 633 636
141 8 632 631 634 635
142 7 633 636 635 634
143 7 631 634 635 636
144 6 397 399 401 403
145 6 397 399 401 404
146 6 397 399 401 405
147 6 445 447 449 451
148 6 445 447 449 452
149 6 445 447 449 453
150 6 469 472 474 478
151 6 469 472 474 479
152 6 469 472 474 480
153 6 469 471 473 475
154 6 469 471 473 476
155 6 469 471 473 477
156 8 470 469 471 473
157 8 470 469 472 474
158 7 603 606 605 604
159 8 602 601 603 606
160 8 602 601 604 605
161 5 601 603 606 605
162 6 337 340 342 346
163 6 337 340 342 347
164 6 337 340 342 348
165 8 338 337 339 341
166 8 338 337 340 342
167 7 641 644 645 646
168 8 398 397 399 401
169 8 398 397 400 402
170 6 349 351 353 355
171 6 349 351 353 356
172 6 349 351 353 357
173 8 350 349 351 353
174 8 350 349 352 354
175 6 349 352 354 358
176 6 349 352 354 359
177 6 349 352 354 360
178 6 169 171 173 175
179 6 169 171 173 176
180 6 169 171 173 177
181 8 326 325 327 329
182 8 326 325 328 330
183 6 325 328 330 334
184 6 325 328 330 335
185 6 325 328 330 336
186 7 601 604 605 606
187 6 325 327 329 331
188 6 325 327 329 332
189 6 325 327 329 333
190 6 337 339 341 343
191 6 337 339 341 344
192 6 337 339 341 345
193 7 643 646 645 644
194 8 642 641 643 646
195 8 642 641 644 645
196 5 641 643 646 645
197 7 561 564 565 566
198 6 373 375 377 379
199 6 373 375 377 380
200 6 373 375 377 381
201 8 562 561 563 566
202 8 562 561 564 565
203 8 374 373 375 377
204 8 374 373 376 378
205 8 302 301 303 305
206 8 302 301 304 306
207 6 373 376 378 382
208 6 373 376 378 383
209 6 373 376 378 384
210 8 552 551 553 556
211 8 552 551 554 555
212 6 505 507 509 511
213 6 505 507 509 512
214 6 505 507 509 513
215 6 505 508 510 514
216 6 505 508 510 515
217 6 505 508 510 516
218 8 506 505 507 509
219 8 506 505 508 510
220 8 38 37 39 41
221 8 38 37 40 42
222 6 37 40 42 46
223 6 37 40 42 47
224 6 37 40 42 48
225 6 313 315 317 319
226 6 313 315 317 320
227 6 313 315 317 321
228 6 313 316 318 322
229 6 313 316 318 323
230 6 313 316 318 324
231 8 314 313 315 317
232 8 314 313 316 318
233 6 385 388 390 394
234 6 385 388 390 395
235 6 385 388 390 396
236 7 593 596 595 594
237 5 591 593 596 595
238 7 591 594 595 596
239 8 592 591 593 596
240 8 592 591 594 595
241 8 386 385 387 389
242 8 386 385 388 390
243 6 385 387 389 391
244 6 385 387 389 392
245 6 385 387 389 393
246 6 253 255 257 259
247 6 253 255 257 260
248 6 253 255 257 261
249 8 278 277 279 281
250 8 278 277 280 282
251 6 277 280 282 286
252 6 277 280 282 287
253 6 277 280 282 288
254 6 277 279 281 283
255 6 277 279 281 284
256 6 277 279 281 285
257 6 157 160 162 166
258 6 157 160 162 167
259 6 157 160 162 168
260 6 157 159 161 163
261 6 157 159 161 164
262 6 157 159 161 165
263 8 158 157 159 161
264 8 158 157 160 162
265 5 721 723 726 725
266 6 145 148 150 154
267 6 145 148 150 155
268 6 145 148 150 156
269 8 582 581 583 586
270 8 582 581 584 585
271 7 581 584 585 586
272 5 581 583 586 585
273 7 583 586 585 584
274 6 133 136 138 142
275 6 133 136 138 143
276 6 133 136 138 144
277 6 397 400 402 406
278 6 397 400 402 407
279 6 397 400 402 408
280 7 721 724 725 726
281 5 671 673 676 675
282 7 673 676 675 674
283 8 672 671 673 676
284 8 672 671 674 675
285 8 722 721 723 726
286 8 722 721 724 725
287 7 671 674 675 676
288 7 723 726 725 724
289 6 169 172 174 178
290 6 169 172 174 179
291 6 169 172 174 180
292 8 170 169 171 173
293 8 170 169 172 174
294 6 265 268 270 274
295 6 265 268 270 275
296 6 265 268 270 276
297 6 109 111 113 115
298 6 109 111 113 116
299 6 109 111 113 117
300 6 265 267 269 271
301 6 265 267 269 272
302 6 265 267 269 273
303 8 266 265 267 269
304 8 266 265 268 270
305 8 518 517 519 521
306 8 518 517 520 522
307 6 517 520 522 526
308 6 517 520 522 527
309 6 517 520 522 528
310 6 217 219 221 223
311 6 217 219 221 224
312 6 217 219 221 225
313 6 37 39 41 43
314 6 37 39 41 44
315 6 37 39 41 45
316 8 218 217 219 221
317 8 218 217 220 222
318 6 217 220 222 226
319 6 217 220 222 227
320 6 217 220 222 228
321 6 529 532 534 538
322 6 529 532 534 539
323 6 529 532 534 540
324 8 530 529 531 533
325 8 530 529 532 534
326 7 563 566 565 564
327 5 561 563 566 565
328 6 109 112 114 118
329 6 109 112 114 119
330 6 109 112 114 120
331 8 110 109 111 113
332 8 110 109 112 114
333 5 551 553 556 555
334 7 551 554 555 556
335 7 553 556 555 554
336 7 653 656 655 654
337 7 613 616 615 614
338 5 611 613 616 615
339 7 611 614 615 616
340 8 612 611 613 616
341 8 612 611 614 615
342 8 662 661 663 666
343 8 662 661 664 665
344 5 661 663 666 665
345 7 661 664 665 666
346 8 98 97 99 101
347 8 98 97 100 102
348 7 703 706 705 704
349 6 97 99 101 103
350 6 97 99 101 104
351 6 97 99 101 105
352 8 50 49 51 53
353 8 50 49 52 54
354 7 681 684 685 686
355 6 229 231 233 235
356 6 229 231 233 236
357 6 229 231 233 237
358 8 230 229 231 233
359 8 230 229 232 234
360 8 254 253 255 257
361 8 254 253 256 258
362 6 253 256 258 262
363 6 253 256 258 263
364 6 253 256 258 264
365 7 663 666 665 664
366 7 711 714 715 716
367 8 712 711 713 716
368 8 712 711 714 715
369 5 711 713 716 715
370 8 542 541 543 546
371 8 542 541 544 545
372 6 97 100 102 106
373 6 97 100 102 107
374 6 97 100 102 108
375 7 541 544 545 546
376 5 541 543 546 545
377 7 543 546 545 544
378 7 683 686 685 684
379 6 145 147 149 151
380 6 145 147 149 152
381 6 145 147 149 153
382 8 146 145 147 149
383 8 146 145 148 150
384 8 2 1 3 5
385 8 2 1 4 6
386 8 134 133 135 137
387 8 134 133 136 138
388 6 133 135 137 139
389 6 133 135 137 140
390 6 133 135 137 141
391 6 73 76 78 82
392 6 73 76 78 83
393 6 73 76 78 84
394 7 713 716 715 714
395 6 121 124 126 130
396 6 121 124 126 131
397 6 121 124 126 132
398 8 122 121 123 125
399 8 122 121 124 126
400 6 121 123 125 127
401 6 121 123 125 128
402 6 121 123 125 129
403 8 194 193 195 197
404 8 194 193 196 198
405 6 193 196 198 202
406 6 193 196 198 203
407 6 193 196 198 204
408 6 1 4 6 10
409 6 1 4 6 11
410 6 1 4 6 12
411 6 1 3 5 7
412 6 1 3 5 8
413 6 1 3 5 9
414 8 572 571 573 576
415 8 572 571 574 575
416 7 571 574 575 576
417 7 621 624 625 626
418 8 622 621 623 626
419 8 622 621 624 625
420 6 517 519 521 523
421 6 517 519 521 524
422 6 517 519 521 525
423 8 26 25 27 29
424 8 26 25 28 30
425 6 25 28 30 34
426 6 25 28 30 35
427 6 25 28 30 36
428 6 25 27 29 31
429 6 25 27 29 32
430 6 25 27 29 33
431 6 193 195 197 199
432 6 193 195 197 200
433 6 193 195 197 201
434 5 701 703 706 705
435 8 702 701 703 706
436 8 702 701 704 705
437 7 701 704 705 706
438 5 651 653 656 655
439 6 49 52 54 58
440 6 49 52 54 59
441 6 49 52 54 60
442 8 652 651 653 656
443 8 652 651 654 655
444 7 651 654 655 656
445 6 205 207 209 211
446 6 205 207 209 212
447 6 205 207 209 213
448 6 529 531 533 535
449 6 529 531 533 536
450 6 529 531 533 537
451 8 206 205 207 209
452 8 206 205 208 210
453 6 205 208 210 214
454 6 205 208 210 215
455 6 205 208 210 216
